<?xml version="1.0"?>
<VTKFile type="UnstructuredGrid" version="0.1">
<UnstructuredGrid>
<Piece NumberOfPoints="      1156" NumberOfCells="      1024">
<Points>
<DataArray type="Float64"                                    Name="coordinates"                                                      NumberOfComponents=" 3" format="ascii">
              0.133000000               0.000000000               0.000000000               0.155937500               0.000000000               0.000000000               0.178875000               0.000000000               0.000000000               0.201812500               0.000000000               0.000000000               0.224750000               0.000000000               0.000000000               0.247687500               0.000000000               0.000000000               0.270625000               0.000000000               0.000000000               0.293562500               0.000000000               0.000000000               0.316500000               0.000000000               0.000000000               0.339437500               0.000000000               0.000000000               0.362375000               0.000000000               0.000000000               0.385312500               0.000000000               0.000000000               0.408250000               0.000000000               0.000000000               0.431187500               0.000000000               0.000000000               0.454125000               0.000000000               0.000000000               0.477062500               0.000000000               0.000000000               0.500000000               0.000000000               0.000000000               0.132359569               0.013036280               0.000000000               0.155337096               0.016127762               0.000000000               0.178314623               0.019219245               0.000000000               0.201292150               0.022310727               0.000000000               0.224269676               0.025402210               0.000000000               0.247247203               0.028493692               0.000000000               0.270224730               0.031585175               0.000000000               0.293202257               0.034676657               0.000000000               0.316179784               0.037768140               0.000000000               0.339157311               0.040859622               0.000000000               0.362134838               0.043951105               0.000000000               0.385112365               0.047042587               0.000000000               0.408089892               0.050134070               0.000000000               0.431067419               0.053225552               0.000000000               0.454044946               0.056317035               0.000000000               0.477022473               0.059408517               0.000000000               0.500000000               0.062500000               0.000000000               0.130444442               0.025947013               0.000000000               0.153541665               0.032137825               0.000000000               0.176638887               0.038328636               0.000000000               0.199736109               0.044519448               0.000000000               0.222833332               0.050710260               0.000000000               0.245930554               0.056901071               0.000000000               0.269027776               0.063091883               0.000000000               0.292124999               0.069282695               0.000000000               0.315222221               0.075473506               0.000000000               0.338319444               0.081664318               0.000000000               0.361416666               0.087855130               0.000000000               0.384513888               0.094045942               0.000000000               0.407611111               0.100236753               0.000000000               0.430708333               0.106427565               0.000000000               0.453805555               0.112618377               0.000000000               0.476902778               0.118809188               0.000000000               0.500000000               0.125000000               0.000000000               0.127273065               0.038607862               0.000000000               0.150568498               0.047913621               0.000000000               0.173863932               0.057219379               0.000000000               0.197159365               0.066525138               0.000000000               0.220454798               0.075830897               0.000000000               0.243750232               0.085136655               0.000000000               0.267045665               0.094442414               0.000000000               0.290341099               0.103748172               0.000000000               0.313636532               0.113053931               0.000000000               0.336931966               0.122359690               0.000000000               0.360227399               0.131665448               0.000000000               0.383522833               0.140971207               0.000000000               0.406818266               0.150276966               0.000000000               0.430113700               0.159582724               0.000000000               0.453409133               0.168888483               0.000000000               0.476704567               0.178194241               0.000000000               0.500000000               0.187500000               0.000000000               0.122875978               0.050896897               0.000000000               0.146446229               0.063340840               0.000000000               0.170016481               0.075784784               0.000000000               0.193586732               0.088228728               0.000000000               0.217156983               0.100672672               0.000000000               0.240727235               0.113116616               0.000000000               0.264297486               0.125560560               0.000000000               0.287867738               0.138004504               0.000000000               0.311437989               0.150448448               0.000000000               0.335008240               0.162892392               0.000000000               0.358578492               0.175336336               0.000000000               0.382148743               0.187780280               0.000000000               0.405718994               0.200224224               0.000000000               0.429289246               0.212668168               0.000000000               0.452859497               0.225112112               0.000000000               0.476429749               0.237556056               0.000000000               0.500000000               0.250000000               0.000000000               0.117295528               0.062695766               0.000000000               0.141214558               0.078308531               0.000000000               0.165133587               0.093921295               0.000000000               0.189052617               0.109534060               0.000000000               0.212971646               0.125146824               0.000000000               0.236890676               0.140759589               0.000000000               0.260809705               0.156372354               0.000000000               0.284728735               0.171985118               0.000000000               0.308647764               0.187597883               0.000000000               0.332566794               0.203210648               0.000000000               0.356485823               0.218823412               0.000000000               0.380404853               0.234436177               0.000000000               0.404323882               0.250048941               0.000000000               0.428242912               0.265661706               0.000000000               0.452161941               0.281274471               0.000000000               0.476080971               0.296887235               0.000000000               0.500000000               0.312500000               0.000000000               0.110585458               0.073890841               0.000000000               0.134923867               0.092710163               0.000000000               0.159262276               0.111529486               0.000000000               0.183600685               0.130348808               0.000000000               0.207939094               0.149168131               0.000000000               0.232277503               0.167987453               0.000000000               0.256615912               0.186806776               0.000000000               0.280954320               0.205626098               0.000000000               0.305292729               0.224445420               0.000000000               0.329631138               0.243264743               0.000000000               0.353969547               0.262084065               0.000000000               0.378307956               0.280903388               0.000000000               0.402646365               0.299722710               0.000000000               0.426984773               0.318542033               0.000000000               0.451323182               0.337361355               0.000000000               0.475661591               0.356180678               0.000000000               0.500000000               0.375000000               0.000000000               0.102810390               0.084374307               0.000000000               0.127634741               0.106444663               0.000000000               0.152459092               0.128515018               0.000000000               0.177283442               0.150585374               0.000000000               0.202107793               0.172655730               0.000000000               0.226932143               0.194726086               0.000000000               0.251756494               0.216796442               0.000000000               0.276580845               0.238866798               0.000000000               0.301405195               0.260937153               0.000000000               0.326229546               0.283007509               0.000000000               0.351053896               0.305077865               0.000000000               0.375878247               0.327148221               0.000000000               0.400702598               0.349218577               0.000000000               0.425526948               0.371288933               0.000000000               0.450351299               0.393359288               0.000000000               0.475175649               0.415429644               0.000000000               0.500000000               0.437500000               0.000000000               0.094045202               0.094045202               0.000000000               0.119417377               0.119417377               0.000000000               0.144789552               0.144789552               0.000000000               0.170161727               0.170161727               0.000000000               0.195533901               0.195533901               0.000000000               0.220906076               0.220906076               0.000000000               0.246278251               0.246278251               0.000000000               0.271650426               0.271650426               0.000000000               0.297022601               0.297022601               0.000000000               0.322394776               0.322394776               0.000000000               0.347766951               0.347766951               0.000000000               0.373139126               0.373139126               0.000000000               0.398511300               0.398511300               0.000000000               0.423883475               0.423883475               0.000000000               0.449255650               0.449255650               0.000000000               0.474627825               0.474627825               0.000000000               0.500000000               0.500000000               0.000000000               0.084374307               0.102810390               0.000000000               0.106444663               0.127634741               0.000000000               0.128515018               0.152459092               0.000000000               0.150585374               0.177283442               0.000000000               0.172655730               0.202107793               0.000000000               0.194726086               0.226932143               0.000000000               0.216796442               0.251756494               0.000000000               0.238866798               0.276580845               0.000000000               0.260937153               0.301405195               0.000000000               0.283007509               0.326229546               0.000000000               0.305077865               0.351053896               0.000000000               0.327148221               0.375878247               0.000000000               0.349218577               0.400702598               0.000000000               0.371288933               0.425526948               0.000000000               0.393359288               0.450351299               0.000000000               0.415429644               0.475175649               0.000000000               0.437500000               0.500000000               0.000000000               0.073890841               0.110585458               0.000000000               0.092710163               0.134923867               0.000000000               0.111529486               0.159262276               0.000000000               0.130348808               0.183600685               0.000000000               0.149168131               0.207939094               0.000000000               0.167987453               0.232277503               0.000000000               0.186806776               0.256615912               0.000000000               0.205626098               0.280954320               0.000000000               0.224445420               0.305292729               0.000000000               0.243264743               0.329631138               0.000000000               0.262084065               0.353969547               0.000000000               0.280903388               0.378307956               0.000000000               0.299722710               0.402646365               0.000000000               0.318542033               0.426984773               0.000000000               0.337361355               0.451323182               0.000000000               0.356180678               0.475661591               0.000000000               0.375000000               0.500000000               0.000000000               0.062695766               0.117295528               0.000000000               0.078308531               0.141214558               0.000000000               0.093921295               0.165133587               0.000000000               0.109534060               0.189052617               0.000000000               0.125146824               0.212971646               0.000000000               0.140759589               0.236890676               0.000000000               0.156372354               0.260809705               0.000000000               0.171985118               0.284728735               0.000000000               0.187597883               0.308647764               0.000000000               0.203210648               0.332566794               0.000000000               0.218823412               0.356485823               0.000000000               0.234436177               0.380404853               0.000000000               0.250048941               0.404323882               0.000000000               0.265661706               0.428242912               0.000000000               0.281274471               0.452161941               0.000000000               0.296887235               0.476080971               0.000000000               0.312500000               0.500000000               0.000000000               0.050896897               0.122875978               0.000000000               0.063340840               0.146446229               0.000000000               0.075784784               0.170016481               0.000000000               0.088228728               0.193586732               0.000000000               0.100672672               0.217156983               0.000000000               0.113116616               0.240727235               0.000000000               0.125560560               0.264297486               0.000000000               0.138004504               0.287867738               0.000000000               0.150448448               0.311437989               0.000000000               0.162892392               0.335008240               0.000000000               0.175336336               0.358578492               0.000000000               0.187780280               0.382148743               0.000000000               0.200224224               0.405718994               0.000000000               0.212668168               0.429289246               0.000000000               0.225112112               0.452859497               0.000000000               0.237556056               0.476429749               0.000000000               0.250000000               0.500000000               0.000000000               0.038607862               0.127273065               0.000000000               0.047913621               0.150568498               0.000000000               0.057219379               0.173863932               0.000000000               0.066525138               0.197159365               0.000000000               0.075830897               0.220454798               0.000000000               0.085136655               0.243750232               0.000000000               0.094442414               0.267045665               0.000000000               0.103748172               0.290341099               0.000000000               0.113053931               0.313636532               0.000000000               0.122359690               0.336931966               0.000000000               0.131665448               0.360227399               0.000000000               0.140971207               0.383522833               0.000000000               0.150276966               0.406818266               0.000000000               0.159582724               0.430113700               0.000000000               0.168888483               0.453409133               0.000000000               0.178194241               0.476704567               0.000000000               0.187500000               0.500000000               0.000000000               0.025947013               0.130444442               0.000000000               0.032137825               0.153541665               0.000000000               0.038328636               0.176638887               0.000000000               0.044519448               0.199736109               0.000000000               0.050710260               0.222833332               0.000000000               0.056901071               0.245930554               0.000000000               0.063091883               0.269027776               0.000000000               0.069282695               0.292124999               0.000000000               0.075473506               0.315222221               0.000000000               0.081664318               0.338319444               0.000000000               0.087855130               0.361416666               0.000000000               0.094045942               0.384513888               0.000000000               0.100236753               0.407611111               0.000000000               0.106427565               0.430708333               0.000000000               0.112618377               0.453805555               0.000000000               0.118809188               0.476902778               0.000000000               0.125000000               0.500000000               0.000000000               0.013036280               0.132359569               0.000000000               0.016127762               0.155337096               0.000000000               0.019219245               0.178314623               0.000000000               0.022310727               0.201292150               0.000000000               0.025402210               0.224269676               0.000000000               0.028493692               0.247247203               0.000000000               0.031585175               0.270224730               0.000000000               0.034676657               0.293202257               0.000000000               0.037768140               0.316179784               0.000000000               0.040859622               0.339157311               0.000000000               0.043951105               0.362134838               0.000000000               0.047042587               0.385112365               0.000000000               0.050134070               0.408089892               0.000000000               0.053225552               0.431067419               0.000000000               0.056317035               0.454044946               0.000000000               0.059408517               0.477022473               0.000000000               0.062500000               0.500000000               0.000000000               0.000000000               0.133000000               0.000000000               0.000000000               0.155937500               0.000000000               0.000000000               0.178875000               0.000000000               0.000000000               0.201812500               0.000000000               0.000000000               0.224750000               0.000000000               0.000000000               0.247687500               0.000000000               0.000000000               0.270625000               0.000000000               0.000000000               0.293562500               0.000000000               0.000000000               0.316500000               0.000000000               0.000000000               0.339437500               0.000000000               0.000000000               0.362375000               0.000000000               0.000000000               0.385312500               0.000000000               0.000000000               0.408250000               0.000000000               0.000000000               0.431187500               0.000000000               0.000000000               0.454125000               0.000000000               0.000000000               0.477062500               0.000000000               0.000000000               0.500000000               0.000000000               0.133000000               0.000000000               0.000000000               0.155937500               0.000000000               0.000000000               0.178875000               0.000000000               0.000000000               0.201812500               0.000000000               0.000000000               0.224750000               0.000000000               0.000000000               0.247687500               0.000000000               0.000000000               0.270625000               0.000000000               0.000000000               0.293562500               0.000000000               0.000000000               0.316500000               0.000000000               0.000000000               0.339437500               0.000000000               0.000000000               0.362375000               0.000000000               0.000000000               0.385312500               0.000000000               0.000000000               0.408250000               0.000000000               0.000000000               0.431187500               0.000000000               0.000000000               0.454125000               0.000000000               0.000000000               0.477062500               0.000000000               0.000000000               0.500000000               0.000000000               0.000000000               0.132359569              -0.013036280               0.000000000               0.155337096              -0.016127762               0.000000000               0.178314623              -0.019219245               0.000000000               0.201292150              -0.022310727               0.000000000               0.224269676              -0.025402210               0.000000000               0.247247203              -0.028493692               0.000000000               0.270224730              -0.031585175               0.000000000               0.293202257              -0.034676657               0.000000000               0.316179784              -0.037768140               0.000000000               0.339157311              -0.040859622               0.000000000               0.362134838              -0.043951105               0.000000000               0.385112365              -0.047042587               0.000000000               0.408089892              -0.050134070               0.000000000               0.431067419              -0.053225552               0.000000000               0.454044946              -0.056317035               0.000000000               0.477022473              -0.059408517               0.000000000               0.500000000              -0.062500000               0.000000000               0.130444442              -0.025947013               0.000000000               0.153541665              -0.032137825               0.000000000               0.176638887              -0.038328636               0.000000000               0.199736109              -0.044519448               0.000000000               0.222833332              -0.050710260               0.000000000               0.245930554              -0.056901071               0.000000000               0.269027776              -0.063091883               0.000000000               0.292124999              -0.069282695               0.000000000               0.315222221              -0.075473506               0.000000000               0.338319444              -0.081664318               0.000000000               0.361416666              -0.087855130               0.000000000               0.384513888              -0.094045942               0.000000000               0.407611111              -0.100236753               0.000000000               0.430708333              -0.106427565               0.000000000               0.453805555              -0.112618377               0.000000000               0.476902778              -0.118809188               0.000000000               0.500000000              -0.125000000               0.000000000               0.127273065              -0.038607862               0.000000000               0.150568498              -0.047913621               0.000000000               0.173863932              -0.057219379               0.000000000               0.197159365              -0.066525138               0.000000000               0.220454798              -0.075830897               0.000000000               0.243750232              -0.085136655               0.000000000               0.267045665              -0.094442414               0.000000000               0.290341099              -0.103748172               0.000000000               0.313636532              -0.113053931               0.000000000               0.336931966              -0.122359690               0.000000000               0.360227399              -0.131665448               0.000000000               0.383522833              -0.140971207               0.000000000               0.406818266              -0.150276966               0.000000000               0.430113700              -0.159582724               0.000000000               0.453409133              -0.168888483               0.000000000               0.476704567              -0.178194241               0.000000000               0.500000000              -0.187500000               0.000000000               0.122875978              -0.050896897               0.000000000               0.146446229              -0.063340840               0.000000000               0.170016481              -0.075784784               0.000000000               0.193586732              -0.088228728               0.000000000               0.217156983              -0.100672672               0.000000000               0.240727235              -0.113116616               0.000000000               0.264297486              -0.125560560               0.000000000               0.287867738              -0.138004504               0.000000000               0.311437989              -0.150448448               0.000000000               0.335008240              -0.162892392               0.000000000               0.358578492              -0.175336336               0.000000000               0.382148743              -0.187780280               0.000000000               0.405718994              -0.200224224               0.000000000               0.429289246              -0.212668168               0.000000000               0.452859497              -0.225112112               0.000000000               0.476429749              -0.237556056               0.000000000               0.500000000              -0.250000000               0.000000000               0.117295528              -0.062695766               0.000000000               0.141214558              -0.078308531               0.000000000               0.165133587              -0.093921295               0.000000000               0.189052617              -0.109534060               0.000000000               0.212971646              -0.125146824               0.000000000               0.236890676              -0.140759589               0.000000000               0.260809705              -0.156372354               0.000000000               0.284728735              -0.171985118               0.000000000               0.308647764              -0.187597883               0.000000000               0.332566794              -0.203210648               0.000000000               0.356485823              -0.218823412               0.000000000               0.380404853              -0.234436177               0.000000000               0.404323882              -0.250048941               0.000000000               0.428242912              -0.265661706               0.000000000               0.452161941              -0.281274471               0.000000000               0.476080971              -0.296887235               0.000000000               0.500000000              -0.312500000               0.000000000               0.110585458              -0.073890841               0.000000000               0.134923867              -0.092710163               0.000000000               0.159262276              -0.111529486               0.000000000               0.183600685              -0.130348808               0.000000000               0.207939094              -0.149168131               0.000000000               0.232277503              -0.167987453               0.000000000               0.256615912              -0.186806776               0.000000000               0.280954320              -0.205626098               0.000000000               0.305292729              -0.224445420               0.000000000               0.329631138              -0.243264743               0.000000000               0.353969547              -0.262084065               0.000000000               0.378307956              -0.280903388               0.000000000               0.402646365              -0.299722710               0.000000000               0.426984773              -0.318542033               0.000000000               0.451323182              -0.337361355               0.000000000               0.475661591              -0.356180678               0.000000000               0.500000000              -0.375000000               0.000000000               0.102810390              -0.084374307               0.000000000               0.127634741              -0.106444663               0.000000000               0.152459092              -0.128515018               0.000000000               0.177283442              -0.150585374               0.000000000               0.202107793              -0.172655730               0.000000000               0.226932143              -0.194726086               0.000000000               0.251756494              -0.216796442               0.000000000               0.276580845              -0.238866798               0.000000000               0.301405195              -0.260937153               0.000000000               0.326229546              -0.283007509               0.000000000               0.351053896              -0.305077865               0.000000000               0.375878247              -0.327148221               0.000000000               0.400702598              -0.349218577               0.000000000               0.425526948              -0.371288933               0.000000000               0.450351299              -0.393359288               0.000000000               0.475175649              -0.415429644               0.000000000               0.500000000              -0.437500000               0.000000000               0.094045202              -0.094045202               0.000000000               0.119417377              -0.119417377               0.000000000               0.144789552              -0.144789552               0.000000000               0.170161727              -0.170161727               0.000000000               0.195533901              -0.195533901               0.000000000               0.220906076              -0.220906076               0.000000000               0.246278251              -0.246278251               0.000000000               0.271650426              -0.271650426               0.000000000               0.297022601              -0.297022601               0.000000000               0.322394776              -0.322394776               0.000000000               0.347766951              -0.347766951               0.000000000               0.373139126              -0.373139126               0.000000000               0.398511300              -0.398511300               0.000000000               0.423883475              -0.423883475               0.000000000               0.449255650              -0.449255650               0.000000000               0.474627825              -0.474627825               0.000000000               0.500000000              -0.500000000               0.000000000               0.084374307              -0.102810390               0.000000000               0.106444663              -0.127634741               0.000000000               0.128515018              -0.152459092               0.000000000               0.150585374              -0.177283442               0.000000000               0.172655730              -0.202107793               0.000000000               0.194726086              -0.226932143               0.000000000               0.216796442              -0.251756494               0.000000000               0.238866798              -0.276580845               0.000000000               0.260937153              -0.301405195               0.000000000               0.283007509              -0.326229546               0.000000000               0.305077865              -0.351053896               0.000000000               0.327148221              -0.375878247               0.000000000               0.349218577              -0.400702598               0.000000000               0.371288933              -0.425526948               0.000000000               0.393359288              -0.450351299               0.000000000               0.415429644              -0.475175649               0.000000000               0.437500000              -0.500000000               0.000000000               0.073890841              -0.110585458               0.000000000               0.092710163              -0.134923867               0.000000000               0.111529486              -0.159262276               0.000000000               0.130348808              -0.183600685               0.000000000               0.149168131              -0.207939094               0.000000000               0.167987453              -0.232277503               0.000000000               0.186806776              -0.256615912               0.000000000               0.205626098              -0.280954320               0.000000000               0.224445420              -0.305292729               0.000000000               0.243264743              -0.329631138               0.000000000               0.262084065              -0.353969547               0.000000000               0.280903388              -0.378307956               0.000000000               0.299722710              -0.402646365               0.000000000               0.318542033              -0.426984773               0.000000000               0.337361355              -0.451323182               0.000000000               0.356180678              -0.475661591               0.000000000               0.375000000              -0.500000000               0.000000000               0.062695766              -0.117295528               0.000000000               0.078308531              -0.141214558               0.000000000               0.093921295              -0.165133587               0.000000000               0.109534060              -0.189052617               0.000000000               0.125146824              -0.212971646               0.000000000               0.140759589              -0.236890676               0.000000000               0.156372354              -0.260809705               0.000000000               0.171985118              -0.284728735               0.000000000               0.187597883              -0.308647764               0.000000000               0.203210648              -0.332566794               0.000000000               0.218823412              -0.356485823               0.000000000               0.234436177              -0.380404853               0.000000000               0.250048941              -0.404323882               0.000000000               0.265661706              -0.428242912               0.000000000               0.281274471              -0.452161941               0.000000000               0.296887235              -0.476080971               0.000000000               0.312500000              -0.500000000               0.000000000               0.050896897              -0.122875978               0.000000000               0.063340840              -0.146446229               0.000000000               0.075784784              -0.170016481               0.000000000               0.088228728              -0.193586732               0.000000000               0.100672672              -0.217156983               0.000000000               0.113116616              -0.240727235               0.000000000               0.125560560              -0.264297486               0.000000000               0.138004504              -0.287867738               0.000000000               0.150448448              -0.311437989               0.000000000               0.162892392              -0.335008240               0.000000000               0.175336336              -0.358578492               0.000000000               0.187780280              -0.382148743               0.000000000               0.200224224              -0.405718994               0.000000000               0.212668168              -0.429289246               0.000000000               0.225112112              -0.452859497               0.000000000               0.237556056              -0.476429749               0.000000000               0.250000000              -0.500000000               0.000000000               0.038607862              -0.127273065               0.000000000               0.047913621              -0.150568498               0.000000000               0.057219379              -0.173863932               0.000000000               0.066525138              -0.197159365               0.000000000               0.075830897              -0.220454798               0.000000000               0.085136655              -0.243750232               0.000000000               0.094442414              -0.267045665               0.000000000               0.103748172              -0.290341099               0.000000000               0.113053931              -0.313636532               0.000000000               0.122359690              -0.336931966               0.000000000               0.131665448              -0.360227399               0.000000000               0.140971207              -0.383522833               0.000000000               0.150276966              -0.406818266               0.000000000               0.159582724              -0.430113700               0.000000000               0.168888483              -0.453409133               0.000000000               0.178194241              -0.476704567               0.000000000               0.187500000              -0.500000000               0.000000000               0.025947013              -0.130444442               0.000000000               0.032137825              -0.153541665               0.000000000               0.038328636              -0.176638887               0.000000000               0.044519448              -0.199736109               0.000000000               0.050710260              -0.222833332               0.000000000               0.056901071              -0.245930554               0.000000000               0.063091883              -0.269027776               0.000000000               0.069282695              -0.292124999               0.000000000               0.075473506              -0.315222221               0.000000000               0.081664318              -0.338319444               0.000000000               0.087855130              -0.361416666               0.000000000               0.094045942              -0.384513888               0.000000000               0.100236753              -0.407611111               0.000000000               0.106427565              -0.430708333               0.000000000               0.112618377              -0.453805555               0.000000000               0.118809188              -0.476902778               0.000000000               0.125000000              -0.500000000               0.000000000               0.013036280              -0.132359569               0.000000000               0.016127762              -0.155337096               0.000000000               0.019219245              -0.178314623               0.000000000               0.022310727              -0.201292150               0.000000000               0.025402210              -0.224269676               0.000000000               0.028493692              -0.247247203               0.000000000               0.031585175              -0.270224730               0.000000000               0.034676657              -0.293202257               0.000000000               0.037768140              -0.316179784               0.000000000               0.040859622              -0.339157311               0.000000000               0.043951105              -0.362134838               0.000000000               0.047042587              -0.385112365               0.000000000               0.050134070              -0.408089892               0.000000000               0.053225552              -0.431067419               0.000000000               0.056317035              -0.454044946               0.000000000               0.059408517              -0.477022473               0.000000000               0.062500000              -0.500000000               0.000000000               0.000000000              -0.133000000               0.000000000               0.000000000              -0.155937500               0.000000000               0.000000000              -0.178875000               0.000000000               0.000000000              -0.201812500               0.000000000               0.000000000              -0.224750000               0.000000000               0.000000000              -0.247687500               0.000000000               0.000000000              -0.270625000               0.000000000               0.000000000              -0.293562500               0.000000000               0.000000000              -0.316500000               0.000000000               0.000000000              -0.339437500               0.000000000               0.000000000              -0.362375000               0.000000000               0.000000000              -0.385312500               0.000000000               0.000000000              -0.408250000               0.000000000               0.000000000              -0.431187500               0.000000000               0.000000000              -0.454125000               0.000000000               0.000000000              -0.477062500               0.000000000               0.000000000              -0.500000000               0.000000000              -0.133000000               0.000000000               0.000000000              -0.155937500               0.000000000               0.000000000              -0.178875000               0.000000000               0.000000000              -0.201812500               0.000000000               0.000000000              -0.224750000               0.000000000               0.000000000              -0.247687500               0.000000000               0.000000000              -0.270625000               0.000000000               0.000000000              -0.293562500               0.000000000               0.000000000              -0.316500000               0.000000000               0.000000000              -0.339437500               0.000000000               0.000000000              -0.362375000               0.000000000               0.000000000              -0.385312500               0.000000000               0.000000000              -0.408250000               0.000000000               0.000000000              -0.431187500               0.000000000               0.000000000              -0.454125000               0.000000000               0.000000000              -0.477062500               0.000000000               0.000000000              -0.500000000               0.000000000               0.000000000              -0.132359569              -0.013036280               0.000000000              -0.155337096              -0.016127762               0.000000000              -0.178314623              -0.019219245               0.000000000              -0.201292150              -0.022310727               0.000000000              -0.224269676              -0.025402210               0.000000000              -0.247247203              -0.028493692               0.000000000              -0.270224730              -0.031585175               0.000000000              -0.293202257              -0.034676657               0.000000000              -0.316179784              -0.037768140               0.000000000              -0.339157311              -0.040859622               0.000000000              -0.362134838              -0.043951105               0.000000000              -0.385112365              -0.047042587               0.000000000              -0.408089892              -0.050134070               0.000000000              -0.431067419              -0.053225552               0.000000000              -0.454044946              -0.056317035               0.000000000              -0.477022473              -0.059408517               0.000000000              -0.500000000              -0.062500000               0.000000000              -0.130444442              -0.025947013               0.000000000              -0.153541665              -0.032137825               0.000000000              -0.176638887              -0.038328636               0.000000000              -0.199736109              -0.044519448               0.000000000              -0.222833332              -0.050710260               0.000000000              -0.245930554              -0.056901071               0.000000000              -0.269027776              -0.063091883               0.000000000              -0.292124999              -0.069282695               0.000000000              -0.315222221              -0.075473506               0.000000000              -0.338319444              -0.081664318               0.000000000              -0.361416666              -0.087855130               0.000000000              -0.384513888              -0.094045942               0.000000000              -0.407611111              -0.100236753               0.000000000              -0.430708333              -0.106427565               0.000000000              -0.453805555              -0.112618377               0.000000000              -0.476902778              -0.118809188               0.000000000              -0.500000000              -0.125000000               0.000000000              -0.127273065              -0.038607862               0.000000000              -0.150568498              -0.047913621               0.000000000              -0.173863932              -0.057219379               0.000000000              -0.197159365              -0.066525138               0.000000000              -0.220454798              -0.075830897               0.000000000              -0.243750232              -0.085136655               0.000000000              -0.267045665              -0.094442414               0.000000000              -0.290341099              -0.103748172               0.000000000              -0.313636532              -0.113053931               0.000000000              -0.336931966              -0.122359690               0.000000000              -0.360227399              -0.131665448               0.000000000              -0.383522833              -0.140971207               0.000000000              -0.406818266              -0.150276966               0.000000000              -0.430113700              -0.159582724               0.000000000              -0.453409133              -0.168888483               0.000000000              -0.476704567              -0.178194241               0.000000000              -0.500000000              -0.187500000               0.000000000              -0.122875978              -0.050896897               0.000000000              -0.146446229              -0.063340840               0.000000000              -0.170016481              -0.075784784               0.000000000              -0.193586732              -0.088228728               0.000000000              -0.217156983              -0.100672672               0.000000000              -0.240727235              -0.113116616               0.000000000              -0.264297486              -0.125560560               0.000000000              -0.287867738              -0.138004504               0.000000000              -0.311437989              -0.150448448               0.000000000              -0.335008240              -0.162892392               0.000000000              -0.358578492              -0.175336336               0.000000000              -0.382148743              -0.187780280               0.000000000              -0.405718994              -0.200224224               0.000000000              -0.429289246              -0.212668168               0.000000000              -0.452859497              -0.225112112               0.000000000              -0.476429749              -0.237556056               0.000000000              -0.500000000              -0.250000000               0.000000000              -0.117295528              -0.062695766               0.000000000              -0.141214558              -0.078308531               0.000000000              -0.165133587              -0.093921295               0.000000000              -0.189052617              -0.109534060               0.000000000              -0.212971646              -0.125146824               0.000000000              -0.236890676              -0.140759589               0.000000000              -0.260809705              -0.156372354               0.000000000              -0.284728735              -0.171985118               0.000000000              -0.308647764              -0.187597883               0.000000000              -0.332566794              -0.203210648               0.000000000              -0.356485823              -0.218823412               0.000000000              -0.380404853              -0.234436177               0.000000000              -0.404323882              -0.250048941               0.000000000              -0.428242912              -0.265661706               0.000000000              -0.452161941              -0.281274471               0.000000000              -0.476080971              -0.296887235               0.000000000              -0.500000000              -0.312500000               0.000000000              -0.110585458              -0.073890841               0.000000000              -0.134923867              -0.092710163               0.000000000              -0.159262276              -0.111529486               0.000000000              -0.183600685              -0.130348808               0.000000000              -0.207939094              -0.149168131               0.000000000              -0.232277503              -0.167987453               0.000000000              -0.256615912              -0.186806776               0.000000000              -0.280954320              -0.205626098               0.000000000              -0.305292729              -0.224445420               0.000000000              -0.329631138              -0.243264743               0.000000000              -0.353969547              -0.262084065               0.000000000              -0.378307956              -0.280903388               0.000000000              -0.402646365              -0.299722710               0.000000000              -0.426984773              -0.318542033               0.000000000              -0.451323182              -0.337361355               0.000000000              -0.475661591              -0.356180678               0.000000000              -0.500000000              -0.375000000               0.000000000              -0.102810390              -0.084374307               0.000000000              -0.127634741              -0.106444663               0.000000000              -0.152459092              -0.128515018               0.000000000              -0.177283442              -0.150585374               0.000000000              -0.202107793              -0.172655730               0.000000000              -0.226932143              -0.194726086               0.000000000              -0.251756494              -0.216796442               0.000000000              -0.276580845              -0.238866798               0.000000000              -0.301405195              -0.260937153               0.000000000              -0.326229546              -0.283007509               0.000000000              -0.351053896              -0.305077865               0.000000000              -0.375878247              -0.327148221               0.000000000              -0.400702598              -0.349218577               0.000000000              -0.425526948              -0.371288933               0.000000000              -0.450351299              -0.393359288               0.000000000              -0.475175649              -0.415429644               0.000000000              -0.500000000              -0.437500000               0.000000000              -0.094045202              -0.094045202               0.000000000              -0.119417377              -0.119417377               0.000000000              -0.144789552              -0.144789552               0.000000000              -0.170161727              -0.170161727               0.000000000              -0.195533901              -0.195533901               0.000000000              -0.220906076              -0.220906076               0.000000000              -0.246278251              -0.246278251               0.000000000              -0.271650426              -0.271650426               0.000000000              -0.297022601              -0.297022601               0.000000000              -0.322394776              -0.322394776               0.000000000              -0.347766951              -0.347766951               0.000000000              -0.373139126              -0.373139126               0.000000000              -0.398511300              -0.398511300               0.000000000              -0.423883475              -0.423883475               0.000000000              -0.449255650              -0.449255650               0.000000000              -0.474627825              -0.474627825               0.000000000              -0.500000000              -0.500000000               0.000000000              -0.084374307              -0.102810390               0.000000000              -0.106444663              -0.127634741               0.000000000              -0.128515018              -0.152459092               0.000000000              -0.150585374              -0.177283442               0.000000000              -0.172655730              -0.202107793               0.000000000              -0.194726086              -0.226932143               0.000000000              -0.216796442              -0.251756494               0.000000000              -0.238866798              -0.276580845               0.000000000              -0.260937153              -0.301405195               0.000000000              -0.283007509              -0.326229546               0.000000000              -0.305077865              -0.351053896               0.000000000              -0.327148221              -0.375878247               0.000000000              -0.349218577              -0.400702598               0.000000000              -0.371288933              -0.425526948               0.000000000              -0.393359288              -0.450351299               0.000000000              -0.415429644              -0.475175649               0.000000000              -0.437500000              -0.500000000               0.000000000              -0.073890841              -0.110585458               0.000000000              -0.092710163              -0.134923867               0.000000000              -0.111529486              -0.159262276               0.000000000              -0.130348808              -0.183600685               0.000000000              -0.149168131              -0.207939094               0.000000000              -0.167987453              -0.232277503               0.000000000              -0.186806776              -0.256615912               0.000000000              -0.205626098              -0.280954320               0.000000000              -0.224445420              -0.305292729               0.000000000              -0.243264743              -0.329631138               0.000000000              -0.262084065              -0.353969547               0.000000000              -0.280903388              -0.378307956               0.000000000              -0.299722710              -0.402646365               0.000000000              -0.318542033              -0.426984773               0.000000000              -0.337361355              -0.451323182               0.000000000              -0.356180678              -0.475661591               0.000000000              -0.375000000              -0.500000000               0.000000000              -0.062695766              -0.117295528               0.000000000              -0.078308531              -0.141214558               0.000000000              -0.093921295              -0.165133587               0.000000000              -0.109534060              -0.189052617               0.000000000              -0.125146824              -0.212971646               0.000000000              -0.140759589              -0.236890676               0.000000000              -0.156372354              -0.260809705               0.000000000              -0.171985118              -0.284728735               0.000000000              -0.187597883              -0.308647764               0.000000000              -0.203210648              -0.332566794               0.000000000              -0.218823412              -0.356485823               0.000000000              -0.234436177              -0.380404853               0.000000000              -0.250048941              -0.404323882               0.000000000              -0.265661706              -0.428242912               0.000000000              -0.281274471              -0.452161941               0.000000000              -0.296887235              -0.476080971               0.000000000              -0.312500000              -0.500000000               0.000000000              -0.050896897              -0.122875978               0.000000000              -0.063340840              -0.146446229               0.000000000              -0.075784784              -0.170016481               0.000000000              -0.088228728              -0.193586732               0.000000000              -0.100672672              -0.217156983               0.000000000              -0.113116616              -0.240727235               0.000000000              -0.125560560              -0.264297486               0.000000000              -0.138004504              -0.287867738               0.000000000              -0.150448448              -0.311437989               0.000000000              -0.162892392              -0.335008240               0.000000000              -0.175336336              -0.358578492               0.000000000              -0.187780280              -0.382148743               0.000000000              -0.200224224              -0.405718994               0.000000000              -0.212668168              -0.429289246               0.000000000              -0.225112112              -0.452859497               0.000000000              -0.237556056              -0.476429749               0.000000000              -0.250000000              -0.500000000               0.000000000              -0.038607862              -0.127273065               0.000000000              -0.047913621              -0.150568498               0.000000000              -0.057219379              -0.173863932               0.000000000              -0.066525138              -0.197159365               0.000000000              -0.075830897              -0.220454798               0.000000000              -0.085136655              -0.243750232               0.000000000              -0.094442414              -0.267045665               0.000000000              -0.103748172              -0.290341099               0.000000000              -0.113053931              -0.313636532               0.000000000              -0.122359690              -0.336931966               0.000000000              -0.131665448              -0.360227399               0.000000000              -0.140971207              -0.383522833               0.000000000              -0.150276966              -0.406818266               0.000000000              -0.159582724              -0.430113700               0.000000000              -0.168888483              -0.453409133               0.000000000              -0.178194241              -0.476704567               0.000000000              -0.187500000              -0.500000000               0.000000000              -0.025947013              -0.130444442               0.000000000              -0.032137825              -0.153541665               0.000000000              -0.038328636              -0.176638887               0.000000000              -0.044519448              -0.199736109               0.000000000              -0.050710260              -0.222833332               0.000000000              -0.056901071              -0.245930554               0.000000000              -0.063091883              -0.269027776               0.000000000              -0.069282695              -0.292124999               0.000000000              -0.075473506              -0.315222221               0.000000000              -0.081664318              -0.338319444               0.000000000              -0.087855130              -0.361416666               0.000000000              -0.094045942              -0.384513888               0.000000000              -0.100236753              -0.407611111               0.000000000              -0.106427565              -0.430708333               0.000000000              -0.112618377              -0.453805555               0.000000000              -0.118809188              -0.476902778               0.000000000              -0.125000000              -0.500000000               0.000000000              -0.013036280              -0.132359569               0.000000000              -0.016127762              -0.155337096               0.000000000              -0.019219245              -0.178314623               0.000000000              -0.022310727              -0.201292150               0.000000000              -0.025402210              -0.224269676               0.000000000              -0.028493692              -0.247247203               0.000000000              -0.031585175              -0.270224730               0.000000000              -0.034676657              -0.293202257               0.000000000              -0.037768140              -0.316179784               0.000000000              -0.040859622              -0.339157311               0.000000000              -0.043951105              -0.362134838               0.000000000              -0.047042587              -0.385112365               0.000000000              -0.050134070              -0.408089892               0.000000000              -0.053225552              -0.431067419               0.000000000              -0.056317035              -0.454044946               0.000000000              -0.059408517              -0.477022473               0.000000000              -0.062500000              -0.500000000               0.000000000               0.000000000              -0.133000000               0.000000000               0.000000000              -0.155937500               0.000000000               0.000000000              -0.178875000               0.000000000               0.000000000              -0.201812500               0.000000000               0.000000000              -0.224750000               0.000000000               0.000000000              -0.247687500               0.000000000               0.000000000              -0.270625000               0.000000000               0.000000000              -0.293562500               0.000000000               0.000000000              -0.316500000               0.000000000               0.000000000              -0.339437500               0.000000000               0.000000000              -0.362375000               0.000000000               0.000000000              -0.385312500               0.000000000               0.000000000              -0.408250000               0.000000000               0.000000000              -0.431187500               0.000000000               0.000000000              -0.454125000               0.000000000               0.000000000              -0.477062500               0.000000000               0.000000000              -0.500000000               0.000000000              -0.133000000               0.000000000               0.000000000              -0.155937500               0.000000000               0.000000000              -0.178875000               0.000000000               0.000000000              -0.201812500               0.000000000               0.000000000              -0.224750000               0.000000000               0.000000000              -0.247687500               0.000000000               0.000000000              -0.270625000               0.000000000               0.000000000              -0.293562500               0.000000000               0.000000000              -0.316500000               0.000000000               0.000000000              -0.339437500               0.000000000               0.000000000              -0.362375000               0.000000000               0.000000000              -0.385312500               0.000000000               0.000000000              -0.408250000               0.000000000               0.000000000              -0.431187500               0.000000000               0.000000000              -0.454125000               0.000000000               0.000000000              -0.477062500               0.000000000               0.000000000              -0.500000000               0.000000000               0.000000000              -0.132359569               0.013036280               0.000000000              -0.155337096               0.016127762               0.000000000              -0.178314623               0.019219245               0.000000000              -0.201292150               0.022310727               0.000000000              -0.224269676               0.025402210               0.000000000              -0.247247203               0.028493692               0.000000000              -0.270224730               0.031585175               0.000000000              -0.293202257               0.034676657               0.000000000              -0.316179784               0.037768140               0.000000000              -0.339157311               0.040859622               0.000000000              -0.362134838               0.043951105               0.000000000              -0.385112365               0.047042587               0.000000000              -0.408089892               0.050134070               0.000000000              -0.431067419               0.053225552               0.000000000              -0.454044946               0.056317035               0.000000000              -0.477022473               0.059408517               0.000000000              -0.500000000               0.062500000               0.000000000              -0.130444442               0.025947013               0.000000000              -0.153541665               0.032137825               0.000000000              -0.176638887               0.038328636               0.000000000              -0.199736109               0.044519448               0.000000000              -0.222833332               0.050710260               0.000000000              -0.245930554               0.056901071               0.000000000              -0.269027776               0.063091883               0.000000000              -0.292124999               0.069282695               0.000000000              -0.315222221               0.075473506               0.000000000              -0.338319444               0.081664318               0.000000000              -0.361416666               0.087855130               0.000000000              -0.384513888               0.094045942               0.000000000              -0.407611111               0.100236753               0.000000000              -0.430708333               0.106427565               0.000000000              -0.453805555               0.112618377               0.000000000              -0.476902778               0.118809188               0.000000000              -0.500000000               0.125000000               0.000000000              -0.127273065               0.038607862               0.000000000              -0.150568498               0.047913621               0.000000000              -0.173863932               0.057219379               0.000000000              -0.197159365               0.066525138               0.000000000              -0.220454798               0.075830897               0.000000000              -0.243750232               0.085136655               0.000000000              -0.267045665               0.094442414               0.000000000              -0.290341099               0.103748172               0.000000000              -0.313636532               0.113053931               0.000000000              -0.336931966               0.122359690               0.000000000              -0.360227399               0.131665448               0.000000000              -0.383522833               0.140971207               0.000000000              -0.406818266               0.150276966               0.000000000              -0.430113700               0.159582724               0.000000000              -0.453409133               0.168888483               0.000000000              -0.476704567               0.178194241               0.000000000              -0.500000000               0.187500000               0.000000000              -0.122875978               0.050896897               0.000000000              -0.146446229               0.063340840               0.000000000              -0.170016481               0.075784784               0.000000000              -0.193586732               0.088228728               0.000000000              -0.217156983               0.100672672               0.000000000              -0.240727235               0.113116616               0.000000000              -0.264297486               0.125560560               0.000000000              -0.287867738               0.138004504               0.000000000              -0.311437989               0.150448448               0.000000000              -0.335008240               0.162892392               0.000000000              -0.358578492               0.175336336               0.000000000              -0.382148743               0.187780280               0.000000000              -0.405718994               0.200224224               0.000000000              -0.429289246               0.212668168               0.000000000              -0.452859497               0.225112112               0.000000000              -0.476429749               0.237556056               0.000000000              -0.500000000               0.250000000               0.000000000              -0.117295528               0.062695766               0.000000000              -0.141214558               0.078308531               0.000000000              -0.165133587               0.093921295               0.000000000              -0.189052617               0.109534060               0.000000000              -0.212971646               0.125146824               0.000000000              -0.236890676               0.140759589               0.000000000              -0.260809705               0.156372354               0.000000000              -0.284728735               0.171985118               0.000000000              -0.308647764               0.187597883               0.000000000              -0.332566794               0.203210648               0.000000000              -0.356485823               0.218823412               0.000000000              -0.380404853               0.234436177               0.000000000              -0.404323882               0.250048941               0.000000000              -0.428242912               0.265661706               0.000000000              -0.452161941               0.281274471               0.000000000              -0.476080971               0.296887235               0.000000000              -0.500000000               0.312500000               0.000000000              -0.110585458               0.073890841               0.000000000              -0.134923867               0.092710163               0.000000000              -0.159262276               0.111529486               0.000000000              -0.183600685               0.130348808               0.000000000              -0.207939094               0.149168131               0.000000000              -0.232277503               0.167987453               0.000000000              -0.256615912               0.186806776               0.000000000              -0.280954320               0.205626098               0.000000000              -0.305292729               0.224445420               0.000000000              -0.329631138               0.243264743               0.000000000              -0.353969547               0.262084065               0.000000000              -0.378307956               0.280903388               0.000000000              -0.402646365               0.299722710               0.000000000              -0.426984773               0.318542033               0.000000000              -0.451323182               0.337361355               0.000000000              -0.475661591               0.356180678               0.000000000              -0.500000000               0.375000000               0.000000000              -0.102810390               0.084374307               0.000000000              -0.127634741               0.106444663               0.000000000              -0.152459092               0.128515018               0.000000000              -0.177283442               0.150585374               0.000000000              -0.202107793               0.172655730               0.000000000              -0.226932143               0.194726086               0.000000000              -0.251756494               0.216796442               0.000000000              -0.276580845               0.238866798               0.000000000              -0.301405195               0.260937153               0.000000000              -0.326229546               0.283007509               0.000000000              -0.351053896               0.305077865               0.000000000              -0.375878247               0.327148221               0.000000000              -0.400702598               0.349218577               0.000000000              -0.425526948               0.371288933               0.000000000              -0.450351299               0.393359288               0.000000000              -0.475175649               0.415429644               0.000000000              -0.500000000               0.437500000               0.000000000              -0.094045202               0.094045202               0.000000000              -0.119417377               0.119417377               0.000000000              -0.144789552               0.144789552               0.000000000              -0.170161727               0.170161727               0.000000000              -0.195533901               0.195533901               0.000000000              -0.220906076               0.220906076               0.000000000              -0.246278251               0.246278251               0.000000000              -0.271650426               0.271650426               0.000000000              -0.297022601               0.297022601               0.000000000              -0.322394776               0.322394776               0.000000000              -0.347766951               0.347766951               0.000000000              -0.373139126               0.373139126               0.000000000              -0.398511300               0.398511300               0.000000000              -0.423883475               0.423883475               0.000000000              -0.449255650               0.449255650               0.000000000              -0.474627825               0.474627825               0.000000000              -0.500000000               0.500000000               0.000000000              -0.084374307               0.102810390               0.000000000              -0.106444663               0.127634741               0.000000000              -0.128515018               0.152459092               0.000000000              -0.150585374               0.177283442               0.000000000              -0.172655730               0.202107793               0.000000000              -0.194726086               0.226932143               0.000000000              -0.216796442               0.251756494               0.000000000              -0.238866798               0.276580845               0.000000000              -0.260937153               0.301405195               0.000000000              -0.283007509               0.326229546               0.000000000              -0.305077865               0.351053896               0.000000000              -0.327148221               0.375878247               0.000000000              -0.349218577               0.400702598               0.000000000              -0.371288933               0.425526948               0.000000000              -0.393359288               0.450351299               0.000000000              -0.415429644               0.475175649               0.000000000              -0.437500000               0.500000000               0.000000000              -0.073890841               0.110585458               0.000000000              -0.092710163               0.134923867               0.000000000              -0.111529486               0.159262276               0.000000000              -0.130348808               0.183600685               0.000000000              -0.149168131               0.207939094               0.000000000              -0.167987453               0.232277503               0.000000000              -0.186806776               0.256615912               0.000000000              -0.205626098               0.280954320               0.000000000              -0.224445420               0.305292729               0.000000000              -0.243264743               0.329631138               0.000000000              -0.262084065               0.353969547               0.000000000              -0.280903388               0.378307956               0.000000000              -0.299722710               0.402646365               0.000000000              -0.318542033               0.426984773               0.000000000              -0.337361355               0.451323182               0.000000000              -0.356180678               0.475661591               0.000000000              -0.375000000               0.500000000               0.000000000              -0.062695766               0.117295528               0.000000000              -0.078308531               0.141214558               0.000000000              -0.093921295               0.165133587               0.000000000              -0.109534060               0.189052617               0.000000000              -0.125146824               0.212971646               0.000000000              -0.140759589               0.236890676               0.000000000              -0.156372354               0.260809705               0.000000000              -0.171985118               0.284728735               0.000000000              -0.187597883               0.308647764               0.000000000              -0.203210648               0.332566794               0.000000000              -0.218823412               0.356485823               0.000000000              -0.234436177               0.380404853               0.000000000              -0.250048941               0.404323882               0.000000000              -0.265661706               0.428242912               0.000000000              -0.281274471               0.452161941               0.000000000              -0.296887235               0.476080971               0.000000000              -0.312500000               0.500000000               0.000000000              -0.050896897               0.122875978               0.000000000              -0.063340840               0.146446229               0.000000000              -0.075784784               0.170016481               0.000000000              -0.088228728               0.193586732               0.000000000              -0.100672672               0.217156983               0.000000000              -0.113116616               0.240727235               0.000000000              -0.125560560               0.264297486               0.000000000              -0.138004504               0.287867738               0.000000000              -0.150448448               0.311437989               0.000000000              -0.162892392               0.335008240               0.000000000              -0.175336336               0.358578492               0.000000000              -0.187780280               0.382148743               0.000000000              -0.200224224               0.405718994               0.000000000              -0.212668168               0.429289246               0.000000000              -0.225112112               0.452859497               0.000000000              -0.237556056               0.476429749               0.000000000              -0.250000000               0.500000000               0.000000000              -0.038607862               0.127273065               0.000000000              -0.047913621               0.150568498               0.000000000              -0.057219379               0.173863932               0.000000000              -0.066525138               0.197159365               0.000000000              -0.075830897               0.220454798               0.000000000              -0.085136655               0.243750232               0.000000000              -0.094442414               0.267045665               0.000000000              -0.103748172               0.290341099               0.000000000              -0.113053931               0.313636532               0.000000000              -0.122359690               0.336931966               0.000000000              -0.131665448               0.360227399               0.000000000              -0.140971207               0.383522833               0.000000000              -0.150276966               0.406818266               0.000000000              -0.159582724               0.430113700               0.000000000              -0.168888483               0.453409133               0.000000000              -0.178194241               0.476704567               0.000000000              -0.187500000               0.500000000               0.000000000              -0.025947013               0.130444442               0.000000000              -0.032137825               0.153541665               0.000000000              -0.038328636               0.176638887               0.000000000              -0.044519448               0.199736109               0.000000000              -0.050710260               0.222833332               0.000000000              -0.056901071               0.245930554               0.000000000              -0.063091883               0.269027776               0.000000000              -0.069282695               0.292124999               0.000000000              -0.075473506               0.315222221               0.000000000              -0.081664318               0.338319444               0.000000000              -0.087855130               0.361416666               0.000000000              -0.094045942               0.384513888               0.000000000              -0.100236753               0.407611111               0.000000000              -0.106427565               0.430708333               0.000000000              -0.112618377               0.453805555               0.000000000              -0.118809188               0.476902778               0.000000000              -0.125000000               0.500000000               0.000000000              -0.013036280               0.132359569               0.000000000              -0.016127762               0.155337096               0.000000000              -0.019219245               0.178314623               0.000000000              -0.022310727               0.201292150               0.000000000              -0.025402210               0.224269676               0.000000000              -0.028493692               0.247247203               0.000000000              -0.031585175               0.270224730               0.000000000              -0.034676657               0.293202257               0.000000000              -0.037768140               0.316179784               0.000000000              -0.040859622               0.339157311               0.000000000              -0.043951105               0.362134838               0.000000000              -0.047042587               0.385112365               0.000000000              -0.050134070               0.408089892               0.000000000              -0.053225552               0.431067419               0.000000000              -0.056317035               0.454044946               0.000000000              -0.059408517               0.477022473               0.000000000              -0.062500000               0.500000000               0.000000000               0.000000000               0.133000000               0.000000000               0.000000000               0.155937500               0.000000000               0.000000000               0.178875000               0.000000000               0.000000000               0.201812500               0.000000000               0.000000000               0.224750000               0.000000000               0.000000000               0.247687500               0.000000000               0.000000000               0.270625000               0.000000000               0.000000000               0.293562500               0.000000000               0.000000000               0.316500000               0.000000000               0.000000000               0.339437500               0.000000000               0.000000000               0.362375000               0.000000000               0.000000000               0.385312500               0.000000000               0.000000000               0.408250000               0.000000000               0.000000000               0.431187500               0.000000000               0.000000000               0.454125000               0.000000000               0.000000000               0.477062500               0.000000000               0.000000000               0.500000000               0.000000000 </DataArray>
</Points>
<Cells>
<DataArray type="Int32"                                    Name="connectivity"                                                      NumberOfComponents=" 1" format="ascii">
         0          1         18         17          1          2         19         18          2          3         20         19          3          4         21         20          4          5         22         21          5          6         23         22          6          7         24         23          7          8         25         24          8          9         26         25          9         10         27         26         10         11         28         27         11         12         29         28         12         13         30         29         13         14         31         30         14         15         32         31         15         16         33         32         17         18         35         34         18         19         36         35         19         20         37         36         20         21         38         37         21         22         39         38         22         23         40         39         23         24         41         40         24         25         42         41         25         26         43         42         26         27         44         43         27         28         45         44         28         29         46         45         29         30         47         46         30         31         48         47         31         32         49         48         32         33         50         49         34         35         52         51         35         36         53         52         36         37         54         53         37         38         55         54         38         39         56         55         39         40         57         56         40         41         58         57         41         42         59         58         42         43         60         59         43         44         61         60         44         45         62         61         45         46         63         62         46         47         64         63         47         48         65         64         48         49         66         65         49         50         67         66         51         52         69         68         52         53         70         69         53         54         71         70         54         55         72         71         55         56         73         72         56         57         74         73         57         58         75         74         58         59         76         75         59         60         77         76         60         61         78         77         61         62         79         78         62         63         80         79         63         64         81         80         64         65         82         81         65         66         83         82         66         67         84         83         68         69         86         85         69         70         87         86         70         71         88         87         71         72         89         88         72         73         90         89         73         74         91         90         74         75         92         91         75         76         93         92         76         77         94         93         77         78         95         94         78         79         96         95         79         80         97         96         80         81         98         97         81         82         99         98         82         83        100         99         83         84        101        100         85         86        103        102         86         87        104        103         87         88        105        104         88         89        106        105         89         90        107        106         90         91        108        107         91         92        109        108         92         93        110        109         93         94        111        110         94         95        112        111         95         96        113        112         96         97        114        113         97         98        115        114         98         99        116        115         99        100        117        116        100        101        118        117        102        103        120        119        103        104        121        120        104        105        122        121        105        106        123        122        106        107        124        123        107        108        125        124        108        109        126        125        109        110        127        126        110        111        128        127        111        112        129        128        112        113        130        129        113        114        131        130        114        115        132        131        115        116        133        132        116        117        134        133        117        118        135        134        119        120        137        136        120        121        138        137        121        122        139        138        122        123        140        139        123        124        141        140        124        125        142        141        125        126        143        142        126        127        144        143        127        128        145        144        128        129        146        145        129        130        147        146        130        131        148        147        131        132        149        148        132        133        150        149        133        134        151        150        134        135        152        151        136        137        154        153        137        138        155        154        138        139        156        155        139        140        157        156        140        141        158        157        141        142        159        158        142        143        160        159        143        144        161        160        144        145        162        161        145        146        163        162        146        147        164        163        147        148        165        164        148        149        166        165        149        150        167        166        150        151        168        167        151        152        169        168        153        154        171        170        154        155        172        171        155        156        173        172        156        157        174        173        157        158        175        174        158        159        176        175        159        160        177        176        160        161        178        177        161        162        179        178        162        163        180        179        163        164        181        180        164        165        182        181        165        166        183        182        166        167        184        183        167        168        185        184        168        169        186        185        170        171        188        187        171        172        189        188        172        173        190        189        173        174        191        190        174        175        192        191        175        176        193        192        176        177        194        193        177        178        195        194        178        179        196        195        179        180        197        196        180        181        198        197        181        182        199        198        182        183        200        199        183        184        201        200        184        185        202        201        185        186        203        202        187        188        205        204        188        189        206        205        189        190        207        206        190        191        208        207        191        192        209        208        192        193        210        209        193        194        211        210        194        195        212        211        195        196        213        212        196        197        214        213        197        198        215        214        198        199        216        215        199        200        217        216        200        201        218        217        201        202        219        218        202        203        220        219        204        205        222        221        205        206        223        222        206        207        224        223        207        208        225        224        208        209        226        225        209        210        227        226        210        211        228        227        211        212        229        228        212        213        230        229        213        214        231        230        214        215        232        231        215        216        233        232        216        217        234        233        217        218        235        234        218        219        236        235        219        220        237        236        221        222        239        238        222        223        240        239        223        224        241        240        224        225        242        241        225        226        243        242        226        227        244        243        227        228        245        244        228        229        246        245        229        230        247        246        230        231        248        247        231        232        249        248        232        233        250        249        233        234        251        250        234        235        252        251        235        236        253        252        236        237        254        253        238        239        256        255        239        240        257        256        240        241        258        257        241        242        259        258        242        243        260        259        243        244        261        260        244        245        262        261        245        246        263        262        246        247        264        263        247        248        265        264        248        249        266        265        249        250        267        266        250        251        268        267        251        252        269        268        252        253        270        269        253        254        271        270        255        256        273        272        256        257        274        273        257        258        275        274        258        259        276        275        259        260        277        276        260        261        278        277        261        262        279        278        262        263        280        279        263        264        281        280        264        265        282        281        265        266        283        282        266        267        284        283        267        268        285        284        268        269        286        285        269        270        287        286        270        271        288        287        306        307          1          0        307        308          2          1        308        309          3          2        309        310          4          3        310        311          5          4        311        312          6          5        312        313          7          6        313        314          8          7        314        315          9          8        315        316         10          9        316        317         11         10        317        318         12         11        318        319         13         12        319        320         14         13        320        321         15         14        321        322         16         15        323        324        307        306        324        325        308        307        325        326        309        308        326        327        310        309        327        328        311        310        328        329        312        311        329        330        313        312        330        331        314        313        331        332        315        314        332        333        316        315        333        334        317        316        334        335        318        317        335        336        319        318        336        337        320        319        337        338        321        320        338        339        322        321        340        341        324        323        341        342        325        324        342        343        326        325        343        344        327        326        344        345        328        327        345        346        329        328        346        347        330        329        347        348        331        330        348        349        332        331        349        350        333        332        350        351        334        333        351        352        335        334        352        353        336        335        353        354        337        336        354        355        338        337        355        356        339        338        357        358        341        340        358        359        342        341        359        360        343        342        360        361        344        343        361        362        345        344        362        363        346        345        363        364        347        346        364        365        348        347        365        366        349        348        366        367        350        349        367        368        351        350        368        369        352        351        369        370        353        352        370        371        354        353        371        372        355        354        372        373        356        355        374        375        358        357        375        376        359        358        376        377        360        359        377        378        361        360        378        379        362        361        379        380        363        362        380        381        364        363        381        382        365        364        382        383        366        365        383        384        367        366        384        385        368        367        385        386        369        368        386        387        370        369        387        388        371        370        388        389        372        371        389        390        373        372        391        392        375        374        392        393        376        375        393        394        377        376        394        395        378        377        395        396        379        378        396        397        380        379        397        398        381        380        398        399        382        381        399        400        383        382        400        401        384        383        401        402        385        384        402        403        386        385        403        404        387        386        404        405        388        387        405        406        389        388        406        407        390        389        408        409        392        391        409        410        393        392        410        411        394        393        411        412        395        394        412        413        396        395        413        414        397        396        414        415        398        397        415        416        399        398        416        417        400        399        417        418        401        400        418        419        402        401        419        420        403        402        420        421        404        403        421        422        405        404        422        423        406        405        423        424        407        406        425        426        409        408        426        427        410        409        427        428        411        410        428        429        412        411        429        430        413        412        430        431        414        413        431        432        415        414        432        433        416        415        433        434        417        416        434        435        418        417        435        436        419        418        436        437        420        419        437        438        421        420        438        439        422        421        439        440        423        422        440        441        424        423        442        443        426        425        443        444        427        426        444        445        428        427        445        446        429        428        446        447        430        429        447        448        431        430        448        449        432        431        449        450        433        432        450        451        434        433        451        452        435        434        452        453        436        435        453        454        437        436        454        455        438        437        455        456        439        438        456        457        440        439        457        458        441        440        459        460        443        442        460        461        444        443        461        462        445        444        462        463        446        445        463        464        447        446        464        465        448        447        465        466        449        448        466        467        450        449        467        468        451        450        468        469        452        451        469        470        453        452        470        471        454        453        471        472        455        454        472        473        456        455        473        474        457        456        474        475        458        457        476        477        460        459        477        478        461        460        478        479        462        461        479        480        463        462        480        481        464        463        481        482        465        464        482        483        466        465        483        484        467        466        484        485        468        467        485        486        469        468        486        487        470        469        487        488        471        470        488        489        472        471        489        490        473        472        490        491        474        473        491        492        475        474        493        494        477        476        494        495        478        477        495        496        479        478        496        497        480        479        497        498        481        480        498        499        482        481        499        500        483        482        500        501        484        483        501        502        485        484        502        503        486        485        503        504        487        486        504        505        488        487        505        506        489        488        506        507        490        489        507        508        491        490        508        509        492        491        510        511        494        493        511        512        495        494        512        513        496        495        513        514        497        496        514        515        498        497        515        516        499        498        516        517        500        499        517        518        501        500        518        519        502        501        519        520        503        502        520        521        504        503        521        522        505        504        522        523        506        505        523        524        507        506        524        525        508        507        525        526        509        508        527        528        511        510        528        529        512        511        529        530        513        512        530        531        514        513        531        532        515        514        532        533        516        515        533        534        517        516        534        535        518        517        535        536        519        518        536        537        520        519        537        538        521        520        538        539        522        521        539        540        523        522        540        541        524        523        541        542        525        524        542        543        526        525        544        545        528        527        545        546        529        528        546        547        530        529        547        548        531        530        548        549        532        531        549        550        533        532        550        551        534        533        551        552        535        534        552        553        536        535        553        554        537        536        554        555        538        537        555        556        539        538        556        557        540        539        557        558        541        540        558        559        542        541        559        560        543        542        561        562        545        544        562        563        546        545        563        564        547        546        564        565        548        547        565        566        549        548        566        567        550        549        567        568        551        550        568        569        552        551        569        570        553        552        570        571        554        553        571        572        555        554        572        573        556        555        573        574        557        556        574        575        558        557        575        576        559        558        576        577        560        559        578        579        596        595        579        580        597        596        580        581        598        597        581        582        599        598        582        583        600        599        583        584        601        600        584        585        602        601        585        586        603        602        586        587        604        603        587        588        605        604        588        589        606        605        589        590        607        606        590        591        608        607        591        592        609        608        592        593        610        609        593        594        611        610        595        596        613        612        596        597        614        613        597        598        615        614        598        599        616        615        599        600        617        616        600        601        618        617        601        602        619        618        602        603        620        619        603        604        621        620        604        605        622        621        605        606        623        622        606        607        624        623        607        608        625        624        608        609        626        625        609        610        627        626        610        611        628        627        612        613        630        629        613        614        631        630        614        615        632        631        615        616        633        632        616        617        634        633        617        618        635        634        618        619        636        635        619        620        637        636        620        621        638        637        621        622        639        638        622        623        640        639        623        624        641        640        624        625        642        641        625        626        643        642        626        627        644        643        627        628        645        644        629        630        647        646        630        631        648        647        631        632        649        648        632        633        650        649        633        634        651        650        634        635        652        651        635        636        653        652        636        637        654        653        637        638        655        654        638        639        656        655        639        640        657        656        640        641        658        657        641        642        659        658        642        643        660        659        643        644        661        660        644        645        662        661        646        647        664        663        647        648        665        664        648        649        666        665        649        650        667        666        650        651        668        667        651        652        669        668        652        653        670        669        653        654        671        670        654        655        672        671        655        656        673        672        656        657        674        673        657        658        675        674        658        659        676        675        659        660        677        676        660        661        678        677        661        662        679        678        663        664        681        680        664        665        682        681        665        666        683        682        666        667        684        683        667        668        685        684        668        669        686        685        669        670        687        686        670        671        688        687        671        672        689        688        672        673        690        689        673        674        691        690        674        675        692        691        675        676        693        692        676        677        694        693        677        678        695        694        678        679        696        695        680        681        698        697        681        682        699        698        682        683        700        699        683        684        701        700        684        685        702        701        685        686        703        702        686        687        704        703        687        688        705        704        688        689        706        705        689        690        707        706        690        691        708        707        691        692        709        708        692        693        710        709        693        694        711        710        694        695        712        711        695        696        713        712        697        698        715        714        698        699        716        715        699        700        717        716        700        701        718        717        701        702        719        718        702        703        720        719        703        704        721        720        704        705        722        721        705        706        723        722        706        707        724        723        707        708        725        724        708        709        726        725        709        710        727        726        710        711        728        727        711        712        729        728        712        713        730        729        714        715        732        731        715        716        733        732        716        717        734        733        717        718        735        734        718        719        736        735        719        720        737        736        720        721        738        737        721        722        739        738        722        723        740        739        723        724        741        740        724        725        742        741        725        726        743        742        726        727        744        743        727        728        745        744        728        729        746        745        729        730        747        746        731        732        749        748        732        733        750        749        733        734        751        750        734        735        752        751        735        736        753        752        736        737        754        753        737        738        755        754        738        739        756        755        739        740        757        756        740        741        758        757        741        742        759        758        742        743        760        759        743        744        761        760        744        745        762        761        745        746        763        762        746        747        764        763        748        749        766        765        749        750        767        766        750        751        768        767        751        752        769        768        752        753        770        769        753        754        771        770        754        755        772        771        755        756        773        772        756        757        774        773        757        758        775        774        758        759        776        775        759        760        777        776        760        761        778        777        761        762        779        778        762        763        780        779        763        764        781        780        765        766        783        782        766        767        784        783        767        768        785        784        768        769        786        785        769        770        787        786        770        771        788        787        771        772        789        788        772        773        790        789        773        774        791        790        774        775        792        791        775        776        793        792        776        777        794        793        777        778        795        794        778        779        796        795        779        780        797        796        780        781        798        797        782        783        800        799        783        784        801        800        784        785        802        801        785        786        803        802        786        787        804        803        787        788        805        804        788        789        806        805        789        790        807        806        790        791        808        807        791        792        809        808        792        793        810        809        793        794        811        810        794        795        812        811        795        796        813        812        796        797        814        813        797        798        815        814        799        800        817        816        800        801        818        817        801        802        819        818        802        803        820        819        803        804        821        820        804        805        822        821        805        806        823        822        806        807        824        823        807        808        825        824        808        809        826        825        809        810        827        826        810        811        828        827        811        812        829        828        812        813        830        829        813        814        831        830        814        815        832        831        816        817        834        833        817        818        835        834        818        819        836        835        819        820        837        836        820        821        838        837        821        822        839        838        822        823        840        839        823        824        841        840        824        825        842        841        825        826        843        842        826        827        844        843        827        828        845        844        828        829        846        845        829        830        847        846        830        831        848        847        831        832        849        848        833        834        562        561        834        835        563        562        835        836        564        563        836        837        565        564        837        838        566        565        838        839        567        566        839        840        568        567        840        841        569        568        841        842        570        569        842        843        571        570        843        844        572        571        844        845        573        572        845        846        574        573        846        847        575        574        847        848        576        575        848        849        577        576        884        885        579        578        885        886        580        579        886        887        581        580        887        888        582        581        888        889        583        582        889        890        584        583        890        891        585        584        891        892        586        585        892        893        587        586        893        894        588        587        894        895        589        588        895        896        590        589        896        897        591        590        897        898        592        591        898        899        593        592        899        900        594        593        901        902        885        884        902        903        886        885        903        904        887        886        904        905        888        887        905        906        889        888        906        907        890        889        907        908        891        890        908        909        892        891        909        910        893        892        910        911        894        893        911        912        895        894        912        913        896        895        913        914        897        896        914        915        898        897        915        916        899        898        916        917        900        899        918        919        902        901        919        920        903        902        920        921        904        903        921        922        905        904        922        923        906        905        923        924        907        906        924        925        908        907        925        926        909        908        926        927        910        909        927        928        911        910        928        929        912        911        929        930        913        912        930        931        914        913        931        932        915        914        932        933        916        915        933        934        917        916        935        936        919        918        936        937        920        919        937        938        921        920        938        939        922        921        939        940        923        922        940        941        924        923        941        942        925        924        942        943        926        925        943        944        927        926        944        945        928        927        945        946        929        928        946        947        930        929        947        948        931        930        948        949        932        931        949        950        933        932        950        951        934        933        952        953        936        935        953        954        937        936        954        955        938        937        955        956        939        938        956        957        940        939        957        958        941        940        958        959        942        941        959        960        943        942        960        961        944        943        961        962        945        944        962        963        946        945        963        964        947        946        964        965        948        947        965        966        949        948        966        967        950        949        967        968        951        950        969        970        953        952        970        971        954        953        971        972        955        954        972        973        956        955        973        974        957        956        974        975        958        957        975        976        959        958        976        977        960        959        977        978        961        960        978        979        962        961        979        980        963        962        980        981        964        963        981        982        965        964        982        983        966        965        983        984        967        966        984        985        968        967        986        987        970        969        987        988        971        970        988        989        972        971        989        990        973        972        990        991        974        973        991        992        975        974        992        993        976        975        993        994        977        976        994        995        978        977        995        996        979        978        996        997        980        979        997        998        981        980        998        999        982        981        999       1000        983        982       1000       1001        984        983       1001       1002        985        984       1003       1004        987        986       1004       1005        988        987       1005       1006        989        988       1006       1007        990        989       1007       1008        991        990       1008       1009        992        991       1009       1010        993        992       1010       1011        994        993       1011       1012        995        994       1012       1013        996        995       1013       1014        997        996       1014       1015        998        997       1015       1016        999        998       1016       1017       1000        999       1017       1018       1001       1000       1018       1019       1002       1001       1020       1021       1004       1003       1021       1022       1005       1004       1022       1023       1006       1005       1023       1024       1007       1006       1024       1025       1008       1007       1025       1026       1009       1008       1026       1027       1010       1009       1027       1028       1011       1010       1028       1029       1012       1011       1029       1030       1013       1012       1030       1031       1014       1013       1031       1032       1015       1014       1032       1033       1016       1015       1033       1034       1017       1016       1034       1035       1018       1017       1035       1036       1019       1018       1037       1038       1021       1020       1038       1039       1022       1021       1039       1040       1023       1022       1040       1041       1024       1023       1041       1042       1025       1024       1042       1043       1026       1025       1043       1044       1027       1026       1044       1045       1028       1027       1045       1046       1029       1028       1046       1047       1030       1029       1047       1048       1031       1030       1048       1049       1032       1031       1049       1050       1033       1032       1050       1051       1034       1033       1051       1052       1035       1034       1052       1053       1036       1035       1054       1055       1038       1037       1055       1056       1039       1038       1056       1057       1040       1039       1057       1058       1041       1040       1058       1059       1042       1041       1059       1060       1043       1042       1060       1061       1044       1043       1061       1062       1045       1044       1062       1063       1046       1045       1063       1064       1047       1046       1064       1065       1048       1047       1065       1066       1049       1048       1066       1067       1050       1049       1067       1068       1051       1050       1068       1069       1052       1051       1069       1070       1053       1052       1071       1072       1055       1054       1072       1073       1056       1055       1073       1074       1057       1056       1074       1075       1058       1057       1075       1076       1059       1058       1076       1077       1060       1059       1077       1078       1061       1060       1078       1079       1062       1061       1079       1080       1063       1062       1080       1081       1064       1063       1081       1082       1065       1064       1082       1083       1066       1065       1083       1084       1067       1066       1084       1085       1068       1067       1085       1086       1069       1068       1086       1087       1070       1069       1088       1089       1072       1071       1089       1090       1073       1072       1090       1091       1074       1073       1091       1092       1075       1074       1092       1093       1076       1075       1093       1094       1077       1076       1094       1095       1078       1077       1095       1096       1079       1078       1096       1097       1080       1079       1097       1098       1081       1080       1098       1099       1082       1081       1099       1100       1083       1082       1100       1101       1084       1083       1101       1102       1085       1084       1102       1103       1086       1085       1103       1104       1087       1086       1105       1106       1089       1088       1106       1107       1090       1089       1107       1108       1091       1090       1108       1109       1092       1091       1109       1110       1093       1092       1110       1111       1094       1093       1111       1112       1095       1094       1112       1113       1096       1095       1113       1114       1097       1096       1114       1115       1098       1097       1115       1116       1099       1098       1116       1117       1100       1099       1117       1118       1101       1100       1118       1119       1102       1101       1119       1120       1103       1102       1120       1121       1104       1103       1122       1123       1106       1105       1123       1124       1107       1106       1124       1125       1108       1107       1125       1126       1109       1108       1126       1127       1110       1109       1127       1128       1111       1110       1128       1129       1112       1111       1129       1130       1113       1112       1130       1131       1114       1113       1131       1132       1115       1114       1132       1133       1116       1115       1133       1134       1117       1116       1134       1135       1118       1117       1135       1136       1119       1118       1136       1137       1120       1119       1137       1138       1121       1120        272        273       1123       1122        273        274       1124       1123        274        275       1125       1124        275        276       1126       1125        276        277       1127       1126        277        278       1128       1127        278        279       1129       1128        279        280       1130       1129        280        281       1131       1130        281        282       1132       1131        282        283       1133       1132        283        284       1134       1133        284        285       1135       1134        285        286       1136       1135        286        287       1137       1136        287        288       1138       1137 </DataArray>
<DataArray type="Int32"                                    Name="offsets"                                                      NumberOfComponents=" 1" format="ascii">
         4          8         12         16         20         24         28         32         36         40         44         48         52         56         60         64         68         72         76         80         84         88         92         96        100        104        108        112        116        120        124        128        132        136        140        144        148        152        156        160        164        168        172        176        180        184        188        192        196        200        204        208        212        216        220        224        228        232        236        240        244        248        252        256        260        264        268        272        276        280        284        288        292        296        300        304        308        312        316        320        324        328        332        336        340        344        348        352        356        360        364        368        372        376        380        384        388        392        396        400        404        408        412        416        420        424        428        432        436        440        444        448        452        456        460        464        468        472        476        480        484        488        492        496        500        504        508        512        516        520        524        528        532        536        540        544        548        552        556        560        564        568        572        576        580        584        588        592        596        600        604        608        612        616        620        624        628        632        636        640        644        648        652        656        660        664        668        672        676        680        684        688        692        696        700        704        708        712        716        720        724        728        732        736        740        744        748        752        756        760        764        768        772        776        780        784        788        792        796        800        804        808        812        816        820        824        828        832        836        840        844        848        852        856        860        864        868        872        876        880        884        888        892        896        900        904        908        912        916        920        924        928        932        936        940        944        948        952        956        960        964        968        972        976        980        984        988        992        996       1000       1004       1008       1012       1016       1020       1024       1028       1032       1036       1040       1044       1048       1052       1056       1060       1064       1068       1072       1076       1080       1084       1088       1092       1096       1100       1104       1108       1112       1116       1120       1124       1128       1132       1136       1140       1144       1148       1152       1156       1160       1164       1168       1172       1176       1180       1184       1188       1192       1196       1200       1204       1208       1212       1216       1220       1224       1228       1232       1236       1240       1244       1248       1252       1256       1260       1264       1268       1272       1276       1280       1284       1288       1292       1296       1300       1304       1308       1312       1316       1320       1324       1328       1332       1336       1340       1344       1348       1352       1356       1360       1364       1368       1372       1376       1380       1384       1388       1392       1396       1400       1404       1408       1412       1416       1420       1424       1428       1432       1436       1440       1444       1448       1452       1456       1460       1464       1468       1472       1476       1480       1484       1488       1492       1496       1500       1504       1508       1512       1516       1520       1524       1528       1532       1536       1540       1544       1548       1552       1556       1560       1564       1568       1572       1576       1580       1584       1588       1592       1596       1600       1604       1608       1612       1616       1620       1624       1628       1632       1636       1640       1644       1648       1652       1656       1660       1664       1668       1672       1676       1680       1684       1688       1692       1696       1700       1704       1708       1712       1716       1720       1724       1728       1732       1736       1740       1744       1748       1752       1756       1760       1764       1768       1772       1776       1780       1784       1788       1792       1796       1800       1804       1808       1812       1816       1820       1824       1828       1832       1836       1840       1844       1848       1852       1856       1860       1864       1868       1872       1876       1880       1884       1888       1892       1896       1900       1904       1908       1912       1916       1920       1924       1928       1932       1936       1940       1944       1948       1952       1956       1960       1964       1968       1972       1976       1980       1984       1988       1992       1996       2000       2004       2008       2012       2016       2020       2024       2028       2032       2036       2040       2044       2048       2052       2056       2060       2064       2068       2072       2076       2080       2084       2088       2092       2096       2100       2104       2108       2112       2116       2120       2124       2128       2132       2136       2140       2144       2148       2152       2156       2160       2164       2168       2172       2176       2180       2184       2188       2192       2196       2200       2204       2208       2212       2216       2220       2224       2228       2232       2236       2240       2244       2248       2252       2256       2260       2264       2268       2272       2276       2280       2284       2288       2292       2296       2300       2304       2308       2312       2316       2320       2324       2328       2332       2336       2340       2344       2348       2352       2356       2360       2364       2368       2372       2376       2380       2384       2388       2392       2396       2400       2404       2408       2412       2416       2420       2424       2428       2432       2436       2440       2444       2448       2452       2456       2460       2464       2468       2472       2476       2480       2484       2488       2492       2496       2500       2504       2508       2512       2516       2520       2524       2528       2532       2536       2540       2544       2548       2552       2556       2560       2564       2568       2572       2576       2580       2584       2588       2592       2596       2600       2604       2608       2612       2616       2620       2624       2628       2632       2636       2640       2644       2648       2652       2656       2660       2664       2668       2672       2676       2680       2684       2688       2692       2696       2700       2704       2708       2712       2716       2720       2724       2728       2732       2736       2740       2744       2748       2752       2756       2760       2764       2768       2772       2776       2780       2784       2788       2792       2796       2800       2804       2808       2812       2816       2820       2824       2828       2832       2836       2840       2844       2848       2852       2856       2860       2864       2868       2872       2876       2880       2884       2888       2892       2896       2900       2904       2908       2912       2916       2920       2924       2928       2932       2936       2940       2944       2948       2952       2956       2960       2964       2968       2972       2976       2980       2984       2988       2992       2996       3000       3004       3008       3012       3016       3020       3024       3028       3032       3036       3040       3044       3048       3052       3056       3060       3064       3068       3072       3076       3080       3084       3088       3092       3096       3100       3104       3108       3112       3116       3120       3124       3128       3132       3136       3140       3144       3148       3152       3156       3160       3164       3168       3172       3176       3180       3184       3188       3192       3196       3200       3204       3208       3212       3216       3220       3224       3228       3232       3236       3240       3244       3248       3252       3256       3260       3264       3268       3272       3276       3280       3284       3288       3292       3296       3300       3304       3308       3312       3316       3320       3324       3328       3332       3336       3340       3344       3348       3352       3356       3360       3364       3368       3372       3376       3380       3384       3388       3392       3396       3400       3404       3408       3412       3416       3420       3424       3428       3432       3436       3440       3444       3448       3452       3456       3460       3464       3468       3472       3476       3480       3484       3488       3492       3496       3500       3504       3508       3512       3516       3520       3524       3528       3532       3536       3540       3544       3548       3552       3556       3560       3564       3568       3572       3576       3580       3584       3588       3592       3596       3600       3604       3608       3612       3616       3620       3624       3628       3632       3636       3640       3644       3648       3652       3656       3660       3664       3668       3672       3676       3680       3684       3688       3692       3696       3700       3704       3708       3712       3716       3720       3724       3728       3732       3736       3740       3744       3748       3752       3756       3760       3764       3768       3772       3776       3780       3784       3788       3792       3796       3800       3804       3808       3812       3816       3820       3824       3828       3832       3836       3840       3844       3848       3852       3856       3860       3864       3868       3872       3876       3880       3884       3888       3892       3896       3900       3904       3908       3912       3916       3920       3924       3928       3932       3936       3940       3944       3948       3952       3956       3960       3964       3968       3972       3976       3980       3984       3988       3992       3996       4000       4004       4008       4012       4016       4020       4024       4028       4032       4036       4040       4044       4048       4052       4056       4060       4064       4068       4072       4076       4080       4084       4088       4092       4096 </DataArray>
<DataArray type="UInt8"                                    Name="types"                                                      NumberOfComponents=" 1" format="ascii">
         9          9          9          9          9          9          9          9          9          9          9          9          9          9          9          9          9          9          9          9          9          9          9          9          9          9          9          9          9          9          9          9          9          9          9          9          9          9          9          9          9          9          9          9          9          9          9          9          9          9          9          9          9          9          9          9          9          9          9          9          9          9          9          9          9          9          9          9          9          9          9          9          9          9          9          9          9          9          9          9          9          9          9          9          9          9          9          9          9          9          9          9          9          9          9          9          9          9          9          9          9          9          9          9          9          9          9          9          9          9          9          9          9          9          9          9          9          9          9          9          9          9          9          9          9          9          9          9          9          9          9          9          9          9          9          9          9          9          9          9          9          9          9          9          9          9          9          9          9          9          9          9          9          9          9          9          9          9          9          9          9          9          9          9          9          9          9          9          9          9          9          9          9          9          9          9          9          9          9          9          9          9          9          9          9          9          9          9          9          9          9          9          9          9          9          9          9          9          9          9          9          9          9          9          9          9          9          9          9          9          9          9          9          9          9          9          9          9          9          9          9          9          9          9          9          9          9          9          9          9          9          9          9          9          9          9          9          9          9          9          9          9          9          9          9          9          9          9          9          9          9          9          9          9          9          9          9          9          9          9          9          9          9          9          9          9          9          9          9          9          9          9          9          9          9          9          9          9          9          9          9          9          9          9          9          9          9          9          9          9          9          9          9          9          9          9          9          9          9          9          9          9          9          9          9          9          9          9          9          9          9          9          9          9          9          9          9          9          9          9          9          9          9          9          9          9          9          9          9          9          9          9          9          9          9          9          9          9          9          9          9          9          9          9          9          9          9          9          9          9          9          9          9          9          9          9          9          9          9          9          9          9          9          9          9          9          9          9          9          9          9          9          9          9          9          9          9          9          9          9          9          9          9          9          9          9          9          9          9          9          9          9          9          9          9          9          9          9          9          9          9          9          9          9          9          9          9          9          9          9          9          9          9          9          9          9          9          9          9          9          9          9          9          9          9          9          9          9          9          9          9          9          9          9          9          9          9          9          9          9          9          9          9          9          9          9          9          9          9          9          9          9          9          9          9          9          9          9          9          9          9          9          9          9          9          9          9          9          9          9          9          9          9          9          9          9          9          9          9          9          9          9          9          9          9          9          9          9          9          9          9          9          9          9          9          9          9          9          9          9          9          9          9          9          9          9          9          9          9          9          9          9          9          9          9          9          9          9          9          9          9          9          9          9          9          9          9          9          9          9          9          9          9          9          9          9          9          9          9          9          9          9          9          9          9          9          9          9          9          9          9          9          9          9          9          9          9          9          9          9          9          9          9          9          9          9          9          9          9          9          9          9          9          9          9          9          9          9          9          9          9          9          9          9          9          9          9          9          9          9          9          9          9          9          9          9          9          9          9          9          9          9          9          9          9          9          9          9          9          9          9          9          9          9          9          9          9          9          9          9          9          9          9          9          9          9          9          9          9          9          9          9          9          9          9          9          9          9          9          9          9          9          9          9          9          9          9          9          9          9          9          9          9          9          9          9          9          9          9          9          9          9          9          9          9          9          9          9          9          9          9          9          9          9          9          9          9          9          9          9          9          9          9          9          9          9          9          9          9          9          9          9          9          9          9          9          9          9          9          9          9          9          9          9          9          9          9          9          9          9          9          9          9          9          9          9          9          9          9          9          9          9          9          9          9          9          9          9          9          9          9          9          9          9          9          9          9          9          9          9          9          9          9          9          9          9          9          9          9          9          9          9          9          9          9          9          9          9          9          9          9          9          9          9          9          9          9          9          9          9          9          9          9          9          9          9          9          9          9          9          9          9          9          9          9          9          9          9          9          9          9          9          9          9          9          9          9          9          9          9          9          9          9          9          9          9          9          9          9          9          9          9          9          9          9          9          9          9          9          9          9          9          9          9          9          9          9          9          9          9          9          9          9          9          9          9          9          9          9          9          9          9          9          9          9          9          9          9          9          9          9          9          9          9          9          9          9          9          9          9          9          9          9          9          9          9          9          9          9          9          9          9          9          9          9          9          9          9          9          9          9          9          9          9          9          9          9          9          9          9          9          9          9          9          9          9          9          9          9          9          9          9          9          9          9          9          9          9          9          9          9          9          9          9          9          9          9          9          9          9          9          9          9          9          9          9          9          9          9          9          9          9          9          9          9          9          9          9          9          9          9          9          9          9          9          9          9          9          9          9          9          9          9          9          9          9          9          9          9          9          9          9          9          9          9          9          9          9          9          9          9          9          9          9          9          9          9          9          9          9          9          9          9          9          9          9          9          9          9          9          9          9          9          9          9          9          9          9          9          9          9          9          9          9          9          9          9          9          9          9          9          9          9          9          9          9          9          9          9          9          9          9          9          9 </DataArray>
</Cells>
<CellData>
<DataArray type="Int32"                                    Name="material"                                                      NumberOfComponents=" 1" format="ascii">
         1          1          1          1          1          1          1          1          1          1          1          1          1          1          1          1          1          1          1          1          1          1          1          1          1          1          1          1          1          1          1          1          1          1          1          1          1          1          1          1          1          1          1          1          1          1          1          1          1          1          1          1          1          1          1          1          1          1          1          1          1          1          1          1          1          1          1          1          1          1          1          1          1          1          1          1          1          1          1          1          1          1          1          1          1          1          1          1          1          1          1          1          1          1          1          1          1          1          1          1          1          1          1          1          1          1          1          1          1          1          1          1          1          1          1          1          1          1          1          1          1          1          1          1          1          1          1          1          1          1          1          1          1          1          1          1          1          1          1          1          1          1          1          1          1          1          1          1          1          1          1          1          1          1          1          1          1          1          1          1          1          1          1          1          1          1          1          1          1          1          1          1          1          1          1          1          1          1          1          1          1          1          1          1          1          1          1          1          1          1          1          1          1          1          1          1          1          1          1          1          1          1          1          1          1          1          1          1          1          1          1          1          1          1          1          1          1          1          1          1          1          1          1          1          1          1          1          1          1          1          1          1          1          1          1          1          1          1          1          1          1          1          1          1          1          1          1          1          1          1          1          1          1          1          1          1          1          1          1          1          1          1          1          1          1          1          1          1          1          1          1          1          1          1          1          1          1          1          1          1          1          1          1          1          1          1          1          1          1          1          1          1          1          1          1          1          1          1          1          1          1          1          1          1          1          1          1          1          1          1          1          1          1          1          1          1          1          1          1          1          1          1          1          1          1          1          1          1          1          1          1          1          1          1          1          1          1          1          1          1          1          1          1          1          1          1          1          1          1          1          1          1          1          1          1          1          1          1          1          1          1          1          1          1          1          1          1          1          1          1          1          1          1          1          1          1          1          1          1          1          1          1          1          1          1          1          1          1          1          1          1          1          1          1          1          1          1          1          1          1          1          1          1          1          1          1          1          1          1          1          1          1          1          1          1          1          1          1          1          1          1          1          1          1          1          1          1          1          1          1          1          1          1          1          1          1          1          1          1          1          1          1          1          1          1          1          1          1          1          1          1          1          1          1          1          1          1          1          1          1          1          1          1          1          1          1          1          1          1          1          1          1          1          1          1          1          1          1          1          1          1          1          1          1          1          1          1          1          1          1          1          1          1          1          1          1          1          1          1          1          1          1          1          1          1          1          1          1          1          1          1          1          1          1          1          1          1          1          1          1          1          1          1          1          1          1          1          1          1          1          1          1          1          1          1          1          1          1          1          1          1          1          1          1          1          1          1          1          1          1          1          1          1          1          1          1          1          1          1          1          1          1          1          1          1          1          1          1          1          1          1          1          1          1          1          1          1          1          1          1          1          1          1          1          1          1          1          1          1          1          1          1          1          1          1          1          1          1          1          1          1          1          1          1          1          1          1          1          1          1          1          1          1          1          1          1          1          1          1          1          1          1          1          1          1          1          1          1          1          1          1          1          1          1          1          1          1          1          1          1          1          1          1          1          1          1          1          1          1          1          1          1          1          1          1          1          1          1          1          1          1          1          1          1          1          1          1          1          1          1          1          1          1          1          1          1          1          1          1          1          1          1          1          1          1          1          1          1          1          1          1          1          1          1          1          1          1          1          1          1          1          1          1          1          1          1          1          1          1          1          1          1          1          1          1          1          1          1          1          1          1          1          1          1          1          1          1          1          1          1          1          1          1          1          1          1          1          1          1          1          1          1          1          1          1          1          1          1          1          1          1          1          1          1          1          1          1          1          1          1          1          1          1          1          1          1          1          1          1          1          1          1          1          1          1          1          1          1          1          1          1          1          1          1          1          1          1          1          1          1          1          1          1          1          1          1          1          1          1          1          1          1          1          1          1          1          1          1          1          1          1          1          1          1          1          1          1          1          1          1          1          1          1          1          1          1          1          1          1          1          1          1          1          1          1          1          1          1          1          1          1          1          1          1          1          1          1          1          1          1          1          1          1          1          1          1          1          1          1          1          1          1          1          1          1          1          1          1          1          1          1          1          1          1          1          1          1          1          1          1          1          1          1          1          1          1          1          1          1          1          1          1          1          1          1          1          1          1          1          1          1          1          1          1          1          1          1          1          1          1          1          1          1          1          1          1          1          1          1          1          1          1          1          1          1          1          1          1          1          1          1          1          1          1          1          1          1          1          1          1          1          1          1          1          1          1          1          1          1          1          1          1          1          1          1          1          1          1          1          1          1          1          1          1          1          1          1          1          1          1          1          1          1          1          1          1          1          1          1          1          1          1          1          1          1          1          1          1          1          1          1          1          1          1          1          1          1          1          1          1          1          1          1          1          1          1          1          1          1          1          1          1          1          1          1          1          1          1          1          1          1          1          1          1 </DataArray>
</CellData>
<PointData>
<DataArray type="Float64"                                    Name="u"                                                      NumberOfComponents=" 3" format="ascii">
             -0.000888480              -0.000000000               0.999999988              -0.000934731               0.000000000               0.999999988              -0.000953530               0.000000000               0.999999988              -0.000963423               0.000000000               0.999999988              -0.000971087               0.000000000               0.999999988              -0.000978938               0.000000000               0.999999988              -0.000987732               0.000000000               0.999999988              -0.000997417              -0.000000000               0.999999988              -0.001007812              -0.000000000               0.999999988              -0.001018575              -0.000000000               0.999999988              -0.001029494               0.000000000               0.999999988              -0.001040159              -0.000000000               0.999999988              -0.001050120              -0.000000000               0.999999988              -0.001058893              -0.000000000               0.999999988              -0.001066030              -0.000000000               0.999999988              -0.001070917              -0.000000000               0.999999988              -0.001072676               0.000000000               0.999999988              -0.000883626               0.000121961               0.999999988              -0.000925789               0.000096035               0.999999988              -0.000941958               0.000083862               0.999999988              -0.000950146               0.000078503               0.999999988              -0.000956624               0.000076532               0.999999988              -0.000963491               0.000076077               0.999999988              -0.000971249               0.000076031               0.999999988              -0.000979898               0.000075710               0.999999988              -0.000989223               0.000074831               0.999999988              -0.000998812               0.000073100               0.999999988              -0.001008335               0.000069919               0.999999988              -0.001017322               0.000064972               0.999999988              -0.001025283               0.000057947               0.999999988              -0.001031802               0.000048639               0.999999988              -0.001036460               0.000036433               0.999999988              -0.001038751               0.000020412               0.999999988              -0.001038121              -0.000000992               0.999999988              -0.000869043               0.000242864               0.999999988              -0.000899347               0.000191822               0.999999988              -0.000908185               0.000168758               0.999999988              -0.000911663               0.000159154               0.999999988              -0.000914842               0.000155928               0.999999988              -0.000919063               0.000155439               0.999999988              -0.000924343               0.000155656               0.999999988              -0.000930438               0.000155324               0.999999988              -0.000936830               0.000153798               0.999999988              -0.000943040               0.000150275               0.999999988              -0.000948523               0.000143924               0.999999988              -0.000952740               0.000134239               0.999999988              -0.000955333               0.000120696               0.999999988              -0.000955934               0.000102916               0.999999988              -0.000954221               0.000080177               0.999999988              -0.000949953               0.000050980               0.999999988              -0.000942988               0.000013741               0.999999988              -0.000845132               0.000361709               0.999999988              -0.000856873               0.000287229               0.999999988              -0.000855001               0.000255530               0.999999988              -0.000851983               0.000243490               0.999999988              -0.000850918               0.000240274               0.999999988              -0.000851765               0.000240547               0.999999988              -0.000853824               0.000241427               0.999999988              -0.000856318               0.000241364               0.999999988              -0.000858465               0.000239154               0.999999988              -0.000859450               0.000233962               0.999999988              -0.000858842               0.000224595               0.999999988              -0.000856225               0.000210513               0.999999988              -0.000851142               0.000191294               0.999999988              -0.000843435               0.000166680               0.999999988              -0.000832980               0.000135942               0.999999988              -0.000819857               0.000097913               0.999999988              -0.000804349               0.000051805               0.999999988              -0.000812392               0.000477548               0.999999988              -0.000800250               0.000382292               0.999999988              -0.000786250               0.000344895               0.999999988              -0.000776973               0.000332334               0.999999988              -0.000771920               0.000330293               0.999999988              -0.000769498               0.000332035               0.999999988              -0.000768188               0.000334001               0.999999988              -0.000766464               0.000334205               0.999999988              -0.000763424               0.000331311               0.999999988              -0.000758133               0.000324193               0.999999988              -0.000750129               0.000312018               0.999999988              -0.000739104               0.000294171               0.999999988              -0.000724929               0.000270307               0.999999988              -0.000707573               0.000240299               0.999999988              -0.000687153               0.000203925               0.999999988              -0.000663996               0.000161023               0.999999988              -0.000638782               0.000111816               0.999999988              -0.000771203               0.000589385               0.999999988              -0.000732208               0.000477195               0.999999988              -0.000707102               0.000436987               0.999999988              -0.000692949               0.000425573               0.999999988              -0.000684985               0.000425483               0.999999988              -0.000679923               0.000429141               0.999999988              -0.000675175               0.000432302               0.999999988              -0.000669052               0.000432604               0.999999988              -0.000660189               0.000428607               0.999999988              -0.000647639               0.000419305               0.999999988              -0.000631186               0.000404375               0.999999988              -0.000610761               0.000383143               0.999999988              -0.000586413               0.000355463               0.999999988              -0.000558358               0.000321602               0.999999988              -0.000527018               0.000281895               0.999999988              -0.000493211               0.000237099               0.999999988              -0.000457980               0.000188445               0.999999988              -0.000722300               0.000696067               0.999999988              -0.000656148               0.000572110               0.999999988              -0.000622536               0.000531540               0.999999988              -0.000605697               0.000522238               0.999999988              -0.000596425               0.000524379               0.999999988              -0.000589477               0.000529894               0.999999988              -0.000581585               0.000533742               0.999999988              -0.000570488               0.000533705               0.999999988              -0.000554753               0.000528194               0.999999988              -0.000533960               0.000516611               0.999999988              -0.000507938               0.000499065               0.999999988              -0.000476958               0.000474936               0.999999988              -0.000441329               0.000444294               0.999999988              -0.000401844               0.000407900               0.999999988              -0.000359342               0.000366822               0.999999988              -0.000315052               0.000322559               0.999999988              -0.000270216               0.000277089               0.999999988              -0.000666737               0.000796416               0.999999988              -0.000575583               0.000666840               0.999999988              -0.000537118               0.000627755               0.999999988              -0.000520446               0.000620589               0.999999988              -0.000511289               0.000624734               0.999999988              -0.000503010               0.000631484               0.999999988              -0.000491488               0.000635528               0.999999988              -0.000474415               0.000634638               0.999999988              -0.000450856               0.000627381               0.999999988              -0.000420745               0.000613479               0.999999988              -0.000384183               0.000593279               0.999999988              -0.000341648               0.000566669               0.999999988              -0.000294144               0.000534085               0.999999988              -0.000242883               0.000496983               0.999999988              -0.000189232               0.000456894               0.999999988              -0.000134723               0.000415641               0.999999988              -0.000080431               0.000375010               0.999999988              -0.000606167               0.000888638               0.999999988              -0.000493272               0.000761245               0.999999988              -0.000455393               0.000723949               0.999999988              -0.000440910               0.000718497               0.999999988              -0.000432652               0.000724220               0.999999988              -0.000422772               0.000731602               0.999999988              -0.000406665               0.000735429               0.999999988              -0.000382728               0.000733228               0.999999988              -0.000350322               0.000724195               0.999999988              -0.000309730               0.000708232               0.999999988              -0.000261498               0.000685764               0.999999988              -0.000206573               0.000657553               0.999999988              -0.000146420               0.000624735               0.999999988              -0.000082739               0.000589179               0.999999988              -0.000017350               0.000552829               0.999999988               0.000048376               0.000517325               0.999999988               0.000113458               0.000483323               0.999999988              -0.000543180               0.000976150               0.999999988              -0.000424058               0.000867920               0.999999988              -0.000384109               0.000827551               0.999999988              -0.000369519               0.000818066               0.999999988              -0.000362340               0.000821537               0.999999988              -0.000354663               0.000829242               0.999999988              -0.000342154               0.000836093               0.999999988              -0.000322555               0.000839220               0.999999988              -0.000295388               0.000837490               0.999999988              -0.000260529               0.000830377               0.999999988              -0.000218116               0.000818061               0.999999988              -0.000168639               0.000801066               0.999999988              -0.000112794               0.000780072               0.999999988              -0.000051916               0.000755953               0.999999988               0.000012748               0.000730162               0.999999988               0.000079619               0.000704365               0.999999988               0.000147091               0.000679784               0.999999988              -0.000474673               0.001055832               0.999999988              -0.000357443               0.000971281               0.999999988              -0.000315452               0.000934050               0.999999988              -0.000299867               0.000922740               0.999999988              -0.000292878               0.000924965               0.999999988              -0.000286586               0.000933212               0.999999988              -0.000276933               0.000942775               0.999999988              -0.000261406               0.000950674               0.999999988              -0.000239300               0.000955358               0.999999988              -0.000210022               0.000956328               0.999999988              -0.000173558               0.000953304               0.999999988              -0.000129910               0.000946482               0.999999988              -0.000079428               0.000936280               0.999999988              -0.000022791               0.000923213               0.999999988               0.000039324               0.000907931               0.999999988               0.000105690               0.000891741               0.999999988               0.000174361               0.000875849               0.999999988              -0.000402032               0.001125715               0.999999988              -0.000293282               0.001068156               0.999999988              -0.000251134               0.001038458               0.999999988              -0.000234324               0.001028492               0.999999988              -0.000226994               0.001030878               0.999999988              -0.000221453               0.001040090               0.999999988              -0.000213698               0.001052274               0.999999988              -0.000201688               0.001064666               0.999999988              -0.000184201               0.001075485               0.999999988              -0.000160517               0.001083759               0.999999988              -0.000130076               0.001089287               0.999999988              -0.000092606               0.001092003               0.999999988              -0.000048385               0.001091872               0.999999988               0.000002660               0.001089233               0.999999988               0.000060413               0.001084411               0.999999988               0.000124453               0.001078104               0.999999988               0.000193426               0.001071215               0.999999988              -0.000325998               0.001184578               0.999999988              -0.000231589               0.001154333               0.999999988              -0.000191995               0.001135407               0.999999988              -0.000174876               0.001129489               0.999999988              -0.000167110               0.001133799               0.999999988              -0.000161904               0.001144836               0.999999988              -0.000155589               0.001159678               0.999999988              -0.000146400               0.001176090               0.999999988              -0.000133086               0.001192514               0.999999988              -0.000114616               0.001207785               0.999999988              -0.000090264               0.001221314               0.999999988              -0.000059682               0.001232873               0.999999988              -0.000022613               0.001242322               0.999999988               0.000021497               0.001249674               0.999999988               0.000073080               0.001255057               0.999999988               0.000132249               0.001258757               0.999999988               0.000199018               0.001261324               0.999999988              -0.000247087               0.001231697               0.999999988              -0.000171935               0.001226124               0.999999988              -0.000138191               0.001219089               0.999999988              -0.000122494               0.001218985               0.999999988              -0.000114876               0.001226390               0.999999988              -0.000110159               0.001239974               0.999999988              -0.000105132               0.001257647               0.999999988              -0.000098372               0.001277799               0.999999988              -0.000088578               0.001299154               0.999999988              -0.000075024               0.001320612               0.999999988              -0.000056933               0.001341443               0.999999988              -0.000033665               0.001361113               0.999999988              -0.000004586               0.001379546               0.999999988               0.000030816               0.001396445               0.999999988               0.000073495               0.001411549               0.999999988               0.000124490               0.001424974               0.999999988               0.000184870               0.001436967               0.999999988              -0.000165992               0.001266066               0.999999988              -0.000113822               0.001280157               0.999999988              -0.000089126               0.001283925               0.999999988              -0.000076961               0.001289868               0.999999988              -0.000070662               0.001300878               0.999999988              -0.000066911               0.001317157               0.999999988              -0.000063352               0.001337609               0.999999988              -0.000058785               0.001360980               0.999999988              -0.000052229               0.001386316               0.999999988              -0.000043322               0.001412769               0.999999988              -0.000031394               0.001439531               0.999999988              -0.000015562               0.001466233               0.999999988               0.000004557               0.001492471               0.999999988               0.000029539               0.001517838               0.999999988               0.000060396               0.001542073               0.999999988               0.000098625               0.001564760               0.999999988               0.000146018               0.001585517               0.999999988              -0.000083398               0.001287051               0.999999988              -0.000056661               0.001313774               0.999999988              -0.000043603               0.001325073               0.999999988              -0.000036932               0.001335486               0.999999988              -0.000033372               0.001349395               0.999999988              -0.000031297               0.001367834               0.999999988              -0.000029373               0.001390393               0.999999988              -0.000026989               0.001416224               0.999999988              -0.000023616               0.001444285               0.999999988              -0.000019190               0.001473959               0.999999988              -0.000013215               0.001504717               0.999999988              -0.000005205               0.001536161               0.999999988               0.000005013               0.001567801               0.999999988               0.000018056               0.001599161               0.999999988               0.000034494               0.001629845               0.999999988               0.000055009               0.001659229               0.999999988               0.000081246               0.001686522               0.999999988               0.000000000               0.001294207               0.999999988              -0.000000000               0.001325240               0.999999988               0.000000000               0.001339183               0.999999988               0.000000000               0.001351307               0.999999988               0.000000000               0.001366327               0.999999988              -0.000000000               0.001385576               0.999999988               0.000000000               0.001408942               0.999999988               0.000000000               0.001435692               0.999999988               0.000000000               0.001464708               0.999999988              -0.000000000               0.001495537               0.999999988              -0.000000000               0.001527679               0.999999988              -0.000000000               0.001560664               0.999999988              -0.000000000               0.001594222               0.999999988               0.000000000               0.001627769               0.999999988               0.000000000               0.001660704               0.999999988               0.000000000               0.001692450               0.999999988              -0.000000000               0.001722175               0.999999988              -0.000888480              -0.000000000               0.999999988              -0.000934731               0.000000000               0.999999988              -0.000953530               0.000000000               0.999999988              -0.000963423               0.000000000               0.999999988              -0.000971087               0.000000000               0.999999988              -0.000978938               0.000000000               0.999999988              -0.000987732               0.000000000               0.999999988              -0.000997417              -0.000000000               0.999999988              -0.001007812              -0.000000000               0.999999988              -0.001018575              -0.000000000               0.999999988              -0.001029494               0.000000000               0.999999988              -0.001040159              -0.000000000               0.999999988              -0.001050120              -0.000000000               0.999999988              -0.001058893              -0.000000000               0.999999988              -0.001066030              -0.000000000               0.999999988              -0.001070917              -0.000000000               0.999999988              -0.001072676               0.000000000               0.999999988              -0.000883626              -0.000121961               0.999999988              -0.000925789              -0.000096035               0.999999988              -0.000941958              -0.000083862               0.999999988              -0.000950146              -0.000078503               0.999999988              -0.000956624              -0.000076532               0.999999988              -0.000963491              -0.000076077               0.999999988              -0.000971249              -0.000076031               0.999999988              -0.000979898              -0.000075710               0.999999988              -0.000989223              -0.000074831               0.999999988              -0.000998812              -0.000073100               0.999999988              -0.001008335              -0.000069919               0.999999988              -0.001017322              -0.000064972               0.999999988              -0.001025283              -0.000057947               0.999999988              -0.001031802              -0.000048639               0.999999988              -0.001036460              -0.000036433               0.999999988              -0.001038751              -0.000020412               0.999999988              -0.001038121               0.000000992               0.999999988              -0.000869043              -0.000242864               0.999999988              -0.000899347              -0.000191822               0.999999988              -0.000908185              -0.000168758               0.999999988              -0.000911663              -0.000159154               0.999999988              -0.000914842              -0.000155928               0.999999988              -0.000919063              -0.000155439               0.999999988              -0.000924343              -0.000155656               0.999999988              -0.000930438              -0.000155324               0.999999988              -0.000936830              -0.000153798               0.999999988              -0.000943040              -0.000150275               0.999999988              -0.000948523              -0.000143924               0.999999988              -0.000952740              -0.000134239               0.999999988              -0.000955333              -0.000120696               0.999999988              -0.000955934              -0.000102916               0.999999988              -0.000954221              -0.000080177               0.999999988              -0.000949953              -0.000050980               0.999999988              -0.000942988              -0.000013741               0.999999988              -0.000845132              -0.000361709               0.999999988              -0.000856873              -0.000287229               0.999999988              -0.000855001              -0.000255530               0.999999988              -0.000851983              -0.000243490               0.999999988              -0.000850918              -0.000240274               0.999999988              -0.000851765              -0.000240547               0.999999988              -0.000853824              -0.000241427               0.999999988              -0.000856318              -0.000241364               0.999999988              -0.000858465              -0.000239154               0.999999988              -0.000859450              -0.000233962               0.999999988              -0.000858842              -0.000224595               0.999999988              -0.000856225              -0.000210513               0.999999988              -0.000851142              -0.000191294               0.999999988              -0.000843435              -0.000166680               0.999999988              -0.000832980              -0.000135942               0.999999988              -0.000819857              -0.000097913               0.999999988              -0.000804349              -0.000051805               0.999999988              -0.000812392              -0.000477548               0.999999988              -0.000800250              -0.000382292               0.999999988              -0.000786250              -0.000344895               0.999999988              -0.000776973              -0.000332334               0.999999988              -0.000771920              -0.000330293               0.999999988              -0.000769498              -0.000332035               0.999999988              -0.000768188              -0.000334001               0.999999988              -0.000766464              -0.000334205               0.999999988              -0.000763424              -0.000331311               0.999999988              -0.000758133              -0.000324193               0.999999988              -0.000750129              -0.000312018               0.999999988              -0.000739104              -0.000294171               0.999999988              -0.000724929              -0.000270307               0.999999988              -0.000707573              -0.000240299               0.999999988              -0.000687153              -0.000203925               0.999999988              -0.000663996              -0.000161023               0.999999988              -0.000638782              -0.000111816               0.999999988              -0.000771203              -0.000589385               0.999999988              -0.000732208              -0.000477195               0.999999988              -0.000707102              -0.000436987               0.999999988              -0.000692949              -0.000425573               0.999999988              -0.000684985              -0.000425483               0.999999988              -0.000679923              -0.000429141               0.999999988              -0.000675175              -0.000432302               0.999999988              -0.000669052              -0.000432604               0.999999988              -0.000660189              -0.000428607               0.999999988              -0.000647639              -0.000419305               0.999999988              -0.000631186              -0.000404375               0.999999988              -0.000610761              -0.000383143               0.999999988              -0.000586413              -0.000355463               0.999999988              -0.000558358              -0.000321602               0.999999988              -0.000527018              -0.000281895               0.999999988              -0.000493211              -0.000237099               0.999999988              -0.000457980              -0.000188445               0.999999988              -0.000722300              -0.000696067               0.999999988              -0.000656148              -0.000572110               0.999999988              -0.000622536              -0.000531540               0.999999988              -0.000605697              -0.000522238               0.999999988              -0.000596425              -0.000524379               0.999999988              -0.000589477              -0.000529894               0.999999988              -0.000581585              -0.000533742               0.999999988              -0.000570488              -0.000533705               0.999999988              -0.000554753              -0.000528194               0.999999988              -0.000533960              -0.000516611               0.999999988              -0.000507938              -0.000499065               0.999999988              -0.000476958              -0.000474936               0.999999988              -0.000441329              -0.000444294               0.999999988              -0.000401844              -0.000407900               0.999999988              -0.000359342              -0.000366822               0.999999988              -0.000315052              -0.000322559               0.999999988              -0.000270216              -0.000277089               0.999999988              -0.000666737              -0.000796416               0.999999988              -0.000575583              -0.000666840               0.999999988              -0.000537118              -0.000627755               0.999999988              -0.000520446              -0.000620589               0.999999988              -0.000511289              -0.000624734               0.999999988              -0.000503010              -0.000631484               0.999999988              -0.000491488              -0.000635528               0.999999988              -0.000474415              -0.000634638               0.999999988              -0.000450856              -0.000627381               0.999999988              -0.000420745              -0.000613479               0.999999988              -0.000384183              -0.000593279               0.999999988              -0.000341648              -0.000566669               0.999999988              -0.000294144              -0.000534085               0.999999988              -0.000242883              -0.000496983               0.999999988              -0.000189232              -0.000456894               0.999999988              -0.000134723              -0.000415641               0.999999988              -0.000080431              -0.000375010               0.999999988              -0.000606167              -0.000888638               0.999999988              -0.000493272              -0.000761245               0.999999988              -0.000455393              -0.000723949               0.999999988              -0.000440910              -0.000718497               0.999999988              -0.000432652              -0.000724220               0.999999988              -0.000422772              -0.000731602               0.999999988              -0.000406665              -0.000735429               0.999999988              -0.000382728              -0.000733228               0.999999988              -0.000350322              -0.000724195               0.999999988              -0.000309730              -0.000708232               0.999999988              -0.000261498              -0.000685764               0.999999988              -0.000206573              -0.000657553               0.999999988              -0.000146420              -0.000624735               0.999999988              -0.000082739              -0.000589179               0.999999988              -0.000017350              -0.000552829               0.999999988               0.000048376              -0.000517325               0.999999988               0.000113458              -0.000483323               0.999999988              -0.000543180              -0.000976150               0.999999988              -0.000424058              -0.000867920               0.999999988              -0.000384109              -0.000827551               0.999999988              -0.000369519              -0.000818066               0.999999988              -0.000362340              -0.000821537               0.999999988              -0.000354663              -0.000829242               0.999999988              -0.000342154              -0.000836093               0.999999988              -0.000322555              -0.000839220               0.999999988              -0.000295388              -0.000837490               0.999999988              -0.000260529              -0.000830377               0.999999988              -0.000218116              -0.000818061               0.999999988              -0.000168639              -0.000801066               0.999999988              -0.000112794              -0.000780072               0.999999988              -0.000051916              -0.000755953               0.999999988               0.000012748              -0.000730162               0.999999988               0.000079619              -0.000704365               0.999999988               0.000147091              -0.000679784               0.999999988              -0.000474673              -0.001055832               0.999999988              -0.000357443              -0.000971281               0.999999988              -0.000315452              -0.000934050               0.999999988              -0.000299867              -0.000922740               0.999999988              -0.000292878              -0.000924965               0.999999988              -0.000286586              -0.000933212               0.999999988              -0.000276933              -0.000942775               0.999999988              -0.000261406              -0.000950674               0.999999988              -0.000239300              -0.000955358               0.999999988              -0.000210022              -0.000956328               0.999999988              -0.000173558              -0.000953304               0.999999988              -0.000129910              -0.000946482               0.999999988              -0.000079428              -0.000936280               0.999999988              -0.000022791              -0.000923213               0.999999988               0.000039324              -0.000907931               0.999999988               0.000105690              -0.000891741               0.999999988               0.000174361              -0.000875849               0.999999988              -0.000402032              -0.001125715               0.999999988              -0.000293282              -0.001068156               0.999999988              -0.000251134              -0.001038458               0.999999988              -0.000234324              -0.001028492               0.999999988              -0.000226994              -0.001030878               0.999999988              -0.000221453              -0.001040090               0.999999988              -0.000213698              -0.001052274               0.999999988              -0.000201688              -0.001064666               0.999999988              -0.000184201              -0.001075485               0.999999988              -0.000160517              -0.001083759               0.999999988              -0.000130076              -0.001089287               0.999999988              -0.000092606              -0.001092003               0.999999988              -0.000048385              -0.001091872               0.999999988               0.000002660              -0.001089233               0.999999988               0.000060413              -0.001084411               0.999999988               0.000124453              -0.001078104               0.999999988               0.000193426              -0.001071215               0.999999988              -0.000325998              -0.001184578               0.999999988              -0.000231589              -0.001154333               0.999999988              -0.000191995              -0.001135407               0.999999988              -0.000174876              -0.001129489               0.999999988              -0.000167110              -0.001133799               0.999999988              -0.000161904              -0.001144836               0.999999988              -0.000155589              -0.001159678               0.999999988              -0.000146400              -0.001176090               0.999999988              -0.000133086              -0.001192514               0.999999988              -0.000114616              -0.001207785               0.999999988              -0.000090264              -0.001221314               0.999999988              -0.000059682              -0.001232873               0.999999988              -0.000022613              -0.001242322               0.999999988               0.000021497              -0.001249674               0.999999988               0.000073080              -0.001255057               0.999999988               0.000132249              -0.001258757               0.999999988               0.000199018              -0.001261324               0.999999988              -0.000247087              -0.001231697               0.999999988              -0.000171935              -0.001226124               0.999999988              -0.000138191              -0.001219089               0.999999988              -0.000122494              -0.001218985               0.999999988              -0.000114876              -0.001226390               0.999999988              -0.000110159              -0.001239974               0.999999988              -0.000105132              -0.001257647               0.999999988              -0.000098372              -0.001277799               0.999999988              -0.000088578              -0.001299154               0.999999988              -0.000075024              -0.001320612               0.999999988              -0.000056933              -0.001341443               0.999999988              -0.000033665              -0.001361113               0.999999988              -0.000004586              -0.001379546               0.999999988               0.000030816              -0.001396445               0.999999988               0.000073495              -0.001411549               0.999999988               0.000124490              -0.001424974               0.999999988               0.000184870              -0.001436967               0.999999988              -0.000165992              -0.001266066               0.999999988              -0.000113822              -0.001280157               0.999999988              -0.000089126              -0.001283925               0.999999988              -0.000076961              -0.001289868               0.999999988              -0.000070662              -0.001300878               0.999999988              -0.000066911              -0.001317157               0.999999988              -0.000063352              -0.001337609               0.999999988              -0.000058785              -0.001360980               0.999999988              -0.000052229              -0.001386316               0.999999988              -0.000043322              -0.001412769               0.999999988              -0.000031394              -0.001439531               0.999999988              -0.000015562              -0.001466233               0.999999988               0.000004557              -0.001492471               0.999999988               0.000029539              -0.001517838               0.999999988               0.000060396              -0.001542073               0.999999988               0.000098625              -0.001564760               0.999999988               0.000146018              -0.001585517               0.999999988              -0.000083398              -0.001287051               0.999999988              -0.000056661              -0.001313774               0.999999988              -0.000043603              -0.001325073               0.999999988              -0.000036932              -0.001335486               0.999999988              -0.000033372              -0.001349395               0.999999988              -0.000031297              -0.001367834               0.999999988              -0.000029373              -0.001390393               0.999999988              -0.000026989              -0.001416224               0.999999988              -0.000023616              -0.001444285               0.999999988              -0.000019190              -0.001473959               0.999999988              -0.000013215              -0.001504717               0.999999988              -0.000005205              -0.001536161               0.999999988               0.000005013              -0.001567801               0.999999988               0.000018056              -0.001599161               0.999999988               0.000034494              -0.001629845               0.999999988               0.000055009              -0.001659229               0.999999988               0.000081246              -0.001686522               0.999999988               0.000000000              -0.001294207               0.999999988              -0.000000000              -0.001325240               0.999999988              -0.000000000              -0.001339183               0.999999988               0.000000000              -0.001351307               0.999999988               0.000000000              -0.001366327               0.999999988              -0.000000000              -0.001385576               0.999999988              -0.000000000              -0.001408942               0.999999988               0.000000000              -0.001435692               0.999999988               0.000000000              -0.001464708               0.999999988              -0.000000000              -0.001495537               0.999999988              -0.000000000              -0.001527679               0.999999988               0.000000000              -0.001560664               0.999999988              -0.000000000              -0.001594222               0.999999988               0.000000000              -0.001627769               0.999999988               0.000000000              -0.001660704               0.999999988              -0.000000000              -0.001692450               0.999999988              -0.000000000              -0.001722175               0.999999988               0.000888480              -0.000000000               0.999999988               0.000934731               0.000000000               0.999999988               0.000953530              -0.000000000               0.999999988               0.000963423              -0.000000000               0.999999988               0.000971087               0.000000000               0.999999988               0.000978938              -0.000000000               0.999999988               0.000987732              -0.000000000               0.999999988               0.000997417              -0.000000000               0.999999988               0.001007812              -0.000000000               0.999999988               0.001018575              -0.000000000               0.999999988               0.001029494               0.000000000               0.999999988               0.001040159               0.000000000               0.999999988               0.001050120              -0.000000000               0.999999988               0.001058893              -0.000000000               0.999999988               0.001066030              -0.000000000               0.999999988               0.001070917              -0.000000000               0.999999988               0.001072676               0.000000000               0.999999988               0.000883626              -0.000121961               0.999999988               0.000925789              -0.000096035               0.999999988               0.000941958              -0.000083862               0.999999988               0.000950146              -0.000078503               0.999999988               0.000956624              -0.000076532               0.999999988               0.000963491              -0.000076077               0.999999988               0.000971249              -0.000076031               0.999999988               0.000979898              -0.000075710               0.999999988               0.000989223              -0.000074831               0.999999988               0.000998812              -0.000073100               0.999999988               0.001008335              -0.000069919               0.999999988               0.001017322              -0.000064972               0.999999988               0.001025283              -0.000057947               0.999999988               0.001031802              -0.000048639               0.999999988               0.001036460              -0.000036433               0.999999988               0.001038751              -0.000020412               0.999999988               0.001038121               0.000000992               0.999999988               0.000869043              -0.000242864               0.999999988               0.000899347              -0.000191822               0.999999988               0.000908185              -0.000168758               0.999999988               0.000911663              -0.000159154               0.999999988               0.000914842              -0.000155928               0.999999988               0.000919063              -0.000155439               0.999999988               0.000924343              -0.000155656               0.999999988               0.000930438              -0.000155324               0.999999988               0.000936830              -0.000153798               0.999999988               0.000943040              -0.000150275               0.999999988               0.000948523              -0.000143924               0.999999988               0.000952740              -0.000134239               0.999999988               0.000955333              -0.000120696               0.999999988               0.000955934              -0.000102916               0.999999988               0.000954221              -0.000080177               0.999999988               0.000949953              -0.000050980               0.999999988               0.000942988              -0.000013741               0.999999988               0.000845132              -0.000361709               0.999999988               0.000856873              -0.000287229               0.999999988               0.000855001              -0.000255530               0.999999988               0.000851983              -0.000243490               0.999999988               0.000850918              -0.000240274               0.999999988               0.000851765              -0.000240547               0.999999988               0.000853824              -0.000241427               0.999999988               0.000856318              -0.000241364               0.999999988               0.000858465              -0.000239154               0.999999988               0.000859450              -0.000233962               0.999999988               0.000858842              -0.000224595               0.999999988               0.000856225              -0.000210513               0.999999988               0.000851142              -0.000191294               0.999999988               0.000843435              -0.000166680               0.999999988               0.000832980              -0.000135942               0.999999988               0.000819857              -0.000097913               0.999999988               0.000804349              -0.000051805               0.999999988               0.000812392              -0.000477548               0.999999988               0.000800250              -0.000382292               0.999999988               0.000786250              -0.000344895               0.999999988               0.000776973              -0.000332334               0.999999988               0.000771920              -0.000330293               0.999999988               0.000769498              -0.000332035               0.999999988               0.000768188              -0.000334001               0.999999988               0.000766464              -0.000334205               0.999999988               0.000763424              -0.000331311               0.999999988               0.000758133              -0.000324193               0.999999988               0.000750129              -0.000312018               0.999999988               0.000739104              -0.000294171               0.999999988               0.000724929              -0.000270307               0.999999988               0.000707573              -0.000240299               0.999999988               0.000687153              -0.000203925               0.999999988               0.000663996              -0.000161023               0.999999988               0.000638782              -0.000111816               0.999999988               0.000771203              -0.000589385               0.999999988               0.000732208              -0.000477195               0.999999988               0.000707102              -0.000436987               0.999999988               0.000692949              -0.000425573               0.999999988               0.000684985              -0.000425483               0.999999988               0.000679923              -0.000429141               0.999999988               0.000675175              -0.000432302               0.999999988               0.000669052              -0.000432604               0.999999988               0.000660189              -0.000428607               0.999999988               0.000647639              -0.000419305               0.999999988               0.000631186              -0.000404375               0.999999988               0.000610761              -0.000383143               0.999999988               0.000586413              -0.000355463               0.999999988               0.000558358              -0.000321602               0.999999988               0.000527018              -0.000281895               0.999999988               0.000493211              -0.000237099               0.999999988               0.000457980              -0.000188445               0.999999988               0.000722300              -0.000696067               0.999999988               0.000656148              -0.000572110               0.999999988               0.000622536              -0.000531540               0.999999988               0.000605697              -0.000522238               0.999999988               0.000596425              -0.000524379               0.999999988               0.000589477              -0.000529894               0.999999988               0.000581585              -0.000533742               0.999999988               0.000570488              -0.000533705               0.999999988               0.000554753              -0.000528194               0.999999988               0.000533960              -0.000516611               0.999999988               0.000507938              -0.000499065               0.999999988               0.000476958              -0.000474936               0.999999988               0.000441329              -0.000444294               0.999999988               0.000401844              -0.000407900               0.999999988               0.000359342              -0.000366822               0.999999988               0.000315052              -0.000322559               0.999999988               0.000270216              -0.000277089               0.999999988               0.000666737              -0.000796416               0.999999988               0.000575583              -0.000666840               0.999999988               0.000537118              -0.000627755               0.999999988               0.000520446              -0.000620589               0.999999988               0.000511289              -0.000624734               0.999999988               0.000503010              -0.000631484               0.999999988               0.000491488              -0.000635528               0.999999988               0.000474415              -0.000634638               0.999999988               0.000450856              -0.000627381               0.999999988               0.000420745              -0.000613479               0.999999988               0.000384183              -0.000593279               0.999999988               0.000341648              -0.000566669               0.999999988               0.000294144              -0.000534085               0.999999988               0.000242883              -0.000496983               0.999999988               0.000189232              -0.000456894               0.999999988               0.000134723              -0.000415641               0.999999988               0.000080431              -0.000375010               0.999999988               0.000606167              -0.000888638               0.999999988               0.000493272              -0.000761245               0.999999988               0.000455393              -0.000723949               0.999999988               0.000440910              -0.000718497               0.999999988               0.000432652              -0.000724220               0.999999988               0.000422772              -0.000731602               0.999999988               0.000406665              -0.000735429               0.999999988               0.000382728              -0.000733228               0.999999988               0.000350322              -0.000724195               0.999999988               0.000309730              -0.000708232               0.999999988               0.000261498              -0.000685764               0.999999988               0.000206573              -0.000657553               0.999999988               0.000146420              -0.000624735               0.999999988               0.000082739              -0.000589179               0.999999988               0.000017350              -0.000552829               0.999999988              -0.000048376              -0.000517325               0.999999988              -0.000113458              -0.000483323               0.999999988               0.000543180              -0.000976150               0.999999988               0.000424058              -0.000867920               0.999999988               0.000384109              -0.000827551               0.999999988               0.000369519              -0.000818066               0.999999988               0.000362340              -0.000821537               0.999999988               0.000354663              -0.000829242               0.999999988               0.000342154              -0.000836093               0.999999988               0.000322555              -0.000839220               0.999999988               0.000295388              -0.000837490               0.999999988               0.000260529              -0.000830377               0.999999988               0.000218116              -0.000818061               0.999999988               0.000168639              -0.000801066               0.999999988               0.000112794              -0.000780072               0.999999988               0.000051916              -0.000755953               0.999999988              -0.000012748              -0.000730162               0.999999988              -0.000079619              -0.000704365               0.999999988              -0.000147091              -0.000679784               0.999999988               0.000474673              -0.001055832               0.999999988               0.000357443              -0.000971281               0.999999988               0.000315452              -0.000934050               0.999999988               0.000299867              -0.000922740               0.999999988               0.000292878              -0.000924965               0.999999988               0.000286586              -0.000933212               0.999999988               0.000276933              -0.000942775               0.999999988               0.000261406              -0.000950674               0.999999988               0.000239300              -0.000955358               0.999999988               0.000210022              -0.000956328               0.999999988               0.000173558              -0.000953304               0.999999988               0.000129910              -0.000946482               0.999999988               0.000079428              -0.000936280               0.999999988               0.000022791              -0.000923213               0.999999988              -0.000039324              -0.000907931               0.999999988              -0.000105690              -0.000891741               0.999999988              -0.000174361              -0.000875849               0.999999988               0.000402032              -0.001125715               0.999999988               0.000293282              -0.001068156               0.999999988               0.000251134              -0.001038458               0.999999988               0.000234324              -0.001028492               0.999999988               0.000226994              -0.001030878               0.999999988               0.000221453              -0.001040090               0.999999988               0.000213698              -0.001052274               0.999999988               0.000201688              -0.001064666               0.999999988               0.000184201              -0.001075485               0.999999988               0.000160517              -0.001083759               0.999999988               0.000130076              -0.001089287               0.999999988               0.000092606              -0.001092003               0.999999988               0.000048385              -0.001091872               0.999999988              -0.000002660              -0.001089233               0.999999988              -0.000060413              -0.001084411               0.999999988              -0.000124453              -0.001078104               0.999999988              -0.000193426              -0.001071215               0.999999988               0.000325998              -0.001184578               0.999999988               0.000231589              -0.001154333               0.999999988               0.000191995              -0.001135407               0.999999988               0.000174876              -0.001129489               0.999999988               0.000167110              -0.001133799               0.999999988               0.000161904              -0.001144836               0.999999988               0.000155589              -0.001159678               0.999999988               0.000146400              -0.001176090               0.999999988               0.000133086              -0.001192514               0.999999988               0.000114616              -0.001207785               0.999999988               0.000090264              -0.001221314               0.999999988               0.000059682              -0.001232873               0.999999988               0.000022613              -0.001242322               0.999999988              -0.000021497              -0.001249674               0.999999988              -0.000073080              -0.001255057               0.999999988              -0.000132249              -0.001258757               0.999999988              -0.000199018              -0.001261324               0.999999988               0.000247087              -0.001231697               0.999999988               0.000171935              -0.001226124               0.999999988               0.000138191              -0.001219089               0.999999988               0.000122494              -0.001218985               0.999999988               0.000114876              -0.001226390               0.999999988               0.000110159              -0.001239974               0.999999988               0.000105132              -0.001257647               0.999999988               0.000098372              -0.001277799               0.999999988               0.000088578              -0.001299154               0.999999988               0.000075024              -0.001320612               0.999999988               0.000056933              -0.001341443               0.999999988               0.000033665              -0.001361113               0.999999988               0.000004586              -0.001379546               0.999999988              -0.000030816              -0.001396445               0.999999988              -0.000073495              -0.001411549               0.999999988              -0.000124490              -0.001424974               0.999999988              -0.000184870              -0.001436967               0.999999988               0.000165992              -0.001266066               0.999999988               0.000113822              -0.001280157               0.999999988               0.000089126              -0.001283925               0.999999988               0.000076961              -0.001289868               0.999999988               0.000070662              -0.001300878               0.999999988               0.000066911              -0.001317157               0.999999988               0.000063352              -0.001337609               0.999999988               0.000058785              -0.001360980               0.999999988               0.000052229              -0.001386316               0.999999988               0.000043322              -0.001412769               0.999999988               0.000031394              -0.001439531               0.999999988               0.000015562              -0.001466233               0.999999988              -0.000004557              -0.001492471               0.999999988              -0.000029539              -0.001517838               0.999999988              -0.000060396              -0.001542073               0.999999988              -0.000098625              -0.001564760               0.999999988              -0.000146018              -0.001585517               0.999999988               0.000083398              -0.001287051               0.999999988               0.000056661              -0.001313774               0.999999988               0.000043603              -0.001325073               0.999999988               0.000036932              -0.001335486               0.999999988               0.000033372              -0.001349395               0.999999988               0.000031297              -0.001367834               0.999999988               0.000029373              -0.001390393               0.999999988               0.000026989              -0.001416224               0.999999988               0.000023616              -0.001444285               0.999999988               0.000019190              -0.001473959               0.999999988               0.000013215              -0.001504717               0.999999988               0.000005205              -0.001536161               0.999999988              -0.000005013              -0.001567801               0.999999988              -0.000018056              -0.001599161               0.999999988              -0.000034494              -0.001629845               0.999999988              -0.000055009              -0.001659229               0.999999988              -0.000081246              -0.001686522               0.999999988               0.000000000              -0.001294207               0.999999988              -0.000000000              -0.001325240               0.999999988              -0.000000000              -0.001339183               0.999999988               0.000000000              -0.001351307               0.999999988               0.000000000              -0.001366327               0.999999988              -0.000000000              -0.001385576               0.999999988              -0.000000000              -0.001408942               0.999999988               0.000000000              -0.001435692               0.999999988               0.000000000              -0.001464708               0.999999988              -0.000000000              -0.001495537               0.999999988              -0.000000000              -0.001527679               0.999999988               0.000000000              -0.001560664               0.999999988              -0.000000000              -0.001594222               0.999999988               0.000000000              -0.001627769               0.999999988               0.000000000              -0.001660704               0.999999988              -0.000000000              -0.001692450               0.999999988              -0.000000000              -0.001722175               0.999999988               0.000888480              -0.000000000               0.999999988               0.000934731               0.000000000               0.999999988               0.000953530              -0.000000000               0.999999988               0.000963423              -0.000000000               0.999999988               0.000971087               0.000000000               0.999999988               0.000978938              -0.000000000               0.999999988               0.000987732              -0.000000000               0.999999988               0.000997417              -0.000000000               0.999999988               0.001007812              -0.000000000               0.999999988               0.001018575              -0.000000000               0.999999988               0.001029494               0.000000000               0.999999988               0.001040159               0.000000000               0.999999988               0.001050120              -0.000000000               0.999999988               0.001058893              -0.000000000               0.999999988               0.001066030              -0.000000000               0.999999988               0.001070917              -0.000000000               0.999999988               0.001072676               0.000000000               0.999999988               0.000883626               0.000121961               0.999999988               0.000925789               0.000096035               0.999999988               0.000941958               0.000083862               0.999999988               0.000950146               0.000078503               0.999999988               0.000956624               0.000076532               0.999999988               0.000963491               0.000076077               0.999999988               0.000971249               0.000076031               0.999999988               0.000979898               0.000075710               0.999999988               0.000989223               0.000074831               0.999999988               0.000998812               0.000073100               0.999999988               0.001008335               0.000069919               0.999999988               0.001017322               0.000064972               0.999999988               0.001025283               0.000057947               0.999999988               0.001031802               0.000048639               0.999999988               0.001036460               0.000036433               0.999999988               0.001038751               0.000020412               0.999999988               0.001038121              -0.000000992               0.999999988               0.000869043               0.000242864               0.999999988               0.000899347               0.000191822               0.999999988               0.000908185               0.000168758               0.999999988               0.000911663               0.000159154               0.999999988               0.000914842               0.000155928               0.999999988               0.000919063               0.000155439               0.999999988               0.000924343               0.000155656               0.999999988               0.000930438               0.000155324               0.999999988               0.000936830               0.000153798               0.999999988               0.000943040               0.000150275               0.999999988               0.000948523               0.000143924               0.999999988               0.000952740               0.000134239               0.999999988               0.000955333               0.000120696               0.999999988               0.000955934               0.000102916               0.999999988               0.000954221               0.000080177               0.999999988               0.000949953               0.000050980               0.999999988               0.000942988               0.000013741               0.999999988               0.000845132               0.000361709               0.999999988               0.000856873               0.000287229               0.999999988               0.000855001               0.000255530               0.999999988               0.000851983               0.000243490               0.999999988               0.000850918               0.000240274               0.999999988               0.000851765               0.000240547               0.999999988               0.000853824               0.000241427               0.999999988               0.000856318               0.000241364               0.999999988               0.000858465               0.000239154               0.999999988               0.000859450               0.000233962               0.999999988               0.000858842               0.000224595               0.999999988               0.000856225               0.000210513               0.999999988               0.000851142               0.000191294               0.999999988               0.000843435               0.000166680               0.999999988               0.000832980               0.000135942               0.999999988               0.000819857               0.000097913               0.999999988               0.000804349               0.000051805               0.999999988               0.000812392               0.000477548               0.999999988               0.000800250               0.000382292               0.999999988               0.000786250               0.000344895               0.999999988               0.000776973               0.000332334               0.999999988               0.000771920               0.000330293               0.999999988               0.000769498               0.000332035               0.999999988               0.000768188               0.000334001               0.999999988               0.000766464               0.000334205               0.999999988               0.000763424               0.000331311               0.999999988               0.000758133               0.000324193               0.999999988               0.000750129               0.000312018               0.999999988               0.000739104               0.000294171               0.999999988               0.000724929               0.000270307               0.999999988               0.000707573               0.000240299               0.999999988               0.000687153               0.000203925               0.999999988               0.000663996               0.000161023               0.999999988               0.000638782               0.000111816               0.999999988               0.000771203               0.000589385               0.999999988               0.000732208               0.000477195               0.999999988               0.000707102               0.000436987               0.999999988               0.000692949               0.000425573               0.999999988               0.000684985               0.000425483               0.999999988               0.000679923               0.000429141               0.999999988               0.000675175               0.000432302               0.999999988               0.000669052               0.000432604               0.999999988               0.000660189               0.000428607               0.999999988               0.000647639               0.000419305               0.999999988               0.000631186               0.000404375               0.999999988               0.000610761               0.000383143               0.999999988               0.000586413               0.000355463               0.999999988               0.000558358               0.000321602               0.999999988               0.000527018               0.000281895               0.999999988               0.000493211               0.000237099               0.999999988               0.000457980               0.000188445               0.999999988               0.000722300               0.000696067               0.999999988               0.000656148               0.000572110               0.999999988               0.000622536               0.000531540               0.999999988               0.000605697               0.000522238               0.999999988               0.000596425               0.000524379               0.999999988               0.000589477               0.000529894               0.999999988               0.000581585               0.000533742               0.999999988               0.000570488               0.000533705               0.999999988               0.000554753               0.000528194               0.999999988               0.000533960               0.000516611               0.999999988               0.000507938               0.000499065               0.999999988               0.000476958               0.000474936               0.999999988               0.000441329               0.000444294               0.999999988               0.000401844               0.000407900               0.999999988               0.000359342               0.000366822               0.999999988               0.000315052               0.000322559               0.999999988               0.000270216               0.000277089               0.999999988               0.000666737               0.000796416               0.999999988               0.000575583               0.000666840               0.999999988               0.000537118               0.000627755               0.999999988               0.000520446               0.000620589               0.999999988               0.000511289               0.000624734               0.999999988               0.000503010               0.000631484               0.999999988               0.000491488               0.000635528               0.999999988               0.000474415               0.000634638               0.999999988               0.000450856               0.000627381               0.999999988               0.000420745               0.000613479               0.999999988               0.000384183               0.000593279               0.999999988               0.000341648               0.000566669               0.999999988               0.000294144               0.000534085               0.999999988               0.000242883               0.000496983               0.999999988               0.000189232               0.000456894               0.999999988               0.000134723               0.000415641               0.999999988               0.000080431               0.000375010               0.999999988               0.000606167               0.000888638               0.999999988               0.000493272               0.000761245               0.999999988               0.000455393               0.000723949               0.999999988               0.000440910               0.000718497               0.999999988               0.000432652               0.000724220               0.999999988               0.000422772               0.000731602               0.999999988               0.000406665               0.000735429               0.999999988               0.000382728               0.000733228               0.999999988               0.000350322               0.000724195               0.999999988               0.000309730               0.000708232               0.999999988               0.000261498               0.000685764               0.999999988               0.000206573               0.000657553               0.999999988               0.000146420               0.000624735               0.999999988               0.000082739               0.000589179               0.999999988               0.000017350               0.000552829               0.999999988              -0.000048376               0.000517325               0.999999988              -0.000113458               0.000483323               0.999999988               0.000543180               0.000976150               0.999999988               0.000424058               0.000867920               0.999999988               0.000384109               0.000827551               0.999999988               0.000369519               0.000818066               0.999999988               0.000362340               0.000821537               0.999999988               0.000354663               0.000829242               0.999999988               0.000342154               0.000836093               0.999999988               0.000322555               0.000839220               0.999999988               0.000295388               0.000837490               0.999999988               0.000260529               0.000830377               0.999999988               0.000218116               0.000818061               0.999999988               0.000168639               0.000801066               0.999999988               0.000112794               0.000780072               0.999999988               0.000051916               0.000755953               0.999999988              -0.000012748               0.000730162               0.999999988              -0.000079619               0.000704365               0.999999988              -0.000147091               0.000679784               0.999999988               0.000474673               0.001055832               0.999999988               0.000357443               0.000971281               0.999999988               0.000315452               0.000934050               0.999999988               0.000299867               0.000922740               0.999999988               0.000292878               0.000924965               0.999999988               0.000286586               0.000933212               0.999999988               0.000276933               0.000942775               0.999999988               0.000261406               0.000950674               0.999999988               0.000239300               0.000955358               0.999999988               0.000210022               0.000956328               0.999999988               0.000173558               0.000953304               0.999999988               0.000129910               0.000946482               0.999999988               0.000079428               0.000936280               0.999999988               0.000022791               0.000923213               0.999999988              -0.000039324               0.000907931               0.999999988              -0.000105690               0.000891741               0.999999988              -0.000174361               0.000875849               0.999999988               0.000402032               0.001125715               0.999999988               0.000293282               0.001068156               0.999999988               0.000251134               0.001038458               0.999999988               0.000234324               0.001028492               0.999999988               0.000226994               0.001030878               0.999999988               0.000221453               0.001040090               0.999999988               0.000213698               0.001052274               0.999999988               0.000201688               0.001064666               0.999999988               0.000184201               0.001075485               0.999999988               0.000160517               0.001083759               0.999999988               0.000130076               0.001089287               0.999999988               0.000092606               0.001092003               0.999999988               0.000048385               0.001091872               0.999999988              -0.000002660               0.001089233               0.999999988              -0.000060413               0.001084411               0.999999988              -0.000124453               0.001078104               0.999999988              -0.000193426               0.001071215               0.999999988               0.000325998               0.001184578               0.999999988               0.000231589               0.001154333               0.999999988               0.000191995               0.001135407               0.999999988               0.000174876               0.001129489               0.999999988               0.000167110               0.001133799               0.999999988               0.000161904               0.001144836               0.999999988               0.000155589               0.001159678               0.999999988               0.000146400               0.001176090               0.999999988               0.000133086               0.001192514               0.999999988               0.000114616               0.001207785               0.999999988               0.000090264               0.001221314               0.999999988               0.000059682               0.001232873               0.999999988               0.000022613               0.001242322               0.999999988              -0.000021497               0.001249674               0.999999988              -0.000073080               0.001255057               0.999999988              -0.000132249               0.001258757               0.999999988              -0.000199018               0.001261324               0.999999988               0.000247087               0.001231697               0.999999988               0.000171935               0.001226124               0.999999988               0.000138191               0.001219089               0.999999988               0.000122494               0.001218985               0.999999988               0.000114876               0.001226390               0.999999988               0.000110159               0.001239974               0.999999988               0.000105132               0.001257647               0.999999988               0.000098372               0.001277799               0.999999988               0.000088578               0.001299154               0.999999988               0.000075024               0.001320612               0.999999988               0.000056933               0.001341443               0.999999988               0.000033665               0.001361113               0.999999988               0.000004586               0.001379546               0.999999988              -0.000030816               0.001396445               0.999999988              -0.000073495               0.001411549               0.999999988              -0.000124490               0.001424974               0.999999988              -0.000184870               0.001436967               0.999999988               0.000165992               0.001266066               0.999999988               0.000113822               0.001280157               0.999999988               0.000089126               0.001283925               0.999999988               0.000076961               0.001289868               0.999999988               0.000070662               0.001300878               0.999999988               0.000066911               0.001317157               0.999999988               0.000063352               0.001337609               0.999999988               0.000058785               0.001360980               0.999999988               0.000052229               0.001386316               0.999999988               0.000043322               0.001412769               0.999999988               0.000031394               0.001439531               0.999999988               0.000015562               0.001466233               0.999999988              -0.000004557               0.001492471               0.999999988              -0.000029539               0.001517838               0.999999988              -0.000060396               0.001542073               0.999999988              -0.000098625               0.001564760               0.999999988              -0.000146018               0.001585517               0.999999988               0.000083398               0.001287051               0.999999988               0.000056661               0.001313774               0.999999988               0.000043603               0.001325073               0.999999988               0.000036932               0.001335486               0.999999988               0.000033372               0.001349395               0.999999988               0.000031297               0.001367834               0.999999988               0.000029373               0.001390393               0.999999988               0.000026989               0.001416224               0.999999988               0.000023616               0.001444285               0.999999988               0.000019190               0.001473959               0.999999988               0.000013215               0.001504717               0.999999988               0.000005205               0.001536161               0.999999988              -0.000005013               0.001567801               0.999999988              -0.000018056               0.001599161               0.999999988              -0.000034494               0.001629845               0.999999988              -0.000055009               0.001659229               0.999999988              -0.000081246               0.001686522               0.999999988               0.000000000               0.001294207               0.999999988              -0.000000000               0.001325240               0.999999988               0.000000000               0.001339183               0.999999988               0.000000000               0.001351307               0.999999988               0.000000000               0.001366327               0.999999988              -0.000000000               0.001385576               0.999999988               0.000000000               0.001408942               0.999999988               0.000000000               0.001435692               0.999999988               0.000000000               0.001464708               0.999999988              -0.000000000               0.001495537               0.999999988              -0.000000000               0.001527679               0.999999988              -0.000000000               0.001560664               0.999999988              -0.000000000               0.001594222               0.999999988               0.000000000               0.001627769               0.999999988               0.000000000               0.001660704               0.999999988               0.000000000               0.001692450               0.999999988              -0.000000000               0.001722175               0.999999988 </DataArray>
<DataArray type="Float64"                                    Name="defo"                                                      NumberOfComponents=" 3" format="ascii">
             -0.000888480              -0.000000000               0.999999988              -0.000934731               0.000000000               0.999999988              -0.000953530               0.000000000               0.999999988              -0.000963423               0.000000000               0.999999988              -0.000971087               0.000000000               0.999999988              -0.000978938               0.000000000               0.999999988              -0.000987732               0.000000000               0.999999988              -0.000997417              -0.000000000               0.999999988              -0.001007812              -0.000000000               0.999999988              -0.001018575              -0.000000000               0.999999988              -0.001029494               0.000000000               0.999999988              -0.001040159              -0.000000000               0.999999988              -0.001050120              -0.000000000               0.999999988              -0.001058893              -0.000000000               0.999999988              -0.001066030              -0.000000000               0.999999988              -0.001070917              -0.000000000               0.999999988              -0.001072676               0.000000000               0.999999988              -0.000883626               0.000121961               0.999999988              -0.000925789               0.000096035               0.999999988              -0.000941958               0.000083862               0.999999988              -0.000950146               0.000078503               0.999999988              -0.000956624               0.000076532               0.999999988              -0.000963491               0.000076077               0.999999988              -0.000971249               0.000076031               0.999999988              -0.000979898               0.000075710               0.999999988              -0.000989223               0.000074831               0.999999988              -0.000998812               0.000073100               0.999999988              -0.001008335               0.000069919               0.999999988              -0.001017322               0.000064972               0.999999988              -0.001025283               0.000057947               0.999999988              -0.001031802               0.000048639               0.999999988              -0.001036460               0.000036433               0.999999988              -0.001038751               0.000020412               0.999999988              -0.001038121              -0.000000992               0.999999988              -0.000869043               0.000242864               0.999999988              -0.000899347               0.000191822               0.999999988              -0.000908185               0.000168758               0.999999988              -0.000911663               0.000159154               0.999999988              -0.000914842               0.000155928               0.999999988              -0.000919063               0.000155439               0.999999988              -0.000924343               0.000155656               0.999999988              -0.000930438               0.000155324               0.999999988              -0.000936830               0.000153798               0.999999988              -0.000943040               0.000150275               0.999999988              -0.000948523               0.000143924               0.999999988              -0.000952740               0.000134239               0.999999988              -0.000955333               0.000120696               0.999999988              -0.000955934               0.000102916               0.999999988              -0.000954221               0.000080177               0.999999988              -0.000949953               0.000050980               0.999999988              -0.000942988               0.000013741               0.999999988              -0.000845132               0.000361709               0.999999988              -0.000856873               0.000287229               0.999999988              -0.000855001               0.000255530               0.999999988              -0.000851983               0.000243490               0.999999988              -0.000850918               0.000240274               0.999999988              -0.000851765               0.000240547               0.999999988              -0.000853824               0.000241427               0.999999988              -0.000856318               0.000241364               0.999999988              -0.000858465               0.000239154               0.999999988              -0.000859450               0.000233962               0.999999988              -0.000858842               0.000224595               0.999999988              -0.000856225               0.000210513               0.999999988              -0.000851142               0.000191294               0.999999988              -0.000843435               0.000166680               0.999999988              -0.000832980               0.000135942               0.999999988              -0.000819857               0.000097913               0.999999988              -0.000804349               0.000051805               0.999999988              -0.000812392               0.000477548               0.999999988              -0.000800250               0.000382292               0.999999988              -0.000786250               0.000344895               0.999999988              -0.000776973               0.000332334               0.999999988              -0.000771920               0.000330293               0.999999988              -0.000769498               0.000332035               0.999999988              -0.000768188               0.000334001               0.999999988              -0.000766464               0.000334205               0.999999988              -0.000763424               0.000331311               0.999999988              -0.000758133               0.000324193               0.999999988              -0.000750129               0.000312018               0.999999988              -0.000739104               0.000294171               0.999999988              -0.000724929               0.000270307               0.999999988              -0.000707573               0.000240299               0.999999988              -0.000687153               0.000203925               0.999999988              -0.000663996               0.000161023               0.999999988              -0.000638782               0.000111816               0.999999988              -0.000771203               0.000589385               0.999999988              -0.000732208               0.000477195               0.999999988              -0.000707102               0.000436987               0.999999988              -0.000692949               0.000425573               0.999999988              -0.000684985               0.000425483               0.999999988              -0.000679923               0.000429141               0.999999988              -0.000675175               0.000432302               0.999999988              -0.000669052               0.000432604               0.999999988              -0.000660189               0.000428607               0.999999988              -0.000647639               0.000419305               0.999999988              -0.000631186               0.000404375               0.999999988              -0.000610761               0.000383143               0.999999988              -0.000586413               0.000355463               0.999999988              -0.000558358               0.000321602               0.999999988              -0.000527018               0.000281895               0.999999988              -0.000493211               0.000237099               0.999999988              -0.000457980               0.000188445               0.999999988              -0.000722300               0.000696067               0.999999988              -0.000656148               0.000572110               0.999999988              -0.000622536               0.000531540               0.999999988              -0.000605697               0.000522238               0.999999988              -0.000596425               0.000524379               0.999999988              -0.000589477               0.000529894               0.999999988              -0.000581585               0.000533742               0.999999988              -0.000570488               0.000533705               0.999999988              -0.000554753               0.000528194               0.999999988              -0.000533960               0.000516611               0.999999988              -0.000507938               0.000499065               0.999999988              -0.000476958               0.000474936               0.999999988              -0.000441329               0.000444294               0.999999988              -0.000401844               0.000407900               0.999999988              -0.000359342               0.000366822               0.999999988              -0.000315052               0.000322559               0.999999988              -0.000270216               0.000277089               0.999999988              -0.000666737               0.000796416               0.999999988              -0.000575583               0.000666840               0.999999988              -0.000537118               0.000627755               0.999999988              -0.000520446               0.000620589               0.999999988              -0.000511289               0.000624734               0.999999988              -0.000503010               0.000631484               0.999999988              -0.000491488               0.000635528               0.999999988              -0.000474415               0.000634638               0.999999988              -0.000450856               0.000627381               0.999999988              -0.000420745               0.000613479               0.999999988              -0.000384183               0.000593279               0.999999988              -0.000341648               0.000566669               0.999999988              -0.000294144               0.000534085               0.999999988              -0.000242883               0.000496983               0.999999988              -0.000189232               0.000456894               0.999999988              -0.000134723               0.000415641               0.999999988              -0.000080431               0.000375010               0.999999988              -0.000606167               0.000888638               0.999999988              -0.000493272               0.000761245               0.999999988              -0.000455393               0.000723949               0.999999988              -0.000440910               0.000718497               0.999999988              -0.000432652               0.000724220               0.999999988              -0.000422772               0.000731602               0.999999988              -0.000406665               0.000735429               0.999999988              -0.000382728               0.000733228               0.999999988              -0.000350322               0.000724195               0.999999988              -0.000309730               0.000708232               0.999999988              -0.000261498               0.000685764               0.999999988              -0.000206573               0.000657553               0.999999988              -0.000146420               0.000624735               0.999999988              -0.000082739               0.000589179               0.999999988              -0.000017350               0.000552829               0.999999988               0.000048376               0.000517325               0.999999988               0.000113458               0.000483323               0.999999988              -0.000543180               0.000976150               0.999999988              -0.000424058               0.000867920               0.999999988              -0.000384109               0.000827551               0.999999988              -0.000369519               0.000818066               0.999999988              -0.000362340               0.000821537               0.999999988              -0.000354663               0.000829242               0.999999988              -0.000342154               0.000836093               0.999999988              -0.000322555               0.000839220               0.999999988              -0.000295388               0.000837490               0.999999988              -0.000260529               0.000830377               0.999999988              -0.000218116               0.000818061               0.999999988              -0.000168639               0.000801066               0.999999988              -0.000112794               0.000780072               0.999999988              -0.000051916               0.000755953               0.999999988               0.000012748               0.000730162               0.999999988               0.000079619               0.000704365               0.999999988               0.000147091               0.000679784               0.999999988              -0.000474673               0.001055832               0.999999988              -0.000357443               0.000971281               0.999999988              -0.000315452               0.000934050               0.999999988              -0.000299867               0.000922740               0.999999988              -0.000292878               0.000924965               0.999999988              -0.000286586               0.000933212               0.999999988              -0.000276933               0.000942775               0.999999988              -0.000261406               0.000950674               0.999999988              -0.000239300               0.000955358               0.999999988              -0.000210022               0.000956328               0.999999988              -0.000173558               0.000953304               0.999999988              -0.000129910               0.000946482               0.999999988              -0.000079428               0.000936280               0.999999988              -0.000022791               0.000923213               0.999999988               0.000039324               0.000907931               0.999999988               0.000105690               0.000891741               0.999999988               0.000174361               0.000875849               0.999999988              -0.000402032               0.001125715               0.999999988              -0.000293282               0.001068156               0.999999988              -0.000251134               0.001038458               0.999999988              -0.000234324               0.001028492               0.999999988              -0.000226994               0.001030878               0.999999988              -0.000221453               0.001040090               0.999999988              -0.000213698               0.001052274               0.999999988              -0.000201688               0.001064666               0.999999988              -0.000184201               0.001075485               0.999999988              -0.000160517               0.001083759               0.999999988              -0.000130076               0.001089287               0.999999988              -0.000092606               0.001092003               0.999999988              -0.000048385               0.001091872               0.999999988               0.000002660               0.001089233               0.999999988               0.000060413               0.001084411               0.999999988               0.000124453               0.001078104               0.999999988               0.000193426               0.001071215               0.999999988              -0.000325998               0.001184578               0.999999988              -0.000231589               0.001154333               0.999999988              -0.000191995               0.001135407               0.999999988              -0.000174876               0.001129489               0.999999988              -0.000167110               0.001133799               0.999999988              -0.000161904               0.001144836               0.999999988              -0.000155589               0.001159678               0.999999988              -0.000146400               0.001176090               0.999999988              -0.000133086               0.001192514               0.999999988              -0.000114616               0.001207785               0.999999988              -0.000090264               0.001221314               0.999999988              -0.000059682               0.001232873               0.999999988              -0.000022613               0.001242322               0.999999988               0.000021497               0.001249674               0.999999988               0.000073080               0.001255057               0.999999988               0.000132249               0.001258757               0.999999988               0.000199018               0.001261324               0.999999988              -0.000247087               0.001231697               0.999999988              -0.000171935               0.001226124               0.999999988              -0.000138191               0.001219089               0.999999988              -0.000122494               0.001218985               0.999999988              -0.000114876               0.001226390               0.999999988              -0.000110159               0.001239974               0.999999988              -0.000105132               0.001257647               0.999999988              -0.000098372               0.001277799               0.999999988              -0.000088578               0.001299154               0.999999988              -0.000075024               0.001320612               0.999999988              -0.000056933               0.001341443               0.999999988              -0.000033665               0.001361113               0.999999988              -0.000004586               0.001379546               0.999999988               0.000030816               0.001396445               0.999999988               0.000073495               0.001411549               0.999999988               0.000124490               0.001424974               0.999999988               0.000184870               0.001436967               0.999999988              -0.000165992               0.001266066               0.999999988              -0.000113822               0.001280157               0.999999988              -0.000089126               0.001283925               0.999999988              -0.000076961               0.001289868               0.999999988              -0.000070662               0.001300878               0.999999988              -0.000066911               0.001317157               0.999999988              -0.000063352               0.001337609               0.999999988              -0.000058785               0.001360980               0.999999988              -0.000052229               0.001386316               0.999999988              -0.000043322               0.001412769               0.999999988              -0.000031394               0.001439531               0.999999988              -0.000015562               0.001466233               0.999999988               0.000004557               0.001492471               0.999999988               0.000029539               0.001517838               0.999999988               0.000060396               0.001542073               0.999999988               0.000098625               0.001564760               0.999999988               0.000146018               0.001585517               0.999999988              -0.000083398               0.001287051               0.999999988              -0.000056661               0.001313774               0.999999988              -0.000043603               0.001325073               0.999999988              -0.000036932               0.001335486               0.999999988              -0.000033372               0.001349395               0.999999988              -0.000031297               0.001367834               0.999999988              -0.000029373               0.001390393               0.999999988              -0.000026989               0.001416224               0.999999988              -0.000023616               0.001444285               0.999999988              -0.000019190               0.001473959               0.999999988              -0.000013215               0.001504717               0.999999988              -0.000005205               0.001536161               0.999999988               0.000005013               0.001567801               0.999999988               0.000018056               0.001599161               0.999999988               0.000034494               0.001629845               0.999999988               0.000055009               0.001659229               0.999999988               0.000081246               0.001686522               0.999999988               0.000000000               0.001294207               0.999999988              -0.000000000               0.001325240               0.999999988               0.000000000               0.001339183               0.999999988               0.000000000               0.001351307               0.999999988               0.000000000               0.001366327               0.999999988              -0.000000000               0.001385576               0.999999988               0.000000000               0.001408942               0.999999988               0.000000000               0.001435692               0.999999988               0.000000000               0.001464708               0.999999988              -0.000000000               0.001495537               0.999999988              -0.000000000               0.001527679               0.999999988              -0.000000000               0.001560664               0.999999988              -0.000000000               0.001594222               0.999999988               0.000000000               0.001627769               0.999999988               0.000000000               0.001660704               0.999999988               0.000000000               0.001692450               0.999999988              -0.000000000               0.001722175               0.999999988              -0.000888480              -0.000000000               0.999999988              -0.000934731               0.000000000               0.999999988              -0.000953530               0.000000000               0.999999988              -0.000963423               0.000000000               0.999999988              -0.000971087               0.000000000               0.999999988              -0.000978938               0.000000000               0.999999988              -0.000987732               0.000000000               0.999999988              -0.000997417              -0.000000000               0.999999988              -0.001007812              -0.000000000               0.999999988              -0.001018575              -0.000000000               0.999999988              -0.001029494               0.000000000               0.999999988              -0.001040159              -0.000000000               0.999999988              -0.001050120              -0.000000000               0.999999988              -0.001058893              -0.000000000               0.999999988              -0.001066030              -0.000000000               0.999999988              -0.001070917              -0.000000000               0.999999988              -0.001072676               0.000000000               0.999999988              -0.000883626              -0.000121961               0.999999988              -0.000925789              -0.000096035               0.999999988              -0.000941958              -0.000083862               0.999999988              -0.000950146              -0.000078503               0.999999988              -0.000956624              -0.000076532               0.999999988              -0.000963491              -0.000076077               0.999999988              -0.000971249              -0.000076031               0.999999988              -0.000979898              -0.000075710               0.999999988              -0.000989223              -0.000074831               0.999999988              -0.000998812              -0.000073100               0.999999988              -0.001008335              -0.000069919               0.999999988              -0.001017322              -0.000064972               0.999999988              -0.001025283              -0.000057947               0.999999988              -0.001031802              -0.000048639               0.999999988              -0.001036460              -0.000036433               0.999999988              -0.001038751              -0.000020412               0.999999988              -0.001038121               0.000000992               0.999999988              -0.000869043              -0.000242864               0.999999988              -0.000899347              -0.000191822               0.999999988              -0.000908185              -0.000168758               0.999999988              -0.000911663              -0.000159154               0.999999988              -0.000914842              -0.000155928               0.999999988              -0.000919063              -0.000155439               0.999999988              -0.000924343              -0.000155656               0.999999988              -0.000930438              -0.000155324               0.999999988              -0.000936830              -0.000153798               0.999999988              -0.000943040              -0.000150275               0.999999988              -0.000948523              -0.000143924               0.999999988              -0.000952740              -0.000134239               0.999999988              -0.000955333              -0.000120696               0.999999988              -0.000955934              -0.000102916               0.999999988              -0.000954221              -0.000080177               0.999999988              -0.000949953              -0.000050980               0.999999988              -0.000942988              -0.000013741               0.999999988              -0.000845132              -0.000361709               0.999999988              -0.000856873              -0.000287229               0.999999988              -0.000855001              -0.000255530               0.999999988              -0.000851983              -0.000243490               0.999999988              -0.000850918              -0.000240274               0.999999988              -0.000851765              -0.000240547               0.999999988              -0.000853824              -0.000241427               0.999999988              -0.000856318              -0.000241364               0.999999988              -0.000858465              -0.000239154               0.999999988              -0.000859450              -0.000233962               0.999999988              -0.000858842              -0.000224595               0.999999988              -0.000856225              -0.000210513               0.999999988              -0.000851142              -0.000191294               0.999999988              -0.000843435              -0.000166680               0.999999988              -0.000832980              -0.000135942               0.999999988              -0.000819857              -0.000097913               0.999999988              -0.000804349              -0.000051805               0.999999988              -0.000812392              -0.000477548               0.999999988              -0.000800250              -0.000382292               0.999999988              -0.000786250              -0.000344895               0.999999988              -0.000776973              -0.000332334               0.999999988              -0.000771920              -0.000330293               0.999999988              -0.000769498              -0.000332035               0.999999988              -0.000768188              -0.000334001               0.999999988              -0.000766464              -0.000334205               0.999999988              -0.000763424              -0.000331311               0.999999988              -0.000758133              -0.000324193               0.999999988              -0.000750129              -0.000312018               0.999999988              -0.000739104              -0.000294171               0.999999988              -0.000724929              -0.000270307               0.999999988              -0.000707573              -0.000240299               0.999999988              -0.000687153              -0.000203925               0.999999988              -0.000663996              -0.000161023               0.999999988              -0.000638782              -0.000111816               0.999999988              -0.000771203              -0.000589385               0.999999988              -0.000732208              -0.000477195               0.999999988              -0.000707102              -0.000436987               0.999999988              -0.000692949              -0.000425573               0.999999988              -0.000684985              -0.000425483               0.999999988              -0.000679923              -0.000429141               0.999999988              -0.000675175              -0.000432302               0.999999988              -0.000669052              -0.000432604               0.999999988              -0.000660189              -0.000428607               0.999999988              -0.000647639              -0.000419305               0.999999988              -0.000631186              -0.000404375               0.999999988              -0.000610761              -0.000383143               0.999999988              -0.000586413              -0.000355463               0.999999988              -0.000558358              -0.000321602               0.999999988              -0.000527018              -0.000281895               0.999999988              -0.000493211              -0.000237099               0.999999988              -0.000457980              -0.000188445               0.999999988              -0.000722300              -0.000696067               0.999999988              -0.000656148              -0.000572110               0.999999988              -0.000622536              -0.000531540               0.999999988              -0.000605697              -0.000522238               0.999999988              -0.000596425              -0.000524379               0.999999988              -0.000589477              -0.000529894               0.999999988              -0.000581585              -0.000533742               0.999999988              -0.000570488              -0.000533705               0.999999988              -0.000554753              -0.000528194               0.999999988              -0.000533960              -0.000516611               0.999999988              -0.000507938              -0.000499065               0.999999988              -0.000476958              -0.000474936               0.999999988              -0.000441329              -0.000444294               0.999999988              -0.000401844              -0.000407900               0.999999988              -0.000359342              -0.000366822               0.999999988              -0.000315052              -0.000322559               0.999999988              -0.000270216              -0.000277089               0.999999988              -0.000666737              -0.000796416               0.999999988              -0.000575583              -0.000666840               0.999999988              -0.000537118              -0.000627755               0.999999988              -0.000520446              -0.000620589               0.999999988              -0.000511289              -0.000624734               0.999999988              -0.000503010              -0.000631484               0.999999988              -0.000491488              -0.000635528               0.999999988              -0.000474415              -0.000634638               0.999999988              -0.000450856              -0.000627381               0.999999988              -0.000420745              -0.000613479               0.999999988              -0.000384183              -0.000593279               0.999999988              -0.000341648              -0.000566669               0.999999988              -0.000294144              -0.000534085               0.999999988              -0.000242883              -0.000496983               0.999999988              -0.000189232              -0.000456894               0.999999988              -0.000134723              -0.000415641               0.999999988              -0.000080431              -0.000375010               0.999999988              -0.000606167              -0.000888638               0.999999988              -0.000493272              -0.000761245               0.999999988              -0.000455393              -0.000723949               0.999999988              -0.000440910              -0.000718497               0.999999988              -0.000432652              -0.000724220               0.999999988              -0.000422772              -0.000731602               0.999999988              -0.000406665              -0.000735429               0.999999988              -0.000382728              -0.000733228               0.999999988              -0.000350322              -0.000724195               0.999999988              -0.000309730              -0.000708232               0.999999988              -0.000261498              -0.000685764               0.999999988              -0.000206573              -0.000657553               0.999999988              -0.000146420              -0.000624735               0.999999988              -0.000082739              -0.000589179               0.999999988              -0.000017350              -0.000552829               0.999999988               0.000048376              -0.000517325               0.999999988               0.000113458              -0.000483323               0.999999988              -0.000543180              -0.000976150               0.999999988              -0.000424058              -0.000867920               0.999999988              -0.000384109              -0.000827551               0.999999988              -0.000369519              -0.000818066               0.999999988              -0.000362340              -0.000821537               0.999999988              -0.000354663              -0.000829242               0.999999988              -0.000342154              -0.000836093               0.999999988              -0.000322555              -0.000839220               0.999999988              -0.000295388              -0.000837490               0.999999988              -0.000260529              -0.000830377               0.999999988              -0.000218116              -0.000818061               0.999999988              -0.000168639              -0.000801066               0.999999988              -0.000112794              -0.000780072               0.999999988              -0.000051916              -0.000755953               0.999999988               0.000012748              -0.000730162               0.999999988               0.000079619              -0.000704365               0.999999988               0.000147091              -0.000679784               0.999999988              -0.000474673              -0.001055832               0.999999988              -0.000357443              -0.000971281               0.999999988              -0.000315452              -0.000934050               0.999999988              -0.000299867              -0.000922740               0.999999988              -0.000292878              -0.000924965               0.999999988              -0.000286586              -0.000933212               0.999999988              -0.000276933              -0.000942775               0.999999988              -0.000261406              -0.000950674               0.999999988              -0.000239300              -0.000955358               0.999999988              -0.000210022              -0.000956328               0.999999988              -0.000173558              -0.000953304               0.999999988              -0.000129910              -0.000946482               0.999999988              -0.000079428              -0.000936280               0.999999988              -0.000022791              -0.000923213               0.999999988               0.000039324              -0.000907931               0.999999988               0.000105690              -0.000891741               0.999999988               0.000174361              -0.000875849               0.999999988              -0.000402032              -0.001125715               0.999999988              -0.000293282              -0.001068156               0.999999988              -0.000251134              -0.001038458               0.999999988              -0.000234324              -0.001028492               0.999999988              -0.000226994              -0.001030878               0.999999988              -0.000221453              -0.001040090               0.999999988              -0.000213698              -0.001052274               0.999999988              -0.000201688              -0.001064666               0.999999988              -0.000184201              -0.001075485               0.999999988              -0.000160517              -0.001083759               0.999999988              -0.000130076              -0.001089287               0.999999988              -0.000092606              -0.001092003               0.999999988              -0.000048385              -0.001091872               0.999999988               0.000002660              -0.001089233               0.999999988               0.000060413              -0.001084411               0.999999988               0.000124453              -0.001078104               0.999999988               0.000193426              -0.001071215               0.999999988              -0.000325998              -0.001184578               0.999999988              -0.000231589              -0.001154333               0.999999988              -0.000191995              -0.001135407               0.999999988              -0.000174876              -0.001129489               0.999999988              -0.000167110              -0.001133799               0.999999988              -0.000161904              -0.001144836               0.999999988              -0.000155589              -0.001159678               0.999999988              -0.000146400              -0.001176090               0.999999988              -0.000133086              -0.001192514               0.999999988              -0.000114616              -0.001207785               0.999999988              -0.000090264              -0.001221314               0.999999988              -0.000059682              -0.001232873               0.999999988              -0.000022613              -0.001242322               0.999999988               0.000021497              -0.001249674               0.999999988               0.000073080              -0.001255057               0.999999988               0.000132249              -0.001258757               0.999999988               0.000199018              -0.001261324               0.999999988              -0.000247087              -0.001231697               0.999999988              -0.000171935              -0.001226124               0.999999988              -0.000138191              -0.001219089               0.999999988              -0.000122494              -0.001218985               0.999999988              -0.000114876              -0.001226390               0.999999988              -0.000110159              -0.001239974               0.999999988              -0.000105132              -0.001257647               0.999999988              -0.000098372              -0.001277799               0.999999988              -0.000088578              -0.001299154               0.999999988              -0.000075024              -0.001320612               0.999999988              -0.000056933              -0.001341443               0.999999988              -0.000033665              -0.001361113               0.999999988              -0.000004586              -0.001379546               0.999999988               0.000030816              -0.001396445               0.999999988               0.000073495              -0.001411549               0.999999988               0.000124490              -0.001424974               0.999999988               0.000184870              -0.001436967               0.999999988              -0.000165992              -0.001266066               0.999999988              -0.000113822              -0.001280157               0.999999988              -0.000089126              -0.001283925               0.999999988              -0.000076961              -0.001289868               0.999999988              -0.000070662              -0.001300878               0.999999988              -0.000066911              -0.001317157               0.999999988              -0.000063352              -0.001337609               0.999999988              -0.000058785              -0.001360980               0.999999988              -0.000052229              -0.001386316               0.999999988              -0.000043322              -0.001412769               0.999999988              -0.000031394              -0.001439531               0.999999988              -0.000015562              -0.001466233               0.999999988               0.000004557              -0.001492471               0.999999988               0.000029539              -0.001517838               0.999999988               0.000060396              -0.001542073               0.999999988               0.000098625              -0.001564760               0.999999988               0.000146018              -0.001585517               0.999999988              -0.000083398              -0.001287051               0.999999988              -0.000056661              -0.001313774               0.999999988              -0.000043603              -0.001325073               0.999999988              -0.000036932              -0.001335486               0.999999988              -0.000033372              -0.001349395               0.999999988              -0.000031297              -0.001367834               0.999999988              -0.000029373              -0.001390393               0.999999988              -0.000026989              -0.001416224               0.999999988              -0.000023616              -0.001444285               0.999999988              -0.000019190              -0.001473959               0.999999988              -0.000013215              -0.001504717               0.999999988              -0.000005205              -0.001536161               0.999999988               0.000005013              -0.001567801               0.999999988               0.000018056              -0.001599161               0.999999988               0.000034494              -0.001629845               0.999999988               0.000055009              -0.001659229               0.999999988               0.000081246              -0.001686522               0.999999988               0.000000000              -0.001294207               0.999999988              -0.000000000              -0.001325240               0.999999988              -0.000000000              -0.001339183               0.999999988               0.000000000              -0.001351307               0.999999988               0.000000000              -0.001366327               0.999999988              -0.000000000              -0.001385576               0.999999988              -0.000000000              -0.001408942               0.999999988               0.000000000              -0.001435692               0.999999988               0.000000000              -0.001464708               0.999999988              -0.000000000              -0.001495537               0.999999988              -0.000000000              -0.001527679               0.999999988               0.000000000              -0.001560664               0.999999988              -0.000000000              -0.001594222               0.999999988               0.000000000              -0.001627769               0.999999988               0.000000000              -0.001660704               0.999999988              -0.000000000              -0.001692450               0.999999988              -0.000000000              -0.001722175               0.999999988               0.000888480              -0.000000000               0.999999988               0.000934731               0.000000000               0.999999988               0.000953530              -0.000000000               0.999999988               0.000963423              -0.000000000               0.999999988               0.000971087               0.000000000               0.999999988               0.000978938              -0.000000000               0.999999988               0.000987732              -0.000000000               0.999999988               0.000997417              -0.000000000               0.999999988               0.001007812              -0.000000000               0.999999988               0.001018575              -0.000000000               0.999999988               0.001029494               0.000000000               0.999999988               0.001040159               0.000000000               0.999999988               0.001050120              -0.000000000               0.999999988               0.001058893              -0.000000000               0.999999988               0.001066030              -0.000000000               0.999999988               0.001070917              -0.000000000               0.999999988               0.001072676               0.000000000               0.999999988               0.000883626              -0.000121961               0.999999988               0.000925789              -0.000096035               0.999999988               0.000941958              -0.000083862               0.999999988               0.000950146              -0.000078503               0.999999988               0.000956624              -0.000076532               0.999999988               0.000963491              -0.000076077               0.999999988               0.000971249              -0.000076031               0.999999988               0.000979898              -0.000075710               0.999999988               0.000989223              -0.000074831               0.999999988               0.000998812              -0.000073100               0.999999988               0.001008335              -0.000069919               0.999999988               0.001017322              -0.000064972               0.999999988               0.001025283              -0.000057947               0.999999988               0.001031802              -0.000048639               0.999999988               0.001036460              -0.000036433               0.999999988               0.001038751              -0.000020412               0.999999988               0.001038121               0.000000992               0.999999988               0.000869043              -0.000242864               0.999999988               0.000899347              -0.000191822               0.999999988               0.000908185              -0.000168758               0.999999988               0.000911663              -0.000159154               0.999999988               0.000914842              -0.000155928               0.999999988               0.000919063              -0.000155439               0.999999988               0.000924343              -0.000155656               0.999999988               0.000930438              -0.000155324               0.999999988               0.000936830              -0.000153798               0.999999988               0.000943040              -0.000150275               0.999999988               0.000948523              -0.000143924               0.999999988               0.000952740              -0.000134239               0.999999988               0.000955333              -0.000120696               0.999999988               0.000955934              -0.000102916               0.999999988               0.000954221              -0.000080177               0.999999988               0.000949953              -0.000050980               0.999999988               0.000942988              -0.000013741               0.999999988               0.000845132              -0.000361709               0.999999988               0.000856873              -0.000287229               0.999999988               0.000855001              -0.000255530               0.999999988               0.000851983              -0.000243490               0.999999988               0.000850918              -0.000240274               0.999999988               0.000851765              -0.000240547               0.999999988               0.000853824              -0.000241427               0.999999988               0.000856318              -0.000241364               0.999999988               0.000858465              -0.000239154               0.999999988               0.000859450              -0.000233962               0.999999988               0.000858842              -0.000224595               0.999999988               0.000856225              -0.000210513               0.999999988               0.000851142              -0.000191294               0.999999988               0.000843435              -0.000166680               0.999999988               0.000832980              -0.000135942               0.999999988               0.000819857              -0.000097913               0.999999988               0.000804349              -0.000051805               0.999999988               0.000812392              -0.000477548               0.999999988               0.000800250              -0.000382292               0.999999988               0.000786250              -0.000344895               0.999999988               0.000776973              -0.000332334               0.999999988               0.000771920              -0.000330293               0.999999988               0.000769498              -0.000332035               0.999999988               0.000768188              -0.000334001               0.999999988               0.000766464              -0.000334205               0.999999988               0.000763424              -0.000331311               0.999999988               0.000758133              -0.000324193               0.999999988               0.000750129              -0.000312018               0.999999988               0.000739104              -0.000294171               0.999999988               0.000724929              -0.000270307               0.999999988               0.000707573              -0.000240299               0.999999988               0.000687153              -0.000203925               0.999999988               0.000663996              -0.000161023               0.999999988               0.000638782              -0.000111816               0.999999988               0.000771203              -0.000589385               0.999999988               0.000732208              -0.000477195               0.999999988               0.000707102              -0.000436987               0.999999988               0.000692949              -0.000425573               0.999999988               0.000684985              -0.000425483               0.999999988               0.000679923              -0.000429141               0.999999988               0.000675175              -0.000432302               0.999999988               0.000669052              -0.000432604               0.999999988               0.000660189              -0.000428607               0.999999988               0.000647639              -0.000419305               0.999999988               0.000631186              -0.000404375               0.999999988               0.000610761              -0.000383143               0.999999988               0.000586413              -0.000355463               0.999999988               0.000558358              -0.000321602               0.999999988               0.000527018              -0.000281895               0.999999988               0.000493211              -0.000237099               0.999999988               0.000457980              -0.000188445               0.999999988               0.000722300              -0.000696067               0.999999988               0.000656148              -0.000572110               0.999999988               0.000622536              -0.000531540               0.999999988               0.000605697              -0.000522238               0.999999988               0.000596425              -0.000524379               0.999999988               0.000589477              -0.000529894               0.999999988               0.000581585              -0.000533742               0.999999988               0.000570488              -0.000533705               0.999999988               0.000554753              -0.000528194               0.999999988               0.000533960              -0.000516611               0.999999988               0.000507938              -0.000499065               0.999999988               0.000476958              -0.000474936               0.999999988               0.000441329              -0.000444294               0.999999988               0.000401844              -0.000407900               0.999999988               0.000359342              -0.000366822               0.999999988               0.000315052              -0.000322559               0.999999988               0.000270216              -0.000277089               0.999999988               0.000666737              -0.000796416               0.999999988               0.000575583              -0.000666840               0.999999988               0.000537118              -0.000627755               0.999999988               0.000520446              -0.000620589               0.999999988               0.000511289              -0.000624734               0.999999988               0.000503010              -0.000631484               0.999999988               0.000491488              -0.000635528               0.999999988               0.000474415              -0.000634638               0.999999988               0.000450856              -0.000627381               0.999999988               0.000420745              -0.000613479               0.999999988               0.000384183              -0.000593279               0.999999988               0.000341648              -0.000566669               0.999999988               0.000294144              -0.000534085               0.999999988               0.000242883              -0.000496983               0.999999988               0.000189232              -0.000456894               0.999999988               0.000134723              -0.000415641               0.999999988               0.000080431              -0.000375010               0.999999988               0.000606167              -0.000888638               0.999999988               0.000493272              -0.000761245               0.999999988               0.000455393              -0.000723949               0.999999988               0.000440910              -0.000718497               0.999999988               0.000432652              -0.000724220               0.999999988               0.000422772              -0.000731602               0.999999988               0.000406665              -0.000735429               0.999999988               0.000382728              -0.000733228               0.999999988               0.000350322              -0.000724195               0.999999988               0.000309730              -0.000708232               0.999999988               0.000261498              -0.000685764               0.999999988               0.000206573              -0.000657553               0.999999988               0.000146420              -0.000624735               0.999999988               0.000082739              -0.000589179               0.999999988               0.000017350              -0.000552829               0.999999988              -0.000048376              -0.000517325               0.999999988              -0.000113458              -0.000483323               0.999999988               0.000543180              -0.000976150               0.999999988               0.000424058              -0.000867920               0.999999988               0.000384109              -0.000827551               0.999999988               0.000369519              -0.000818066               0.999999988               0.000362340              -0.000821537               0.999999988               0.000354663              -0.000829242               0.999999988               0.000342154              -0.000836093               0.999999988               0.000322555              -0.000839220               0.999999988               0.000295388              -0.000837490               0.999999988               0.000260529              -0.000830377               0.999999988               0.000218116              -0.000818061               0.999999988               0.000168639              -0.000801066               0.999999988               0.000112794              -0.000780072               0.999999988               0.000051916              -0.000755953               0.999999988              -0.000012748              -0.000730162               0.999999988              -0.000079619              -0.000704365               0.999999988              -0.000147091              -0.000679784               0.999999988               0.000474673              -0.001055832               0.999999988               0.000357443              -0.000971281               0.999999988               0.000315452              -0.000934050               0.999999988               0.000299867              -0.000922740               0.999999988               0.000292878              -0.000924965               0.999999988               0.000286586              -0.000933212               0.999999988               0.000276933              -0.000942775               0.999999988               0.000261406              -0.000950674               0.999999988               0.000239300              -0.000955358               0.999999988               0.000210022              -0.000956328               0.999999988               0.000173558              -0.000953304               0.999999988               0.000129910              -0.000946482               0.999999988               0.000079428              -0.000936280               0.999999988               0.000022791              -0.000923213               0.999999988              -0.000039324              -0.000907931               0.999999988              -0.000105690              -0.000891741               0.999999988              -0.000174361              -0.000875849               0.999999988               0.000402032              -0.001125715               0.999999988               0.000293282              -0.001068156               0.999999988               0.000251134              -0.001038458               0.999999988               0.000234324              -0.001028492               0.999999988               0.000226994              -0.001030878               0.999999988               0.000221453              -0.001040090               0.999999988               0.000213698              -0.001052274               0.999999988               0.000201688              -0.001064666               0.999999988               0.000184201              -0.001075485               0.999999988               0.000160517              -0.001083759               0.999999988               0.000130076              -0.001089287               0.999999988               0.000092606              -0.001092003               0.999999988               0.000048385              -0.001091872               0.999999988              -0.000002660              -0.001089233               0.999999988              -0.000060413              -0.001084411               0.999999988              -0.000124453              -0.001078104               0.999999988              -0.000193426              -0.001071215               0.999999988               0.000325998              -0.001184578               0.999999988               0.000231589              -0.001154333               0.999999988               0.000191995              -0.001135407               0.999999988               0.000174876              -0.001129489               0.999999988               0.000167110              -0.001133799               0.999999988               0.000161904              -0.001144836               0.999999988               0.000155589              -0.001159678               0.999999988               0.000146400              -0.001176090               0.999999988               0.000133086              -0.001192514               0.999999988               0.000114616              -0.001207785               0.999999988               0.000090264              -0.001221314               0.999999988               0.000059682              -0.001232873               0.999999988               0.000022613              -0.001242322               0.999999988              -0.000021497              -0.001249674               0.999999988              -0.000073080              -0.001255057               0.999999988              -0.000132249              -0.001258757               0.999999988              -0.000199018              -0.001261324               0.999999988               0.000247087              -0.001231697               0.999999988               0.000171935              -0.001226124               0.999999988               0.000138191              -0.001219089               0.999999988               0.000122494              -0.001218985               0.999999988               0.000114876              -0.001226390               0.999999988               0.000110159              -0.001239974               0.999999988               0.000105132              -0.001257647               0.999999988               0.000098372              -0.001277799               0.999999988               0.000088578              -0.001299154               0.999999988               0.000075024              -0.001320612               0.999999988               0.000056933              -0.001341443               0.999999988               0.000033665              -0.001361113               0.999999988               0.000004586              -0.001379546               0.999999988              -0.000030816              -0.001396445               0.999999988              -0.000073495              -0.001411549               0.999999988              -0.000124490              -0.001424974               0.999999988              -0.000184870              -0.001436967               0.999999988               0.000165992              -0.001266066               0.999999988               0.000113822              -0.001280157               0.999999988               0.000089126              -0.001283925               0.999999988               0.000076961              -0.001289868               0.999999988               0.000070662              -0.001300878               0.999999988               0.000066911              -0.001317157               0.999999988               0.000063352              -0.001337609               0.999999988               0.000058785              -0.001360980               0.999999988               0.000052229              -0.001386316               0.999999988               0.000043322              -0.001412769               0.999999988               0.000031394              -0.001439531               0.999999988               0.000015562              -0.001466233               0.999999988              -0.000004557              -0.001492471               0.999999988              -0.000029539              -0.001517838               0.999999988              -0.000060396              -0.001542073               0.999999988              -0.000098625              -0.001564760               0.999999988              -0.000146018              -0.001585517               0.999999988               0.000083398              -0.001287051               0.999999988               0.000056661              -0.001313774               0.999999988               0.000043603              -0.001325073               0.999999988               0.000036932              -0.001335486               0.999999988               0.000033372              -0.001349395               0.999999988               0.000031297              -0.001367834               0.999999988               0.000029373              -0.001390393               0.999999988               0.000026989              -0.001416224               0.999999988               0.000023616              -0.001444285               0.999999988               0.000019190              -0.001473959               0.999999988               0.000013215              -0.001504717               0.999999988               0.000005205              -0.001536161               0.999999988              -0.000005013              -0.001567801               0.999999988              -0.000018056              -0.001599161               0.999999988              -0.000034494              -0.001629845               0.999999988              -0.000055009              -0.001659229               0.999999988              -0.000081246              -0.001686522               0.999999988               0.000000000              -0.001294207               0.999999988              -0.000000000              -0.001325240               0.999999988              -0.000000000              -0.001339183               0.999999988               0.000000000              -0.001351307               0.999999988               0.000000000              -0.001366327               0.999999988              -0.000000000              -0.001385576               0.999999988              -0.000000000              -0.001408942               0.999999988               0.000000000              -0.001435692               0.999999988               0.000000000              -0.001464708               0.999999988              -0.000000000              -0.001495537               0.999999988              -0.000000000              -0.001527679               0.999999988               0.000000000              -0.001560664               0.999999988              -0.000000000              -0.001594222               0.999999988               0.000000000              -0.001627769               0.999999988               0.000000000              -0.001660704               0.999999988              -0.000000000              -0.001692450               0.999999988              -0.000000000              -0.001722175               0.999999988               0.000888480              -0.000000000               0.999999988               0.000934731               0.000000000               0.999999988               0.000953530              -0.000000000               0.999999988               0.000963423              -0.000000000               0.999999988               0.000971087               0.000000000               0.999999988               0.000978938              -0.000000000               0.999999988               0.000987732              -0.000000000               0.999999988               0.000997417              -0.000000000               0.999999988               0.001007812              -0.000000000               0.999999988               0.001018575              -0.000000000               0.999999988               0.001029494               0.000000000               0.999999988               0.001040159               0.000000000               0.999999988               0.001050120              -0.000000000               0.999999988               0.001058893              -0.000000000               0.999999988               0.001066030              -0.000000000               0.999999988               0.001070917              -0.000000000               0.999999988               0.001072676               0.000000000               0.999999988               0.000883626               0.000121961               0.999999988               0.000925789               0.000096035               0.999999988               0.000941958               0.000083862               0.999999988               0.000950146               0.000078503               0.999999988               0.000956624               0.000076532               0.999999988               0.000963491               0.000076077               0.999999988               0.000971249               0.000076031               0.999999988               0.000979898               0.000075710               0.999999988               0.000989223               0.000074831               0.999999988               0.000998812               0.000073100               0.999999988               0.001008335               0.000069919               0.999999988               0.001017322               0.000064972               0.999999988               0.001025283               0.000057947               0.999999988               0.001031802               0.000048639               0.999999988               0.001036460               0.000036433               0.999999988               0.001038751               0.000020412               0.999999988               0.001038121              -0.000000992               0.999999988               0.000869043               0.000242864               0.999999988               0.000899347               0.000191822               0.999999988               0.000908185               0.000168758               0.999999988               0.000911663               0.000159154               0.999999988               0.000914842               0.000155928               0.999999988               0.000919063               0.000155439               0.999999988               0.000924343               0.000155656               0.999999988               0.000930438               0.000155324               0.999999988               0.000936830               0.000153798               0.999999988               0.000943040               0.000150275               0.999999988               0.000948523               0.000143924               0.999999988               0.000952740               0.000134239               0.999999988               0.000955333               0.000120696               0.999999988               0.000955934               0.000102916               0.999999988               0.000954221               0.000080177               0.999999988               0.000949953               0.000050980               0.999999988               0.000942988               0.000013741               0.999999988               0.000845132               0.000361709               0.999999988               0.000856873               0.000287229               0.999999988               0.000855001               0.000255530               0.999999988               0.000851983               0.000243490               0.999999988               0.000850918               0.000240274               0.999999988               0.000851765               0.000240547               0.999999988               0.000853824               0.000241427               0.999999988               0.000856318               0.000241364               0.999999988               0.000858465               0.000239154               0.999999988               0.000859450               0.000233962               0.999999988               0.000858842               0.000224595               0.999999988               0.000856225               0.000210513               0.999999988               0.000851142               0.000191294               0.999999988               0.000843435               0.000166680               0.999999988               0.000832980               0.000135942               0.999999988               0.000819857               0.000097913               0.999999988               0.000804349               0.000051805               0.999999988               0.000812392               0.000477548               0.999999988               0.000800250               0.000382292               0.999999988               0.000786250               0.000344895               0.999999988               0.000776973               0.000332334               0.999999988               0.000771920               0.000330293               0.999999988               0.000769498               0.000332035               0.999999988               0.000768188               0.000334001               0.999999988               0.000766464               0.000334205               0.999999988               0.000763424               0.000331311               0.999999988               0.000758133               0.000324193               0.999999988               0.000750129               0.000312018               0.999999988               0.000739104               0.000294171               0.999999988               0.000724929               0.000270307               0.999999988               0.000707573               0.000240299               0.999999988               0.000687153               0.000203925               0.999999988               0.000663996               0.000161023               0.999999988               0.000638782               0.000111816               0.999999988               0.000771203               0.000589385               0.999999988               0.000732208               0.000477195               0.999999988               0.000707102               0.000436987               0.999999988               0.000692949               0.000425573               0.999999988               0.000684985               0.000425483               0.999999988               0.000679923               0.000429141               0.999999988               0.000675175               0.000432302               0.999999988               0.000669052               0.000432604               0.999999988               0.000660189               0.000428607               0.999999988               0.000647639               0.000419305               0.999999988               0.000631186               0.000404375               0.999999988               0.000610761               0.000383143               0.999999988               0.000586413               0.000355463               0.999999988               0.000558358               0.000321602               0.999999988               0.000527018               0.000281895               0.999999988               0.000493211               0.000237099               0.999999988               0.000457980               0.000188445               0.999999988               0.000722300               0.000696067               0.999999988               0.000656148               0.000572110               0.999999988               0.000622536               0.000531540               0.999999988               0.000605697               0.000522238               0.999999988               0.000596425               0.000524379               0.999999988               0.000589477               0.000529894               0.999999988               0.000581585               0.000533742               0.999999988               0.000570488               0.000533705               0.999999988               0.000554753               0.000528194               0.999999988               0.000533960               0.000516611               0.999999988               0.000507938               0.000499065               0.999999988               0.000476958               0.000474936               0.999999988               0.000441329               0.000444294               0.999999988               0.000401844               0.000407900               0.999999988               0.000359342               0.000366822               0.999999988               0.000315052               0.000322559               0.999999988               0.000270216               0.000277089               0.999999988               0.000666737               0.000796416               0.999999988               0.000575583               0.000666840               0.999999988               0.000537118               0.000627755               0.999999988               0.000520446               0.000620589               0.999999988               0.000511289               0.000624734               0.999999988               0.000503010               0.000631484               0.999999988               0.000491488               0.000635528               0.999999988               0.000474415               0.000634638               0.999999988               0.000450856               0.000627381               0.999999988               0.000420745               0.000613479               0.999999988               0.000384183               0.000593279               0.999999988               0.000341648               0.000566669               0.999999988               0.000294144               0.000534085               0.999999988               0.000242883               0.000496983               0.999999988               0.000189232               0.000456894               0.999999988               0.000134723               0.000415641               0.999999988               0.000080431               0.000375010               0.999999988               0.000606167               0.000888638               0.999999988               0.000493272               0.000761245               0.999999988               0.000455393               0.000723949               0.999999988               0.000440910               0.000718497               0.999999988               0.000432652               0.000724220               0.999999988               0.000422772               0.000731602               0.999999988               0.000406665               0.000735429               0.999999988               0.000382728               0.000733228               0.999999988               0.000350322               0.000724195               0.999999988               0.000309730               0.000708232               0.999999988               0.000261498               0.000685764               0.999999988               0.000206573               0.000657553               0.999999988               0.000146420               0.000624735               0.999999988               0.000082739               0.000589179               0.999999988               0.000017350               0.000552829               0.999999988              -0.000048376               0.000517325               0.999999988              -0.000113458               0.000483323               0.999999988               0.000543180               0.000976150               0.999999988               0.000424058               0.000867920               0.999999988               0.000384109               0.000827551               0.999999988               0.000369519               0.000818066               0.999999988               0.000362340               0.000821537               0.999999988               0.000354663               0.000829242               0.999999988               0.000342154               0.000836093               0.999999988               0.000322555               0.000839220               0.999999988               0.000295388               0.000837490               0.999999988               0.000260529               0.000830377               0.999999988               0.000218116               0.000818061               0.999999988               0.000168639               0.000801066               0.999999988               0.000112794               0.000780072               0.999999988               0.000051916               0.000755953               0.999999988              -0.000012748               0.000730162               0.999999988              -0.000079619               0.000704365               0.999999988              -0.000147091               0.000679784               0.999999988               0.000474673               0.001055832               0.999999988               0.000357443               0.000971281               0.999999988               0.000315452               0.000934050               0.999999988               0.000299867               0.000922740               0.999999988               0.000292878               0.000924965               0.999999988               0.000286586               0.000933212               0.999999988               0.000276933               0.000942775               0.999999988               0.000261406               0.000950674               0.999999988               0.000239300               0.000955358               0.999999988               0.000210022               0.000956328               0.999999988               0.000173558               0.000953304               0.999999988               0.000129910               0.000946482               0.999999988               0.000079428               0.000936280               0.999999988               0.000022791               0.000923213               0.999999988              -0.000039324               0.000907931               0.999999988              -0.000105690               0.000891741               0.999999988              -0.000174361               0.000875849               0.999999988               0.000402032               0.001125715               0.999999988               0.000293282               0.001068156               0.999999988               0.000251134               0.001038458               0.999999988               0.000234324               0.001028492               0.999999988               0.000226994               0.001030878               0.999999988               0.000221453               0.001040090               0.999999988               0.000213698               0.001052274               0.999999988               0.000201688               0.001064666               0.999999988               0.000184201               0.001075485               0.999999988               0.000160517               0.001083759               0.999999988               0.000130076               0.001089287               0.999999988               0.000092606               0.001092003               0.999999988               0.000048385               0.001091872               0.999999988              -0.000002660               0.001089233               0.999999988              -0.000060413               0.001084411               0.999999988              -0.000124453               0.001078104               0.999999988              -0.000193426               0.001071215               0.999999988               0.000325998               0.001184578               0.999999988               0.000231589               0.001154333               0.999999988               0.000191995               0.001135407               0.999999988               0.000174876               0.001129489               0.999999988               0.000167110               0.001133799               0.999999988               0.000161904               0.001144836               0.999999988               0.000155589               0.001159678               0.999999988               0.000146400               0.001176090               0.999999988               0.000133086               0.001192514               0.999999988               0.000114616               0.001207785               0.999999988               0.000090264               0.001221314               0.999999988               0.000059682               0.001232873               0.999999988               0.000022613               0.001242322               0.999999988              -0.000021497               0.001249674               0.999999988              -0.000073080               0.001255057               0.999999988              -0.000132249               0.001258757               0.999999988              -0.000199018               0.001261324               0.999999988               0.000247087               0.001231697               0.999999988               0.000171935               0.001226124               0.999999988               0.000138191               0.001219089               0.999999988               0.000122494               0.001218985               0.999999988               0.000114876               0.001226390               0.999999988               0.000110159               0.001239974               0.999999988               0.000105132               0.001257647               0.999999988               0.000098372               0.001277799               0.999999988               0.000088578               0.001299154               0.999999988               0.000075024               0.001320612               0.999999988               0.000056933               0.001341443               0.999999988               0.000033665               0.001361113               0.999999988               0.000004586               0.001379546               0.999999988              -0.000030816               0.001396445               0.999999988              -0.000073495               0.001411549               0.999999988              -0.000124490               0.001424974               0.999999988              -0.000184870               0.001436967               0.999999988               0.000165992               0.001266066               0.999999988               0.000113822               0.001280157               0.999999988               0.000089126               0.001283925               0.999999988               0.000076961               0.001289868               0.999999988               0.000070662               0.001300878               0.999999988               0.000066911               0.001317157               0.999999988               0.000063352               0.001337609               0.999999988               0.000058785               0.001360980               0.999999988               0.000052229               0.001386316               0.999999988               0.000043322               0.001412769               0.999999988               0.000031394               0.001439531               0.999999988               0.000015562               0.001466233               0.999999988              -0.000004557               0.001492471               0.999999988              -0.000029539               0.001517838               0.999999988              -0.000060396               0.001542073               0.999999988              -0.000098625               0.001564760               0.999999988              -0.000146018               0.001585517               0.999999988               0.000083398               0.001287051               0.999999988               0.000056661               0.001313774               0.999999988               0.000043603               0.001325073               0.999999988               0.000036932               0.001335486               0.999999988               0.000033372               0.001349395               0.999999988               0.000031297               0.001367834               0.999999988               0.000029373               0.001390393               0.999999988               0.000026989               0.001416224               0.999999988               0.000023616               0.001444285               0.999999988               0.000019190               0.001473959               0.999999988               0.000013215               0.001504717               0.999999988               0.000005205               0.001536161               0.999999988              -0.000005013               0.001567801               0.999999988              -0.000018056               0.001599161               0.999999988              -0.000034494               0.001629845               0.999999988              -0.000055009               0.001659229               0.999999988              -0.000081246               0.001686522               0.999999988               0.000000000               0.001294207               0.999999988              -0.000000000               0.001325240               0.999999988               0.000000000               0.001339183               0.999999988               0.000000000               0.001351307               0.999999988               0.000000000               0.001366327               0.999999988              -0.000000000               0.001385576               0.999999988               0.000000000               0.001408942               0.999999988               0.000000000               0.001435692               0.999999988               0.000000000               0.001464708               0.999999988              -0.000000000               0.001495537               0.999999988              -0.000000000               0.001527679               0.999999988              -0.000000000               0.001560664               0.999999988              -0.000000000               0.001594222               0.999999988               0.000000000               0.001627769               0.999999988               0.000000000               0.001660704               0.999999988               0.000000000               0.001692450               0.999999988              -0.000000000               0.001722175               0.999999988 </DataArray>
<DataArray type="Float64"                                    Name="stress"                                                      NumberOfComponents="10" format="ascii">
              0.002107821               0.022097274               0.000000000              -0.001971722               0.008022925               0.006051203               0.000000000               0.000000000               0.000000000               0.000000000               0.002017875               0.016876030               0.000000000              -0.001352797               0.006076219               0.004723422               0.000000000               0.000000000               0.000000000               0.000000000               0.002584707               0.012629666              -0.000000000              -0.000609442               0.004412994               0.003803552               0.000000000               0.000000000               0.000000000               0.000000000               0.002382307               0.010231408              -0.000000000              -0.000385560               0.003538955               0.003153395               0.000000000               0.000000000               0.000000000               0.000000000               0.001976832               0.008711983              -0.000000000              -0.000347685               0.003019860               0.002672175               0.000000000               0.000000000               0.000000000               0.000000000               0.001552118               0.007638625              -0.000000000              -0.000372783               0.002670444               0.002297661               0.000000000               0.000000000               0.000000000               0.000000000               0.001170291               0.006801678              -0.000000000              -0.000411350               0.002404320               0.001992970               0.000000000               0.000000000               0.000000000               0.000000000               0.000844247               0.006093530              -0.000000000              -0.000445098               0.002179522               0.001734425               0.000000000               0.000000000               0.000000000               0.000000000               0.000576327               0.005463254               0.000000000              -0.000466783               0.001976661               0.001509878               0.000000000               0.000000000               0.000000000               0.000000000               0.000356315               0.004871763               0.000000000              -0.000475351               0.001782355               0.001307004               0.000000000               0.000000000               0.000000000               0.000000000               0.000175596               0.004281050              -0.000000000              -0.000469282               0.001583429               0.001114148               0.000000000               0.000000000               0.000000000               0.000000000               0.000041112               0.003675430               0.000000000              -0.000444011               0.001373135               0.000929124               0.000000000               0.000000000               0.000000000               0.000000000              -0.000048963               0.003044264               0.000000000              -0.000398893               0.001147709               0.000748816               0.000000000               0.000000000               0.000000000               0.000000000              -0.000098794               0.002378592               0.000000000              -0.000334371               0.000904313               0.000569942               0.000000000               0.000000000               0.000000000               0.000000000              -0.000107934               0.001658193               0.000000000              -0.000247749               0.000635308               0.000387560               0.000000000               0.000000000               0.000000000               0.000000000              -0.000066835               0.000853204               0.000000000              -0.000131714               0.000328303               0.000196589               0.000000000               0.000000000               0.000000000               0.000000000              -0.000099964               0.000232994               0.000000000              -0.000066611               0.000099867               0.000033256               0.000000000               0.000000000               0.000000000               0.000000000               0.002165968               0.021619435              -0.001452655              -0.001890187               0.007836469               0.005946281               0.000000000               0.000000000               0.000000000               0.000000000               0.001951850               0.016576642              -0.000633522              -0.001340133               0.005972203               0.004632070               0.000000000               0.000000000               0.000000000               0.000000000               0.002387170               0.012518035               0.000173287              -0.000669564               0.004395825               0.003726261               0.000000000               0.000000000               0.000000000               0.000000000               0.002136153               0.010217403               0.000503727              -0.000476117               0.003564472               0.003088356               0.000000000               0.000000000               0.000000000               0.000000000               0.001721793               0.008743736               0.000628701              -0.000447294               0.003063647               0.002616354               0.000000000               0.000000000               0.000000000               0.000000000               0.001311474               0.007691681               0.000661981              -0.000469657               0.002720420               0.002250763               0.000000000               0.000000000               0.000000000               0.000000000               0.000951129               0.006866054               0.000654269              -0.000501582               0.002455856               0.001954274               0.000000000               0.000000000               0.000000000               0.000000000               0.000646536               0.006165605               0.000630451              -0.000528249               0.002231264               0.001703015               0.000000000               0.000000000               0.000000000               0.000000000               0.000400621               0.005538798               0.000601564              -0.000542116               0.002026953               0.001484837               0.000000000               0.000000000               0.000000000               0.000000000               0.000204755               0.004945161               0.000564055              -0.000541361               0.001828824               0.001287463               0.000000000               0.000000000               0.000000000               0.000000000               0.000053150               0.004356243               0.000520781              -0.000524598               0.001626932               0.001102334               0.000000000               0.000000000               0.000000000               0.000000000              -0.000051474               0.003759378               0.000476447              -0.000489224               0.001416188               0.000926964               0.000000000               0.000000000               0.000000000               0.000000000              -0.000114476               0.003144165               0.000430873              -0.000435948               0.001193360               0.000757412               0.000000000               0.000000000               0.000000000               0.000000000              -0.000140256               0.002503314               0.000376488              -0.000365510               0.000956266               0.000590756               0.000000000               0.000000000               0.000000000               0.000000000              -0.000128348               0.001824504               0.000297001              -0.000276193               0.000700226               0.000424033               0.000000000               0.000000000               0.000000000               0.000000000              -0.000077144               0.001085398               0.000172586              -0.000164603               0.000416663               0.000252060               0.000000000               0.000000000               0.000000000               0.000000000              -0.000100693               0.000532876               0.000107574              -0.000104369               0.000212413               0.000108044               0.000000000               0.000000000               0.000000000               0.000000000               0.002295409               0.020255297              -0.002681124              -0.001671131               0.007308742               0.005637611               0.000000000               0.000000000               0.000000000               0.000000000               0.001741486               0.015727150              -0.001163695              -0.001312834               0.005679942               0.004367108               0.000000000               0.000000000               0.000000000               0.000000000               0.001819224               0.012199416               0.000319119              -0.000842716               0.004347337               0.003504621               0.000000000               0.000000000               0.000000000               0.000000000               0.001447706               0.010166936               0.000903764              -0.000727976               0.003631603               0.002903628               0.000000000               0.000000000               0.000000000               0.000000000               0.001020785               0.008822822               0.001111165              -0.000720057               0.003180930               0.002460873               0.000000000               0.000000000               0.000000000               0.000000000               0.000650197               0.007830748               0.001156973              -0.000735018               0.002855229               0.002120211               0.000000000               0.000000000               0.000000000               0.000000000               0.000350462               0.007032177               0.001133156              -0.000747597               0.002593234               0.001845637               0.000000000               0.000000000               0.000000000               0.000000000               0.000117478               0.006347783               0.001083626              -0.000749417               0.002365712               0.001616295               0.000000000               0.000000000               0.000000000               0.000000000              -0.000054113               0.005726203               0.001025184              -0.000736066               0.002154070               0.001418004               0.000000000               0.000000000               0.000000000               0.000000000              -0.000175317               0.005135158               0.000955337              -0.000707637               0.001947581               0.001239944               0.000000000               0.000000000               0.000000000               0.000000000              -0.000249856               0.004556000               0.000877432              -0.000663195               0.001739716               0.001076521               0.000000000               0.000000000               0.000000000               0.000000000              -0.000282361               0.003981549               0.000795584              -0.000603578               0.001528362               0.000924784               0.000000000               0.000000000               0.000000000               0.000000000              -0.000280763               0.003408354               0.000709216              -0.000531329               0.001313216               0.000781887               0.000000000               0.000000000               0.000000000               0.000000000              -0.000247106               0.002836002               0.000608590              -0.000447164               0.001094379               0.000647215               0.000000000               0.000000000               0.000000000               0.000000000              -0.000185428               0.002261978               0.000467309              -0.000352282               0.000871413               0.000519130               0.000000000               0.000000000               0.000000000               0.000000000              -0.000101527               0.001685650               0.000263715              -0.000248778               0.000644804               0.000396025               0.000000000               0.000000000               0.000000000               0.000000000              -0.000095916               0.001289017               0.000160576              -0.000197095               0.000495366               0.000298271               0.000000000               0.000000000               0.000000000               0.000000000               0.002385076               0.018192094              -0.003519984              -0.001379607               0.006523839               0.005144232               0.000000000               0.000000000               0.000000000               0.000000000               0.001359347               0.014459818              -0.001517915              -0.001297720               0.005252464               0.003954745               0.000000000               0.000000000               0.000000000               0.000000000               0.000944470               0.011726660               0.000407076              -0.001111653               0.004279399               0.003167745               0.000000000               0.000000000               0.000000000               0.000000000               0.000438973               0.010066838               0.001115001              -0.001093738               0.003720158               0.002626421               0.000000000               0.000000000               0.000000000               0.000000000               0.000028444               0.008898692               0.001342049              -0.001101668               0.003333423               0.002231755               0.000000000               0.000000000               0.000000000               0.000000000              -0.000260565               0.007991175               0.001374594              -0.001096607               0.003029234               0.001932627               0.000000000               0.000000000               0.000000000               0.000000000              -0.000450457               0.007232485               0.001330791              -0.001072980               0.002768464               0.001695484               0.000000000               0.000000000               0.000000000               0.000000000              -0.000566278               0.006563261               0.001261352              -0.001032760               0.002531985               0.001499225               0.000000000               0.000000000               0.000000000               0.000000000              -0.000617714               0.005947681               0.001182293              -0.000975101               0.002307574               0.001332473               0.000000000               0.000000000               0.000000000               0.000000000              -0.000624368               0.005363666               0.001091981              -0.000904594               0.002089402               0.001184808               0.000000000               0.000000000               0.000000000               0.000000000              -0.000600675               0.004803162               0.000990424              -0.000825647               0.001876253               0.001050607               0.000000000               0.000000000               0.000000000               0.000000000              -0.000542743               0.004266052               0.000884103              -0.000736784               0.001667597               0.000930814               0.000000000               0.000000000               0.000000000               0.000000000              -0.000457997               0.003752575               0.000772852              -0.000640820               0.001464452               0.000823633               0.000000000               0.000000000               0.000000000               0.000000000              -0.000355028               0.003264798               0.000645588              -0.000541234               0.001268667               0.000727432               0.000000000               0.000000000               0.000000000               0.000000000              -0.000239190               0.002812214               0.000478269              -0.000441222               0.001084469               0.000643247               0.000000000               0.000000000               0.000000000               0.000000000              -0.000120349               0.002416520               0.000259710              -0.000347195               0.000921230               0.000574035               0.000000000               0.000000000               0.000000000               0.000000000              -0.000085836               0.002179363               0.000151092              -0.000304608               0.000827983               0.000523375               0.000000000               0.000000000               0.000000000               0.000000000               0.002294863               0.015678452              -0.003880875              -0.001099233               0.005592509               0.004493276               0.000000000               0.000000000               0.000000000               0.000000000               0.000781950               0.012946441              -0.001675723              -0.001325071               0.004757128               0.003432056               0.000000000               0.000000000               0.000000000               0.000000000              -0.000146550               0.011154847               0.000397298              -0.001449308               0.004201348               0.002752039               0.000000000               0.000000000               0.000000000               0.000000000              -0.000728130               0.009901603               0.001094979              -0.001510746               0.003804083               0.002293337               0.000000000               0.000000000               0.000000000               0.000000000              -0.001053681               0.008917111               0.001295091              -0.001509766               0.003475596               0.001965830               0.000000000               0.000000000               0.000000000               0.000000000              -0.001209033               0.008099397               0.001305196              -0.001465809               0.003188375               0.001722566               0.000000000               0.000000000               0.000000000               0.000000000              -0.001247206               0.007384940               0.001246457              -0.001390817               0.002925227               0.001534411               0.000000000               0.000000000               0.000000000               0.000000000              -0.001210748               0.006731661               0.001167208              -0.001295485               0.002675693               0.001380208               0.000000000               0.000000000               0.000000000               0.000000000              -0.001123272               0.006120190               0.001081085              -0.001186248               0.002435459               0.001249211               0.000000000               0.000000000               0.000000000               0.000000000              -0.001004192               0.005543140               0.000988992              -0.001069462               0.002204182               0.001134720               0.000000000               0.000000000               0.000000000               0.000000000              -0.000869642               0.005009467               0.000886471              -0.000952297               0.001987238               0.001034941               0.000000000               0.000000000               0.000000000               0.000000000              -0.000722111               0.004516407               0.000774870              -0.000835340               0.001783901               0.000948560               0.000000000               0.000000000               0.000000000               0.000000000              -0.000565798               0.004064469               0.000656961              -0.000720231               0.001594887               0.000874655               0.000000000               0.000000000               0.000000000               0.000000000              -0.000406061               0.003660326               0.000527391              -0.000609812               0.001423367               0.000813555               0.000000000               0.000000000               0.000000000               0.000000000              -0.000250996               0.003320425               0.000374911              -0.000509176               0.001276523               0.000767347               0.000000000               0.000000000               0.000000000               0.000000000              -0.000114780               0.003070767               0.000197235              -0.000426887               0.001165874               0.000738987               0.000000000               0.000000000               0.000000000               0.000000000              -0.000065132               0.002951077               0.000110227              -0.000393308               0.001114785               0.000721477               0.000000000               0.000000000               0.000000000               0.000000000               0.001887374               0.012963519              -0.003778866              -0.000912676               0.004625354               0.003712679               0.000000000               0.000000000               0.000000000               0.000000000               0.000005324               0.011350866              -0.001679884              -0.001416859               0.004255870               0.002839011               0.000000000               0.000000000               0.000000000               0.000000000              -0.001324147               0.010529734               0.000258196              -0.001812767               0.004114132               0.002301364               0.000000000               0.000000000               0.000000000               0.000000000              -0.001873249               0.009657691               0.000855455              -0.001909675               0.003855756               0.001946081               0.000000000               0.000000000               0.000000000               0.000000000              -0.002039182               0.008840510               0.001009060              -0.001869752               0.003570058               0.001700306               0.000000000               0.000000000               0.000000000               0.000000000              -0.002010223               0.008103041               0.001004441              -0.001766710               0.003289890               0.001523180               0.000000000               0.000000000               0.000000000               0.000000000              -0.001876240               0.007418343               0.000945581              -0.001630879               0.003016382               0.001385504               0.000000000               0.000000000               0.000000000               0.000000000              -0.001682792               0.006777654               0.000874391              -0.001478250               0.002751945               0.001273695               0.000000000               0.000000000               0.000000000               0.000000000              -0.001455996               0.006174753               0.000802976              -0.001317839               0.002497510               0.001179671               0.000000000               0.000000000               0.000000000               0.000000000              -0.001219329               0.005618734               0.000732249              -0.001159587               0.002259421               0.001099834               0.000000000               0.000000000               0.000000000               0.000000000              -0.000990807               0.005119099               0.000651088              -0.001011437               0.002043495               0.001032057               0.000000000               0.000000000               0.000000000               0.000000000              -0.000770659               0.004672743               0.000554308              -0.000873088               0.001848595               0.000975507               0.000000000               0.000000000               0.000000000               0.000000000              -0.000562187               0.004282608               0.000452563              -0.000746144               0.001676237               0.000930092               0.000000000               0.000000000               0.000000000               0.000000000              -0.000368278               0.003960102               0.000345166              -0.000633115               0.001531059               0.000897944               0.000000000               0.000000000               0.000000000               0.000000000              -0.000202944               0.003719069               0.000230529              -0.000540986               0.001420006               0.000879020               0.000000000               0.000000000               0.000000000               0.000000000              -0.000083707               0.003575409               0.000115349              -0.000478315               0.001351229               0.000872914               0.000000000               0.000000000               0.000000000               0.000000000              -0.000037385               0.003532593               0.000059524              -0.000455592               0.001329383               0.000873791               0.000000000               0.000000000               0.000000000               0.000000000               0.001104455               0.010278728              -0.003302345              -0.000870671               0.003716431               0.002845760               0.000000000               0.000000000               0.000000000               0.000000000              -0.000925109               0.009802937              -0.001587737              -0.001572280               0.003791706               0.002219426               0.000000000               0.000000000               0.000000000               0.000000000              -0.002455721               0.009878196              -0.000014063              -0.002155665               0.004011254               0.001855589               0.000000000               0.000000000               0.000000000               0.000000000              -0.002847586               0.009318877               0.000439022              -0.002232699               0.003850494               0.001617795               0.000000000               0.000000000               0.000000000               0.000000000              -0.002794136               0.008638154               0.000555488              -0.002127565               0.003588544               0.001460979               0.000000000               0.000000000               0.000000000               0.000000000              -0.002560271               0.007958822               0.000557899              -0.001954949               0.003304564               0.001349615               0.000000000               0.000000000               0.000000000               0.000000000              -0.002248921               0.007299124               0.000525231              -0.001755732               0.003018261               0.001262529               0.000000000               0.000000000               0.000000000               0.000000000              -0.001904540               0.006678487               0.000489741              -0.001549009               0.002742476               0.001193467               0.000000000               0.000000000               0.000000000               0.000000000              -0.001561944               0.006099515               0.000452669              -0.001348165               0.002482540               0.001134375               0.000000000               0.000000000               0.000000000               0.000000000              -0.001234125               0.005578571               0.000418445              -0.001160116               0.002246210               0.001086095               0.000000000               0.000000000               0.000000000               0.000000000              -0.000932248               0.005120703               0.000373096              -0.000989678               0.002036777               0.001047098               0.000000000               0.000000000               0.000000000               0.000000000              -0.000663088               0.004727531               0.000306371              -0.000839597               0.001855694               0.001016096               0.000000000               0.000000000               0.000000000               0.000000000              -0.000431295               0.004405755               0.000232867              -0.000712453               0.001706055               0.000993601               0.000000000               0.000000000               0.000000000               0.000000000              -0.000240791               0.004167703               0.000158806              -0.000611258               0.001592973               0.000981715               0.000000000               0.000000000               0.000000000               0.000000000              -0.000101325               0.004020950               0.000088301              -0.000540614               0.001520508               0.000979894               0.000000000               0.000000000               0.000000000               0.000000000              -0.000025987               0.003965044               0.000034569              -0.000505374               0.001490126               0.000984752               0.000000000               0.000000000               0.000000000               0.000000000               0.000002724               0.003974152               0.000009617              -0.000495746               0.001489953               0.000994206               0.000000000               0.000000000               0.000000000               0.000000000              -0.000009174               0.007807625              -0.002560739              -0.000979393               0.002928979               0.001949586               0.000000000               0.000000000               0.000000000               0.000000000              -0.001948391               0.008390426              -0.001449840              -0.001779446               0.003389929               0.001610483               0.000000000               0.000000000               0.000000000               0.000000000              -0.003426306               0.009188518              -0.000408689              -0.002433424               0.003873950               0.001440526               0.000000000               0.000000000               0.000000000               0.000000000              -0.003553298               0.008871247              -0.000088790              -0.002441387               0.003770848               0.001329462               0.000000000               0.000000000               0.000000000               0.000000000              -0.003256729               0.008305564               0.000025608              -0.002259463               0.003521648               0.001262185               0.000000000               0.000000000               0.000000000               0.000000000              -0.002822953               0.007679744               0.000068855              -0.002018570               0.003232746               0.001214175               0.000000000               0.000000000               0.000000000               0.000000000              -0.002350884               0.007057878               0.000089659              -0.001763812               0.002940540               0.001176728               0.000000000               0.000000000               0.000000000               0.000000000              -0.001885187               0.006468194               0.000104436              -0.001515466               0.002661198               0.001145733               0.000000000               0.000000000               0.000000000               0.000000000              -0.001453967               0.005931436               0.000109790              -0.001286664               0.002406014               0.001119350               0.000000000               0.000000000               0.000000000               0.000000000              -0.001063853               0.005459662               0.000114459              -0.001081400               0.002180336               0.001098936               0.000000000               0.000000000               0.000000000               0.000000000              -0.000714615               0.005054778               0.000109272              -0.000899826               0.001984851               0.001085025               0.000000000               0.000000000               0.000000000               0.000000000              -0.000422190               0.004729031               0.000081733              -0.000749448               0.001826144               0.001076696               0.000000000               0.000000000               0.000000000               0.000000000              -0.000196387               0.004494634               0.000046127              -0.000635473               0.001710021               0.001074548               0.000000000               0.000000000               0.000000000               0.000000000              -0.000040647               0.004357634               0.000014054              -0.000559945               0.001639179               0.001079233               0.000000000               0.000000000               0.000000000               0.000000000               0.000039626               0.004312854              -0.000010311              -0.000524246               0.001612352               0.001088106               0.000000000               0.000000000               0.000000000               0.000000000               0.000046599               0.004340284              -0.000015472              -0.000525059               0.001621767               0.001096707               0.000000000               0.000000000               0.000000000               0.000000000               0.000039868               0.004386652              -0.000017308              -0.000533380               0.001639996               0.001106616               0.000000000               0.000000000               0.000000000               0.000000000              -0.001316730               0.005725348              -0.001675565              -0.001209440               0.002311577               0.001102137               0.000000000               0.000000000               0.000000000               0.000000000              -0.002949903               0.007118035              -0.001310785              -0.001995963               0.003037975               0.001042012               0.000000000               0.000000000               0.000000000               0.000000000              -0.004194499               0.008471339              -0.000886196              -0.002631848               0.003701034               0.001069186               0.000000000               0.000000000               0.000000000               0.000000000              -0.004042568               0.008411168              -0.000647909              -0.002567352               0.003659479               0.001092126               0.000000000               0.000000000               0.000000000               0.000000000              -0.003542259               0.007985844              -0.000504135              -0.002326572               0.003437445               0.001110873               0.000000000               0.000000000               0.000000000               0.000000000              -0.002948492               0.007444756              -0.000400982              -0.002036274               0.003160318               0.001124045               0.000000000               0.000000000               0.000000000               0.000000000              -0.002351385               0.006880274              -0.000320763              -0.001741799               0.002874001               0.001132202               0.000000000               0.000000000               0.000000000               0.000000000              -0.001798132               0.006337571              -0.000254487              -0.001466492               0.002601333               0.001134841               0.000000000               0.000000000               0.000000000               0.000000000              -0.001295897               0.005851488              -0.000202804              -0.001217394               0.002356275               0.001138880               0.000000000               0.000000000               0.000000000               0.000000000              -0.000854483               0.005428404              -0.000159323              -0.000998979               0.002142443               0.001143464               0.000000000               0.000000000               0.000000000               0.000000000              -0.000475964               0.005075625              -0.000122913              -0.000812938               0.001962837               0.001149900               0.000000000               0.000000000               0.000000000               0.000000000              -0.000171738               0.004807477              -0.000099851              -0.000665335               0.001824255               0.001158920               0.000000000               0.000000000               0.000000000               0.000000000               0.000045425               0.004637456              -0.000084248              -0.000562646               0.001733352               0.001170706               0.000000000               0.000000000               0.000000000               0.000000000               0.000173641               0.004568511              -0.000067227              -0.000505947               0.001691471               0.001185524               0.000000000               0.000000000               0.000000000               0.000000000               0.000218288               0.004594881              -0.000045381              -0.000492501               0.001695779               0.001203278               0.000000000               0.000000000               0.000000000               0.000000000               0.000193924               0.004686954              -0.000021226              -0.000513146               0.001733351               0.001220205               0.000000000               0.000000000               0.000000000               0.000000000               0.000157142               0.004748882              -0.000008842              -0.000534681               0.001761172               0.001226491               0.000000000               0.000000000               0.000000000               0.000000000              -0.002808181               0.003789670              -0.000757829              -0.001526773               0.001772135               0.000245362               0.000000000               0.000000000               0.000000000               0.000000000              -0.003786396               0.005626382              -0.001164383              -0.002123191               0.002583172               0.000459981               0.000000000               0.000000000               0.000000000               0.000000000              -0.004666541               0.007380539              -0.001382449              -0.002672514               0.003350993               0.000678479               0.000000000               0.000000000               0.000000000               0.000000000              -0.004364673               0.007702998              -0.001229362              -0.002599621               0.003434180               0.000834559               0.000000000               0.000000000               0.000000000               0.000000000              -0.003781765               0.007546683              -0.001053723              -0.002361492               0.003302700               0.000941208               0.000000000               0.000000000               0.000000000               0.000000000              -0.003139596               0.007206668              -0.000894955              -0.002078177               0.003094924               0.001016747               0.000000000               0.000000000               0.000000000               0.000000000              -0.002500506               0.006789956              -0.000757731              -0.001786430               0.002858773               0.001072343               0.000000000               0.000000000               0.000000000               0.000000000              -0.001907503               0.006360236              -0.000641871              -0.001510340               0.002623504               0.001113164               0.000000000               0.000000000               0.000000000               0.000000000              -0.001367250               0.005957310              -0.000546297              -0.001257379               0.002404876               0.001147497               0.000000000               0.000000000               0.000000000               0.000000000              -0.000887483               0.005599683              -0.000460864              -0.001032764               0.002210797               0.001178033               0.000000000               0.000000000               0.000000000               0.000000000              -0.000471134               0.005302447              -0.000380467              -0.000839479               0.002047291               0.001207812               0.000000000               0.000000000               0.000000000               0.000000000              -0.000128024               0.005069130              -0.000303257              -0.000681648               0.001916909               0.001235261               0.000000000               0.000000000               0.000000000               0.000000000               0.000129828               0.004899515              -0.000232378              -0.000563753               0.001821073               0.001257320               0.000000000               0.000000000               0.000000000               0.000000000               0.000298522               0.004803075              -0.000164079              -0.000488438               0.001763822               0.001275384               0.000000000               0.000000000               0.000000000               0.000000000               0.000381760               0.004796773              -0.000094447              -0.000456435               0.001751053               0.001294618               0.000000000               0.000000000               0.000000000               0.000000000               0.000394476               0.004873519              -0.000036814              -0.000461260               0.001778243               0.001316983               0.000000000               0.000000000               0.000000000               0.000000000               0.000365496               0.004918039              -0.000006505              -0.000477693               0.001798561               0.001320868               0.000000000               0.000000000               0.000000000               0.000000000              -0.004671752               0.002049178               0.000120176              -0.002008051               0.001352400              -0.000655650               0.000000000               0.000000000               0.000000000               0.000000000              -0.004721051               0.004119307              -0.000957795              -0.002285303               0.002134855              -0.000150448               0.000000000               0.000000000               0.000000000               0.000000000              -0.005053234               0.006076504              -0.001778198              -0.002654520               0.002910320               0.000255801               0.000000000               0.000000000               0.000000000               0.000000000              -0.004620345               0.006757312              -0.001777455              -0.002577287               0.003111510               0.000534223               0.000000000               0.000000000               0.000000000               0.000000000              -0.003987228               0.006911386              -0.001604742              -0.002359128               0.003090148               0.000731020               0.000000000               0.000000000               0.000000000               0.000000000              -0.003325753               0.006812393              -0.001409334              -0.002098702               0.002970342               0.000871640               0.000000000               0.000000000               0.000000000               0.000000000              -0.002679871               0.006581636              -0.001227081              -0.001827652               0.002803074               0.000975422               0.000000000               0.000000000               0.000000000               0.000000000              -0.002062166               0.006294408              -0.001072154              -0.001560110               0.002618152               0.001058042               0.000000000               0.000000000               0.000000000               0.000000000              -0.001487999               0.006001801              -0.000938023              -0.001308222               0.002436654               0.001128432               0.000000000               0.000000000               0.000000000               0.000000000              -0.000965294               0.005729662              -0.000812711              -0.001078191               0.002269265               0.001191075               0.000000000               0.000000000               0.000000000               0.000000000              -0.000502199               0.005490148              -0.000690906              -0.000874591               0.002121561               0.001246970               0.000000000               0.000000000               0.000000000               0.000000000              -0.000104306               0.005289855              -0.000569148              -0.000700345               0.001996716               0.001296371               0.000000000               0.000000000               0.000000000               0.000000000               0.000223941               0.005127832              -0.000450193              -0.000557000               0.001894927               0.001337927               0.000000000               0.000000000               0.000000000               0.000000000               0.000467112               0.005003858              -0.000328658              -0.000450314               0.001818041               0.001367726               0.000000000               0.000000000               0.000000000               0.000000000               0.000620792               0.004939051              -0.000203278              -0.000384583               0.001774528               0.001389945               0.000000000               0.000000000               0.000000000               0.000000000               0.000684393               0.004945589              -0.000090575              -0.000361550               0.001769030               0.001407480               0.000000000               0.000000000               0.000000000               0.000000000               0.000675258               0.004952911              -0.000034505              -0.000365891               0.001772918               0.001407026               0.000000000               0.000000000               0.000000000               0.000000000              -0.006779831               0.000662944               0.000872070              -0.002625302               0.001096074              -0.001529227               0.000000000               0.000000000               0.000000000               0.000000000              -0.005801576               0.002704050              -0.000682537              -0.002513593               0.001739203              -0.000774391               0.000000000               0.000000000               0.000000000               0.000000000              -0.005379859               0.004585186              -0.001972546              -0.002590590               0.002391908              -0.000198681               0.000000000               0.000000000               0.000000000               0.000000000              -0.004729246               0.005509290              -0.002162617              -0.002462123               0.002657118               0.000194995               0.000000000               0.000000000               0.000000000               0.000000000              -0.004032031               0.005941057              -0.002044189              -0.002254639               0.002731878               0.000477240               0.000000000               0.000000000               0.000000000               0.000000000              -0.003352622               0.006091472              -0.001843856              -0.002018663               0.002703357               0.000684695               0.000000000               0.000000000               0.000000000               0.000000000              -0.002709437               0.006072213              -0.001640412              -0.001775061               0.002615738               0.000840676               0.000000000               0.000000000               0.000000000               0.000000000              -0.002090948               0.005958658              -0.001462235              -0.001528934               0.002495844               0.000966910               0.000000000               0.000000000               0.000000000               0.000000000              -0.001503882               0.005801175              -0.001304643              -0.001289100               0.002363405               0.001074306               0.000000000               0.000000000               0.000000000               0.000000000              -0.000953421               0.005637077              -0.001153844              -0.001062165               0.002233062               0.001170897               0.000000000               0.000000000               0.000000000               0.000000000              -0.000446859               0.005487992              -0.001002869              -0.000853569               0.002113835               0.001260266               0.000000000               0.000000000               0.000000000               0.000000000               0.000008590               0.005350732              -0.000854913              -0.000665619               0.002005432               0.001339813               0.000000000               0.000000000               0.000000000               0.000000000               0.000405457               0.005228347              -0.000703705              -0.000501496               0.001909930               0.001408434               0.000000000               0.000000000               0.000000000               0.000000000               0.000727510               0.005122282              -0.000537331              -0.000367468               0.001829900               0.001462431               0.000000000               0.000000000               0.000000000               0.000000000               0.000962790               0.005042423              -0.000356862              -0.000269256               0.001770543               0.001501287               0.000000000               0.000000000               0.000000000               0.000000000               0.001099197               0.005003489              -0.000174805              -0.000213237               0.001738892               0.001525655               0.000000000               0.000000000               0.000000000               0.000000000               0.001129355               0.004989145              -0.000084154              -0.000200135               0.001729743               0.001529609               0.000000000               0.000000000               0.000000000               0.000000000              -0.008992034              -0.000300193               0.001374258              -0.003334486               0.001011424              -0.002323062               0.000000000               0.000000000               0.000000000               0.000000000              -0.006961494               0.001465215              -0.000394673              -0.002793709               0.001419631              -0.001374077               0.000000000               0.000000000               0.000000000               0.000000000              -0.005673430               0.003041156              -0.001941220              -0.002507676               0.001849598              -0.000658079               0.000000000               0.000000000               0.000000000               0.000000000              -0.004720403               0.004066648              -0.002295208              -0.002278478               0.002115027              -0.000163451               0.000000000               0.000000000               0.000000000               0.000000000              -0.003929214               0.004708656              -0.002256393              -0.002062033               0.002256880               0.000194847               0.000000000               0.000000000               0.000000000               0.000000000              -0.003223262               0.005085013              -0.002088582              -0.001844346               0.002309769               0.000465423               0.000000000               0.000000000               0.000000000               0.000000000              -0.002577559               0.005276295              -0.001895361              -0.001626118               0.002300786               0.000674668               0.000000000               0.000000000               0.000000000               0.000000000              -0.001968450               0.005352132              -0.001715127              -0.001407182               0.002253086               0.000845904               0.000000000               0.000000000               0.000000000               0.000000000              -0.001387505               0.005355642              -0.001549379              -0.001189767               0.002181785               0.000992018               0.000000000               0.000000000               0.000000000               0.000000000              -0.000828496               0.005321540              -0.001391643              -0.000975877               0.002099121               0.001123244               0.000000000               0.000000000               0.000000000               0.000000000              -0.000290015               0.005276659              -0.001236390              -0.000768337               0.002014981               0.001246644               0.000000000               0.000000000               0.000000000               0.000000000               0.000219126               0.005227856              -0.001081098              -0.000571309               0.001933037               0.001361728               0.000000000               0.000000000               0.000000000               0.000000000               0.000684467               0.005177249              -0.000915128              -0.000390480               0.001855892               0.001465412               0.000000000               0.000000000               0.000000000               0.000000000               0.001096714               0.005123277              -0.000725344              -0.000229142               0.001784122               0.001554981               0.000000000               0.000000000               0.000000000               0.000000000               0.001440141               0.005069894              -0.000508434              -0.000093684               0.001721176               0.001627492               0.000000000               0.000000000               0.000000000               0.000000000               0.001693727               0.005029181              -0.000264541               0.000006499               0.001674210               0.001680710               0.000000000               0.000000000               0.000000000               0.000000000               0.001807515               0.005019649              -0.000141164               0.000050361               0.001656413               0.001706774               0.000000000               0.000000000               0.000000000               0.000000000              -0.011109813              -0.000882871               0.001525808              -0.004055818               0.001057641              -0.002998177               0.000000000               0.000000000               0.000000000               0.000000000              -0.008101244               0.000468642              -0.000161397              -0.003096544               0.001188387              -0.001908157               0.000000000               0.000000000               0.000000000               0.000000000              -0.005942443               0.001602052              -0.001689302              -0.002428670               0.001343564              -0.001085105               0.000000000               0.000000000               0.000000000               0.000000000              -0.004642673               0.002599674              -0.002122259              -0.002065958               0.001555199              -0.000510759               0.000000000               0.000000000               0.000000000               0.000000000              -0.003723374               0.003368194              -0.002156374              -0.001817286               0.001728481              -0.000088805               0.000000000               0.000000000               0.000000000               0.000000000              -0.002976019               0.003925288              -0.002042431              -0.001606665               0.001843970               0.000237305               0.000000000               0.000000000               0.000000000               0.000000000              -0.002323094               0.004304805              -0.001886081              -0.001409258               0.001904673               0.000495414               0.000000000               0.000000000               0.000000000               0.000000000              -0.001725290               0.004561292              -0.001726912              -0.001217143               0.001926129               0.000708986               0.000000000               0.000000000               0.000000000               0.000000000              -0.001159844               0.004727333              -0.001575092              -0.001025856               0.001917714               0.000891857               0.000000000               0.000000000               0.000000000               0.000000000              -0.000603462               0.004832378              -0.001433776              -0.000830344               0.001887557               0.001057213               0.000000000               0.000000000               0.000000000               0.000000000              -0.000049842               0.004901667              -0.001293849              -0.000631398               0.001844339               0.001212940               0.000000000               0.000000000               0.000000000               0.000000000               0.000494645               0.004956938              -0.001149694              -0.000434125               0.001797004               0.001362879               0.000000000               0.000000000               0.000000000               0.000000000               0.001025663               0.005000034              -0.000995750              -0.000240381               0.001746788               0.001506407               0.000000000               0.000000000               0.000000000               0.000000000               0.001537029               0.005019276              -0.000817862              -0.000051024               0.001690083               0.001639059               0.000000000               0.000000000               0.000000000               0.000000000               0.002018089               0.005023448              -0.000599293               0.000128851               0.001631516               0.001760366               0.000000000               0.000000000               0.000000000               0.000000000               0.002444445               0.005020016              -0.000326667               0.000289162               0.001576934               0.001866096               0.000000000               0.000000000               0.000000000               0.000000000               0.002695910               0.005038769              -0.000187939               0.000381116               0.001552534               0.001933650               0.000000000               0.000000000               0.000000000               0.000000000              -0.012880806              -0.001176674               0.001297947              -0.004683215               0.001168839              -0.003514376               0.000000000               0.000000000               0.000000000               0.000000000              -0.009077867              -0.000250888              -0.000022071              -0.003372837               0.001040642              -0.002332194               0.000000000               0.000000000               0.000000000               0.000000000              -0.006171786               0.000426858              -0.001245453              -0.002367775               0.000931537              -0.001436237               0.000000000               0.000000000               0.000000000               0.000000000              -0.004539705               0.001323921              -0.001636288              -0.001867877               0.001063925              -0.000803952               0.000000000               0.000000000               0.000000000               0.000000000              -0.003474926               0.002148160              -0.001707633              -0.001571615               0.001239916              -0.000331699               0.000000000               0.000000000               0.000000000               0.000000000              -0.002678176               0.002829020              -0.001648420              -0.001357941               0.001395643               0.000037703               0.000000000               0.000000000               0.000000000               0.000000000              -0.002019468               0.003352884              -0.001542532              -0.001176409               0.001509752               0.000333344               0.000000000               0.000000000               0.000000000               0.000000000              -0.001435075               0.003749554              -0.001425405              -0.001006846               0.001585454               0.000578608               0.000000000               0.000000000               0.000000000               0.000000000              -0.000882657               0.004052034              -0.001311725              -0.000837499               0.001629830               0.000792331               0.000000000               0.000000000               0.000000000               0.000000000              -0.000336236               0.004282258              -0.001206307              -0.000661370               0.001647861               0.000986492               0.000000000               0.000000000               0.000000000               0.000000000               0.000219320               0.004468164              -0.001097156              -0.000476275               0.001648131               0.001171856               0.000000000               0.000000000               0.000000000               0.000000000               0.000791573               0.004630533              -0.000985501              -0.000281977               0.001637488               0.001355511               0.000000000               0.000000000               0.000000000               0.000000000               0.001382078               0.004764849              -0.000869062              -0.000077327               0.001614043               0.001536716               0.000000000               0.000000000               0.000000000               0.000000000               0.001987720               0.004871537              -0.000731374               0.000136451               0.001578346               0.001714797               0.000000000               0.000000000               0.000000000               0.000000000               0.002611118               0.004950724              -0.000553306               0.000360325               0.001530116               0.001890442               0.000000000               0.000000000               0.000000000               0.000000000               0.003248468               0.004992686              -0.000312197               0.000594084               0.001466184               0.002060268               0.000000000               0.000000000               0.000000000               0.000000000               0.003686378               0.005046835              -0.000189494               0.000751530               0.001431752               0.002183281               0.000000000               0.000000000               0.000000000               0.000000000              -0.014067318              -0.001292871               0.000740543              -0.005113632               0.001273578              -0.003840054               0.000000000               0.000000000               0.000000000               0.000000000              -0.009741706              -0.000683157               0.000017977              -0.003567743               0.000961522              -0.002606221               0.000000000               0.000000000               0.000000000               0.000000000              -0.006328993              -0.000347473              -0.000660697              -0.002329937               0.000660817              -0.001669120               0.000000000               0.000000000               0.000000000               0.000000000              -0.004453894               0.000449693              -0.000892643              -0.001726420               0.000725366              -0.001001054               0.000000000               0.000000000               0.000000000               0.000000000              -0.003273457               0.001287581              -0.000947976              -0.001388492               0.000892018              -0.000496474               0.000000000               0.000000000               0.000000000               0.000000000              -0.002435863               0.002035597              -0.000925627              -0.001167896               0.001067823              -0.000100072               0.000000000               0.000000000               0.000000000               0.000000000              -0.001768501               0.002653753              -0.000872781              -0.000994905               0.001216210               0.000221305               0.000000000               0.000000000               0.000000000               0.000000000              -0.001188710               0.003138531              -0.000812287              -0.000838081               0.001325527               0.000487446               0.000000000               0.000000000               0.000000000               0.000000000              -0.000644096               0.003521953              -0.000752974              -0.000681779               0.001401232               0.000719453               0.000000000               0.000000000               0.000000000               0.000000000              -0.000105873               0.003839923              -0.000696769              -0.000519692               0.001453192               0.000933500               0.000000000               0.000000000               0.000000000               0.000000000               0.000449564               0.004113319              -0.000636250              -0.000345578               0.001486285               0.001140707               0.000000000               0.000000000               0.000000000               0.000000000               0.001041246               0.004354638              -0.000575216              -0.000153862               0.001502819               0.001348957               0.000000000               0.000000000               0.000000000               0.000000000               0.001672054               0.004559337              -0.000511021               0.000057102               0.001500730               0.001557832               0.000000000               0.000000000               0.000000000               0.000000000               0.002349481               0.004730633              -0.000432773               0.000289723               0.001480288               0.001770011               0.000000000               0.000000000               0.000000000               0.000000000               0.003086951               0.004865612              -0.000333240               0.000549400               0.001438721               0.001988121               0.000000000               0.000000000               0.000000000               0.000000000               0.003901125               0.004950098              -0.000192341               0.000844151               0.001368632               0.002212784               0.000000000               0.000000000               0.000000000               0.000000000               0.004505736               0.005040380              -0.000120134               0.001059593               0.001326912               0.002386505               0.000000000               0.000000000               0.000000000               0.000000000              -0.014487463              -0.001324189              -0.000000000              -0.005267272               0.001314352              -0.003952920               0.000000000               0.000000000               0.000000000               0.000000000              -0.009977173              -0.000829994               0.000000000              -0.003637688               0.000935892              -0.002701796               0.000000000               0.000000000               0.000000000               0.000000000              -0.006384229              -0.000617779               0.000000000              -0.002316862               0.000566357              -0.001750505               0.000000000               0.000000000               0.000000000               0.000000000              -0.004420244               0.000139900              -0.000000000              -0.001675078               0.000604989              -0.001070089               0.000000000               0.000000000               0.000000000               0.000000000              -0.003199134               0.000975334              -0.000000000              -0.001321590               0.000765636              -0.000555954               0.000000000               0.000000000               0.000000000               0.000000000              -0.002346959               0.001743533               0.000000000              -0.001098049               0.000947187              -0.000150861               0.000000000               0.000000000               0.000000000               0.000000000              -0.001672387               0.002395684               0.000000000              -0.000926604               0.001107421               0.000180818               0.000000000               0.000000000               0.000000000               0.000000000              -0.001090852               0.002909488               0.000000000              -0.000772754               0.001227404               0.000454650               0.000000000               0.000000000               0.000000000               0.000000000              -0.000546460               0.003320034              -0.000000000              -0.000619925               0.001313309               0.000693383               0.000000000               0.000000000               0.000000000               0.000000000              -0.000010613               0.003669638              -0.000000000              -0.000462683               0.001377428               0.000914745               0.000000000               0.000000000               0.000000000               0.000000000               0.000544114               0.003971083               0.000000000              -0.000292342               0.001421128               0.001128786               0.000000000               0.000000000               0.000000000               0.000000000               0.001141238               0.004241661               0.000000000              -0.000102243               0.001447954               0.001345711               0.000000000               0.000000000               0.000000000               0.000000000               0.001785281               0.004476653               0.000000000               0.000109898               0.001455570               0.001565468               0.000000000               0.000000000               0.000000000               0.000000000               0.002490811               0.004669924               0.000000000               0.000350310               0.001439856               0.001790166               0.000000000               0.000000000               0.000000000               0.000000000               0.003274382               0.004823920               0.000000000               0.000624897               0.001399658               0.002024555               0.000000000               0.000000000               0.000000000               0.000000000               0.004155298               0.004928295              -0.000000000               0.000942190               0.001328685               0.002270876               0.000000000               0.000000000               0.000000000               0.000000000               0.004823919               0.005035430              -0.000000000               0.001179529               0.001285283               0.002464812               0.000000000               0.000000000               0.000000000               0.000000000               0.000000000               0.000000000               0.000000000               0.000000000               0.000000000               0.000000000               0.000000000               0.000000000               0.000000000               0.000000000               0.000000000               0.000000000               0.000000000               0.000000000               0.000000000               0.000000000               0.000000000               0.000000000               0.000000000               0.000000000               0.000000000               0.000000000               0.000000000               0.000000000               0.000000000               0.000000000               0.000000000               0.000000000               0.000000000               0.000000000               0.000000000               0.000000000               0.000000000               0.000000000               0.000000000               0.000000000               0.000000000               0.000000000               0.000000000               0.000000000               0.000000000               0.000000000               0.000000000               0.000000000               0.000000000               0.000000000               0.000000000               0.000000000               0.000000000               0.000000000               0.000000000               0.000000000               0.000000000               0.000000000               0.000000000               0.000000000               0.000000000               0.000000000               0.000000000               0.000000000               0.000000000               0.000000000               0.000000000               0.000000000               0.000000000               0.000000000               0.000000000               0.000000000               0.000000000               0.000000000               0.000000000               0.000000000               0.000000000               0.000000000               0.000000000               0.000000000               0.000000000               0.000000000               0.000000000               0.000000000               0.000000000               0.000000000               0.000000000               0.000000000               0.000000000               0.000000000               0.000000000               0.000000000               0.000000000               0.000000000               0.000000000               0.000000000               0.000000000               0.000000000               0.000000000               0.000000000               0.000000000               0.000000000               0.000000000               0.000000000               0.000000000               0.000000000               0.000000000               0.000000000               0.000000000               0.000000000               0.000000000               0.000000000               0.000000000               0.000000000               0.000000000               0.000000000               0.000000000               0.000000000               0.000000000               0.000000000               0.000000000               0.000000000               0.000000000               0.000000000               0.000000000               0.000000000               0.000000000               0.000000000               0.000000000               0.000000000               0.000000000               0.000000000               0.000000000               0.000000000               0.000000000               0.000000000               0.000000000               0.000000000               0.000000000               0.000000000               0.000000000               0.000000000               0.000000000               0.000000000               0.000000000               0.000000000               0.000000000               0.000000000               0.000000000               0.000000000               0.000000000               0.000000000               0.000000000               0.000000000               0.000000000               0.000000000               0.000000000               0.000000000               0.000000000               0.000000000               0.000000000               0.000000000               0.000000000               0.000000000               0.000000000               0.000000000               0.000000000               0.000000000               0.000000000               0.000000000               0.000000000               0.000000000               0.000000000               0.000000000               0.002165968               0.021619435               0.001452655              -0.001890187               0.007836469               0.005946281               0.000000000               0.000000000               0.000000000               0.000000000               0.001951850               0.016576642               0.000633522              -0.001340133               0.005972203               0.004632070               0.000000000               0.000000000               0.000000000               0.000000000               0.002387170               0.012518035              -0.000173287              -0.000669564               0.004395825               0.003726261               0.000000000               0.000000000               0.000000000               0.000000000               0.002136153               0.010217403              -0.000503727              -0.000476117               0.003564472               0.003088356               0.000000000               0.000000000               0.000000000               0.000000000               0.001721793               0.008743736              -0.000628701              -0.000447294               0.003063647               0.002616354               0.000000000               0.000000000               0.000000000               0.000000000               0.001311474               0.007691681              -0.000661981              -0.000469657               0.002720420               0.002250763               0.000000000               0.000000000               0.000000000               0.000000000               0.000951129               0.006866054              -0.000654269              -0.000501582               0.002455856               0.001954274               0.000000000               0.000000000               0.000000000               0.000000000               0.000646536               0.006165605              -0.000630451              -0.000528249               0.002231264               0.001703015               0.000000000               0.000000000               0.000000000               0.000000000               0.000400621               0.005538798              -0.000601564              -0.000542116               0.002026953               0.001484837               0.000000000               0.000000000               0.000000000               0.000000000               0.000204755               0.004945161              -0.000564055              -0.000541361               0.001828824               0.001287463               0.000000000               0.000000000               0.000000000               0.000000000               0.000053150               0.004356243              -0.000520781              -0.000524598               0.001626932               0.001102334               0.000000000               0.000000000               0.000000000               0.000000000              -0.000051474               0.003759378              -0.000476447              -0.000489224               0.001416188               0.000926964               0.000000000               0.000000000               0.000000000               0.000000000              -0.000114476               0.003144165              -0.000430873              -0.000435948               0.001193360               0.000757412               0.000000000               0.000000000               0.000000000               0.000000000              -0.000140256               0.002503314              -0.000376488              -0.000365510               0.000956266               0.000590756               0.000000000               0.000000000               0.000000000               0.000000000              -0.000128348               0.001824504              -0.000297001              -0.000276193               0.000700226               0.000424033               0.000000000               0.000000000               0.000000000               0.000000000              -0.000077144               0.001085398              -0.000172586              -0.000164603               0.000416663               0.000252060               0.000000000               0.000000000               0.000000000               0.000000000              -0.000100693               0.000532876              -0.000107574              -0.000104369               0.000212413               0.000108044               0.000000000               0.000000000               0.000000000               0.000000000               0.002295409               0.020255297               0.002681124              -0.001671131               0.007308742               0.005637611               0.000000000               0.000000000               0.000000000               0.000000000               0.001741486               0.015727150               0.001163695              -0.001312834               0.005679942               0.004367108               0.000000000               0.000000000               0.000000000               0.000000000               0.001819224               0.012199416              -0.000319119              -0.000842716               0.004347337               0.003504621               0.000000000               0.000000000               0.000000000               0.000000000               0.001447706               0.010166936              -0.000903764              -0.000727976               0.003631603               0.002903628               0.000000000               0.000000000               0.000000000               0.000000000               0.001020785               0.008822822              -0.001111165              -0.000720057               0.003180930               0.002460873               0.000000000               0.000000000               0.000000000               0.000000000               0.000650197               0.007830748              -0.001156973              -0.000735018               0.002855229               0.002120211               0.000000000               0.000000000               0.000000000               0.000000000               0.000350462               0.007032177              -0.001133156              -0.000747597               0.002593234               0.001845637               0.000000000               0.000000000               0.000000000               0.000000000               0.000117478               0.006347783              -0.001083626              -0.000749417               0.002365712               0.001616295               0.000000000               0.000000000               0.000000000               0.000000000              -0.000054113               0.005726203              -0.001025184              -0.000736066               0.002154070               0.001418004               0.000000000               0.000000000               0.000000000               0.000000000              -0.000175317               0.005135158              -0.000955337              -0.000707637               0.001947581               0.001239944               0.000000000               0.000000000               0.000000000               0.000000000              -0.000249856               0.004556000              -0.000877432              -0.000663195               0.001739716               0.001076521               0.000000000               0.000000000               0.000000000               0.000000000              -0.000282361               0.003981549              -0.000795584              -0.000603578               0.001528362               0.000924784               0.000000000               0.000000000               0.000000000               0.000000000              -0.000280763               0.003408354              -0.000709216              -0.000531329               0.001313216               0.000781887               0.000000000               0.000000000               0.000000000               0.000000000              -0.000247106               0.002836002              -0.000608590              -0.000447164               0.001094379               0.000647215               0.000000000               0.000000000               0.000000000               0.000000000              -0.000185428               0.002261978              -0.000467309              -0.000352282               0.000871413               0.000519130               0.000000000               0.000000000               0.000000000               0.000000000              -0.000101527               0.001685650              -0.000263715              -0.000248778               0.000644804               0.000396025               0.000000000               0.000000000               0.000000000               0.000000000              -0.000095916               0.001289017              -0.000160576              -0.000197095               0.000495366               0.000298271               0.000000000               0.000000000               0.000000000               0.000000000               0.002385076               0.018192094               0.003519984              -0.001379607               0.006523839               0.005144232               0.000000000               0.000000000               0.000000000               0.000000000               0.001359347               0.014459818               0.001517915              -0.001297720               0.005252464               0.003954745               0.000000000               0.000000000               0.000000000               0.000000000               0.000944470               0.011726660              -0.000407076              -0.001111653               0.004279399               0.003167745               0.000000000               0.000000000               0.000000000               0.000000000               0.000438973               0.010066838              -0.001115001              -0.001093738               0.003720158               0.002626421               0.000000000               0.000000000               0.000000000               0.000000000               0.000028444               0.008898692              -0.001342049              -0.001101668               0.003333423               0.002231755               0.000000000               0.000000000               0.000000000               0.000000000              -0.000260565               0.007991175              -0.001374594              -0.001096607               0.003029234               0.001932627               0.000000000               0.000000000               0.000000000               0.000000000              -0.000450457               0.007232485              -0.001330791              -0.001072980               0.002768464               0.001695484               0.000000000               0.000000000               0.000000000               0.000000000              -0.000566278               0.006563261              -0.001261352              -0.001032760               0.002531985               0.001499225               0.000000000               0.000000000               0.000000000               0.000000000              -0.000617714               0.005947681              -0.001182293              -0.000975101               0.002307574               0.001332473               0.000000000               0.000000000               0.000000000               0.000000000              -0.000624368               0.005363666              -0.001091981              -0.000904594               0.002089402               0.001184808               0.000000000               0.000000000               0.000000000               0.000000000              -0.000600675               0.004803162              -0.000990424              -0.000825647               0.001876253               0.001050607               0.000000000               0.000000000               0.000000000               0.000000000              -0.000542743               0.004266052              -0.000884103              -0.000736784               0.001667597               0.000930814               0.000000000               0.000000000               0.000000000               0.000000000              -0.000457997               0.003752575              -0.000772852              -0.000640820               0.001464452               0.000823633               0.000000000               0.000000000               0.000000000               0.000000000              -0.000355028               0.003264798              -0.000645588              -0.000541234               0.001268667               0.000727432               0.000000000               0.000000000               0.000000000               0.000000000              -0.000239190               0.002812214              -0.000478269              -0.000441222               0.001084469               0.000643247               0.000000000               0.000000000               0.000000000               0.000000000              -0.000120349               0.002416520              -0.000259710              -0.000347195               0.000921230               0.000574035               0.000000000               0.000000000               0.000000000               0.000000000              -0.000085836               0.002179363              -0.000151092              -0.000304608               0.000827983               0.000523375               0.000000000               0.000000000               0.000000000               0.000000000               0.002294863               0.015678452               0.003880875              -0.001099233               0.005592509               0.004493276               0.000000000               0.000000000               0.000000000               0.000000000               0.000781950               0.012946441               0.001675723              -0.001325071               0.004757128               0.003432056               0.000000000               0.000000000               0.000000000               0.000000000              -0.000146550               0.011154847              -0.000397298              -0.001449308               0.004201348               0.002752039               0.000000000               0.000000000               0.000000000               0.000000000              -0.000728130               0.009901603              -0.001094979              -0.001510746               0.003804083               0.002293337               0.000000000               0.000000000               0.000000000               0.000000000              -0.001053681               0.008917111              -0.001295091              -0.001509766               0.003475596               0.001965830               0.000000000               0.000000000               0.000000000               0.000000000              -0.001209033               0.008099397              -0.001305196              -0.001465809               0.003188375               0.001722566               0.000000000               0.000000000               0.000000000               0.000000000              -0.001247206               0.007384940              -0.001246457              -0.001390817               0.002925227               0.001534411               0.000000000               0.000000000               0.000000000               0.000000000              -0.001210748               0.006731661              -0.001167208              -0.001295485               0.002675693               0.001380208               0.000000000               0.000000000               0.000000000               0.000000000              -0.001123272               0.006120190              -0.001081085              -0.001186248               0.002435459               0.001249211               0.000000000               0.000000000               0.000000000               0.000000000              -0.001004192               0.005543140              -0.000988992              -0.001069462               0.002204182               0.001134720               0.000000000               0.000000000               0.000000000               0.000000000              -0.000869642               0.005009467              -0.000886471              -0.000952297               0.001987238               0.001034941               0.000000000               0.000000000               0.000000000               0.000000000              -0.000722111               0.004516407              -0.000774870              -0.000835340               0.001783901               0.000948560               0.000000000               0.000000000               0.000000000               0.000000000              -0.000565798               0.004064469              -0.000656961              -0.000720231               0.001594887               0.000874655               0.000000000               0.000000000               0.000000000               0.000000000              -0.000406061               0.003660326              -0.000527391              -0.000609812               0.001423367               0.000813555               0.000000000               0.000000000               0.000000000               0.000000000              -0.000250996               0.003320425              -0.000374911              -0.000509176               0.001276523               0.000767347               0.000000000               0.000000000               0.000000000               0.000000000              -0.000114780               0.003070767              -0.000197235              -0.000426887               0.001165874               0.000738987               0.000000000               0.000000000               0.000000000               0.000000000              -0.000065132               0.002951077              -0.000110227              -0.000393308               0.001114785               0.000721477               0.000000000               0.000000000               0.000000000               0.000000000               0.001887374               0.012963519               0.003778866              -0.000912676               0.004625354               0.003712679               0.000000000               0.000000000               0.000000000               0.000000000               0.000005324               0.011350866               0.001679884              -0.001416859               0.004255870               0.002839011               0.000000000               0.000000000               0.000000000               0.000000000              -0.001324147               0.010529734              -0.000258196              -0.001812767               0.004114132               0.002301364               0.000000000               0.000000000               0.000000000               0.000000000              -0.001873249               0.009657691              -0.000855455              -0.001909675               0.003855756               0.001946081               0.000000000               0.000000000               0.000000000               0.000000000              -0.002039182               0.008840510              -0.001009060              -0.001869752               0.003570058               0.001700306               0.000000000               0.000000000               0.000000000               0.000000000              -0.002010223               0.008103041              -0.001004441              -0.001766710               0.003289890               0.001523180               0.000000000               0.000000000               0.000000000               0.000000000              -0.001876240               0.007418343              -0.000945581              -0.001630879               0.003016382               0.001385504               0.000000000               0.000000000               0.000000000               0.000000000              -0.001682792               0.006777654              -0.000874391              -0.001478250               0.002751945               0.001273695               0.000000000               0.000000000               0.000000000               0.000000000              -0.001455996               0.006174753              -0.000802976              -0.001317839               0.002497510               0.001179671               0.000000000               0.000000000               0.000000000               0.000000000              -0.001219329               0.005618734              -0.000732249              -0.001159587               0.002259421               0.001099834               0.000000000               0.000000000               0.000000000               0.000000000              -0.000990807               0.005119099              -0.000651088              -0.001011437               0.002043495               0.001032057               0.000000000               0.000000000               0.000000000               0.000000000              -0.000770659               0.004672743              -0.000554308              -0.000873088               0.001848595               0.000975507               0.000000000               0.000000000               0.000000000               0.000000000              -0.000562187               0.004282608              -0.000452563              -0.000746144               0.001676237               0.000930092               0.000000000               0.000000000               0.000000000               0.000000000              -0.000368278               0.003960102              -0.000345166              -0.000633115               0.001531059               0.000897944               0.000000000               0.000000000               0.000000000               0.000000000              -0.000202944               0.003719069              -0.000230529              -0.000540986               0.001420006               0.000879020               0.000000000               0.000000000               0.000000000               0.000000000              -0.000083707               0.003575409              -0.000115349              -0.000478315               0.001351229               0.000872914               0.000000000               0.000000000               0.000000000               0.000000000              -0.000037385               0.003532593              -0.000059524              -0.000455592               0.001329383               0.000873791               0.000000000               0.000000000               0.000000000               0.000000000               0.001104455               0.010278728               0.003302345              -0.000870671               0.003716431               0.002845760               0.000000000               0.000000000               0.000000000               0.000000000              -0.000925109               0.009802937               0.001587737              -0.001572280               0.003791706               0.002219426               0.000000000               0.000000000               0.000000000               0.000000000              -0.002455721               0.009878196               0.000014063              -0.002155665               0.004011254               0.001855589               0.000000000               0.000000000               0.000000000               0.000000000              -0.002847586               0.009318877              -0.000439022              -0.002232699               0.003850494               0.001617795               0.000000000               0.000000000               0.000000000               0.000000000              -0.002794136               0.008638154              -0.000555488              -0.002127565               0.003588544               0.001460979               0.000000000               0.000000000               0.000000000               0.000000000              -0.002560271               0.007958822              -0.000557899              -0.001954949               0.003304564               0.001349615               0.000000000               0.000000000               0.000000000               0.000000000              -0.002248921               0.007299124              -0.000525231              -0.001755732               0.003018261               0.001262529               0.000000000               0.000000000               0.000000000               0.000000000              -0.001904540               0.006678487              -0.000489741              -0.001549009               0.002742476               0.001193467               0.000000000               0.000000000               0.000000000               0.000000000              -0.001561944               0.006099515              -0.000452669              -0.001348165               0.002482540               0.001134375               0.000000000               0.000000000               0.000000000               0.000000000              -0.001234125               0.005578571              -0.000418445              -0.001160116               0.002246210               0.001086095               0.000000000               0.000000000               0.000000000               0.000000000              -0.000932248               0.005120703              -0.000373096              -0.000989678               0.002036777               0.001047098               0.000000000               0.000000000               0.000000000               0.000000000              -0.000663088               0.004727531              -0.000306371              -0.000839597               0.001855694               0.001016096               0.000000000               0.000000000               0.000000000               0.000000000              -0.000431295               0.004405755              -0.000232867              -0.000712453               0.001706055               0.000993601               0.000000000               0.000000000               0.000000000               0.000000000              -0.000240791               0.004167703              -0.000158806              -0.000611258               0.001592973               0.000981715               0.000000000               0.000000000               0.000000000               0.000000000              -0.000101325               0.004020950              -0.000088301              -0.000540614               0.001520508               0.000979894               0.000000000               0.000000000               0.000000000               0.000000000              -0.000025987               0.003965044              -0.000034569              -0.000505374               0.001490126               0.000984752               0.000000000               0.000000000               0.000000000               0.000000000               0.000002724               0.003974152              -0.000009617              -0.000495746               0.001489953               0.000994206               0.000000000               0.000000000               0.000000000               0.000000000              -0.000009174               0.007807625               0.002560739              -0.000979393               0.002928979               0.001949586               0.000000000               0.000000000               0.000000000               0.000000000              -0.001948391               0.008390426               0.001449840              -0.001779446               0.003389929               0.001610483               0.000000000               0.000000000               0.000000000               0.000000000              -0.003426306               0.009188518               0.000408689              -0.002433424               0.003873950               0.001440526               0.000000000               0.000000000               0.000000000               0.000000000              -0.003553298               0.008871247               0.000088790              -0.002441387               0.003770848               0.001329462               0.000000000               0.000000000               0.000000000               0.000000000              -0.003256729               0.008305564              -0.000025608              -0.002259463               0.003521648               0.001262185               0.000000000               0.000000000               0.000000000               0.000000000              -0.002822953               0.007679744              -0.000068855              -0.002018570               0.003232746               0.001214175               0.000000000               0.000000000               0.000000000               0.000000000              -0.002350884               0.007057878              -0.000089659              -0.001763812               0.002940540               0.001176728               0.000000000               0.000000000               0.000000000               0.000000000              -0.001885187               0.006468194              -0.000104436              -0.001515466               0.002661198               0.001145733               0.000000000               0.000000000               0.000000000               0.000000000              -0.001453967               0.005931436              -0.000109790              -0.001286664               0.002406014               0.001119350               0.000000000               0.000000000               0.000000000               0.000000000              -0.001063853               0.005459662              -0.000114459              -0.001081400               0.002180336               0.001098936               0.000000000               0.000000000               0.000000000               0.000000000              -0.000714615               0.005054778              -0.000109272              -0.000899826               0.001984851               0.001085025               0.000000000               0.000000000               0.000000000               0.000000000              -0.000422190               0.004729031              -0.000081733              -0.000749448               0.001826144               0.001076696               0.000000000               0.000000000               0.000000000               0.000000000              -0.000196387               0.004494634              -0.000046127              -0.000635473               0.001710021               0.001074548               0.000000000               0.000000000               0.000000000               0.000000000              -0.000040647               0.004357634              -0.000014054              -0.000559945               0.001639179               0.001079233               0.000000000               0.000000000               0.000000000               0.000000000               0.000039626               0.004312854               0.000010311              -0.000524246               0.001612352               0.001088106               0.000000000               0.000000000               0.000000000               0.000000000               0.000046599               0.004340284               0.000015472              -0.000525059               0.001621767               0.001096707               0.000000000               0.000000000               0.000000000               0.000000000               0.000039868               0.004386652               0.000017308              -0.000533380               0.001639996               0.001106616               0.000000000               0.000000000               0.000000000               0.000000000              -0.001316730               0.005725348               0.001675565              -0.001209440               0.002311577               0.001102137               0.000000000               0.000000000               0.000000000               0.000000000              -0.002949903               0.007118035               0.001310785              -0.001995963               0.003037975               0.001042012               0.000000000               0.000000000               0.000000000               0.000000000              -0.004194499               0.008471339               0.000886196              -0.002631848               0.003701034               0.001069186               0.000000000               0.000000000               0.000000000               0.000000000              -0.004042568               0.008411168               0.000647909              -0.002567352               0.003659479               0.001092126               0.000000000               0.000000000               0.000000000               0.000000000              -0.003542259               0.007985844               0.000504135              -0.002326572               0.003437445               0.001110873               0.000000000               0.000000000               0.000000000               0.000000000              -0.002948492               0.007444756               0.000400982              -0.002036274               0.003160318               0.001124045               0.000000000               0.000000000               0.000000000               0.000000000              -0.002351385               0.006880274               0.000320763              -0.001741799               0.002874001               0.001132202               0.000000000               0.000000000               0.000000000               0.000000000              -0.001798132               0.006337571               0.000254487              -0.001466492               0.002601333               0.001134841               0.000000000               0.000000000               0.000000000               0.000000000              -0.001295897               0.005851488               0.000202804              -0.001217394               0.002356275               0.001138880               0.000000000               0.000000000               0.000000000               0.000000000              -0.000854483               0.005428404               0.000159323              -0.000998979               0.002142443               0.001143464               0.000000000               0.000000000               0.000000000               0.000000000              -0.000475964               0.005075625               0.000122913              -0.000812938               0.001962837               0.001149900               0.000000000               0.000000000               0.000000000               0.000000000              -0.000171738               0.004807477               0.000099851              -0.000665335               0.001824255               0.001158920               0.000000000               0.000000000               0.000000000               0.000000000               0.000045425               0.004637456               0.000084248              -0.000562646               0.001733352               0.001170706               0.000000000               0.000000000               0.000000000               0.000000000               0.000173641               0.004568511               0.000067227              -0.000505947               0.001691471               0.001185524               0.000000000               0.000000000               0.000000000               0.000000000               0.000218288               0.004594881               0.000045381              -0.000492501               0.001695779               0.001203278               0.000000000               0.000000000               0.000000000               0.000000000               0.000193924               0.004686954               0.000021226              -0.000513146               0.001733351               0.001220205               0.000000000               0.000000000               0.000000000               0.000000000               0.000157142               0.004748882               0.000008842              -0.000534681               0.001761172               0.001226491               0.000000000               0.000000000               0.000000000               0.000000000              -0.002808181               0.003789670               0.000757829              -0.001526773               0.001772135               0.000245362               0.000000000               0.000000000               0.000000000               0.000000000              -0.003786396               0.005626382               0.001164383              -0.002123191               0.002583172               0.000459981               0.000000000               0.000000000               0.000000000               0.000000000              -0.004666541               0.007380539               0.001382449              -0.002672514               0.003350993               0.000678479               0.000000000               0.000000000               0.000000000               0.000000000              -0.004364673               0.007702998               0.001229362              -0.002599621               0.003434180               0.000834559               0.000000000               0.000000000               0.000000000               0.000000000              -0.003781765               0.007546683               0.001053723              -0.002361492               0.003302700               0.000941208               0.000000000               0.000000000               0.000000000               0.000000000              -0.003139596               0.007206668               0.000894955              -0.002078177               0.003094924               0.001016747               0.000000000               0.000000000               0.000000000               0.000000000              -0.002500506               0.006789956               0.000757731              -0.001786430               0.002858773               0.001072343               0.000000000               0.000000000               0.000000000               0.000000000              -0.001907503               0.006360236               0.000641871              -0.001510340               0.002623504               0.001113164               0.000000000               0.000000000               0.000000000               0.000000000              -0.001367250               0.005957310               0.000546297              -0.001257379               0.002404876               0.001147497               0.000000000               0.000000000               0.000000000               0.000000000              -0.000887483               0.005599683               0.000460864              -0.001032764               0.002210797               0.001178033               0.000000000               0.000000000               0.000000000               0.000000000              -0.000471134               0.005302447               0.000380467              -0.000839479               0.002047291               0.001207812               0.000000000               0.000000000               0.000000000               0.000000000              -0.000128024               0.005069130               0.000303257              -0.000681648               0.001916909               0.001235261               0.000000000               0.000000000               0.000000000               0.000000000               0.000129828               0.004899515               0.000232378              -0.000563753               0.001821073               0.001257320               0.000000000               0.000000000               0.000000000               0.000000000               0.000298522               0.004803075               0.000164079              -0.000488438               0.001763822               0.001275384               0.000000000               0.000000000               0.000000000               0.000000000               0.000381760               0.004796773               0.000094447              -0.000456435               0.001751053               0.001294618               0.000000000               0.000000000               0.000000000               0.000000000               0.000394476               0.004873519               0.000036814              -0.000461260               0.001778243               0.001316983               0.000000000               0.000000000               0.000000000               0.000000000               0.000365496               0.004918039               0.000006505              -0.000477693               0.001798561               0.001320868               0.000000000               0.000000000               0.000000000               0.000000000              -0.004671752               0.002049178              -0.000120176              -0.002008051               0.001352400              -0.000655650               0.000000000               0.000000000               0.000000000               0.000000000              -0.004721051               0.004119307               0.000957795              -0.002285303               0.002134855              -0.000150448               0.000000000               0.000000000               0.000000000               0.000000000              -0.005053234               0.006076504               0.001778198              -0.002654520               0.002910320               0.000255801               0.000000000               0.000000000               0.000000000               0.000000000              -0.004620345               0.006757312               0.001777455              -0.002577287               0.003111510               0.000534223               0.000000000               0.000000000               0.000000000               0.000000000              -0.003987228               0.006911386               0.001604742              -0.002359128               0.003090148               0.000731020               0.000000000               0.000000000               0.000000000               0.000000000              -0.003325753               0.006812393               0.001409334              -0.002098702               0.002970342               0.000871640               0.000000000               0.000000000               0.000000000               0.000000000              -0.002679871               0.006581636               0.001227081              -0.001827652               0.002803074               0.000975422               0.000000000               0.000000000               0.000000000               0.000000000              -0.002062166               0.006294408               0.001072154              -0.001560110               0.002618152               0.001058042               0.000000000               0.000000000               0.000000000               0.000000000              -0.001487999               0.006001801               0.000938023              -0.001308222               0.002436654               0.001128432               0.000000000               0.000000000               0.000000000               0.000000000              -0.000965294               0.005729662               0.000812711              -0.001078191               0.002269265               0.001191075               0.000000000               0.000000000               0.000000000               0.000000000              -0.000502199               0.005490148               0.000690906              -0.000874591               0.002121561               0.001246970               0.000000000               0.000000000               0.000000000               0.000000000              -0.000104306               0.005289855               0.000569148              -0.000700345               0.001996716               0.001296371               0.000000000               0.000000000               0.000000000               0.000000000               0.000223941               0.005127832               0.000450193              -0.000557000               0.001894927               0.001337927               0.000000000               0.000000000               0.000000000               0.000000000               0.000467112               0.005003858               0.000328658              -0.000450314               0.001818041               0.001367726               0.000000000               0.000000000               0.000000000               0.000000000               0.000620792               0.004939051               0.000203278              -0.000384583               0.001774528               0.001389945               0.000000000               0.000000000               0.000000000               0.000000000               0.000684393               0.004945589               0.000090575              -0.000361550               0.001769030               0.001407480               0.000000000               0.000000000               0.000000000               0.000000000               0.000675258               0.004952911               0.000034505              -0.000365891               0.001772918               0.001407026               0.000000000               0.000000000               0.000000000               0.000000000              -0.006779831               0.000662944              -0.000872070              -0.002625302               0.001096074              -0.001529227               0.000000000               0.000000000               0.000000000               0.000000000              -0.005801576               0.002704050               0.000682537              -0.002513593               0.001739203              -0.000774391               0.000000000               0.000000000               0.000000000               0.000000000              -0.005379859               0.004585186               0.001972546              -0.002590590               0.002391908              -0.000198681               0.000000000               0.000000000               0.000000000               0.000000000              -0.004729246               0.005509290               0.002162617              -0.002462123               0.002657118               0.000194995               0.000000000               0.000000000               0.000000000               0.000000000              -0.004032031               0.005941057               0.002044189              -0.002254639               0.002731878               0.000477240               0.000000000               0.000000000               0.000000000               0.000000000              -0.003352622               0.006091472               0.001843856              -0.002018663               0.002703357               0.000684695               0.000000000               0.000000000               0.000000000               0.000000000              -0.002709437               0.006072213               0.001640412              -0.001775061               0.002615738               0.000840676               0.000000000               0.000000000               0.000000000               0.000000000              -0.002090948               0.005958658               0.001462235              -0.001528934               0.002495844               0.000966910               0.000000000               0.000000000               0.000000000               0.000000000              -0.001503882               0.005801175               0.001304643              -0.001289100               0.002363405               0.001074306               0.000000000               0.000000000               0.000000000               0.000000000              -0.000953421               0.005637077               0.001153844              -0.001062165               0.002233062               0.001170897               0.000000000               0.000000000               0.000000000               0.000000000              -0.000446859               0.005487992               0.001002869              -0.000853569               0.002113835               0.001260266               0.000000000               0.000000000               0.000000000               0.000000000               0.000008590               0.005350732               0.000854913              -0.000665619               0.002005432               0.001339813               0.000000000               0.000000000               0.000000000               0.000000000               0.000405457               0.005228347               0.000703705              -0.000501496               0.001909930               0.001408434               0.000000000               0.000000000               0.000000000               0.000000000               0.000727510               0.005122282               0.000537331              -0.000367468               0.001829900               0.001462431               0.000000000               0.000000000               0.000000000               0.000000000               0.000962790               0.005042423               0.000356862              -0.000269256               0.001770543               0.001501287               0.000000000               0.000000000               0.000000000               0.000000000               0.001099197               0.005003489               0.000174805              -0.000213237               0.001738892               0.001525655               0.000000000               0.000000000               0.000000000               0.000000000               0.001129355               0.004989145               0.000084154              -0.000200135               0.001729743               0.001529609               0.000000000               0.000000000               0.000000000               0.000000000              -0.008992034              -0.000300193              -0.001374258              -0.003334486               0.001011424              -0.002323062               0.000000000               0.000000000               0.000000000               0.000000000              -0.006961494               0.001465215               0.000394673              -0.002793709               0.001419631              -0.001374077               0.000000000               0.000000000               0.000000000               0.000000000              -0.005673430               0.003041156               0.001941220              -0.002507676               0.001849598              -0.000658079               0.000000000               0.000000000               0.000000000               0.000000000              -0.004720403               0.004066648               0.002295208              -0.002278478               0.002115027              -0.000163451               0.000000000               0.000000000               0.000000000               0.000000000              -0.003929214               0.004708656               0.002256393              -0.002062033               0.002256880               0.000194847               0.000000000               0.000000000               0.000000000               0.000000000              -0.003223262               0.005085013               0.002088582              -0.001844346               0.002309769               0.000465423               0.000000000               0.000000000               0.000000000               0.000000000              -0.002577559               0.005276295               0.001895361              -0.001626118               0.002300786               0.000674668               0.000000000               0.000000000               0.000000000               0.000000000              -0.001968450               0.005352132               0.001715127              -0.001407182               0.002253086               0.000845904               0.000000000               0.000000000               0.000000000               0.000000000              -0.001387505               0.005355642               0.001549379              -0.001189767               0.002181785               0.000992018               0.000000000               0.000000000               0.000000000               0.000000000              -0.000828496               0.005321540               0.001391643              -0.000975877               0.002099121               0.001123244               0.000000000               0.000000000               0.000000000               0.000000000              -0.000290015               0.005276659               0.001236390              -0.000768337               0.002014981               0.001246644               0.000000000               0.000000000               0.000000000               0.000000000               0.000219126               0.005227856               0.001081098              -0.000571309               0.001933037               0.001361728               0.000000000               0.000000000               0.000000000               0.000000000               0.000684467               0.005177249               0.000915128              -0.000390480               0.001855892               0.001465412               0.000000000               0.000000000               0.000000000               0.000000000               0.001096714               0.005123277               0.000725344              -0.000229142               0.001784122               0.001554981               0.000000000               0.000000000               0.000000000               0.000000000               0.001440141               0.005069894               0.000508434              -0.000093684               0.001721176               0.001627492               0.000000000               0.000000000               0.000000000               0.000000000               0.001693727               0.005029181               0.000264541               0.000006499               0.001674210               0.001680710               0.000000000               0.000000000               0.000000000               0.000000000               0.001807515               0.005019649               0.000141164               0.000050361               0.001656413               0.001706774               0.000000000               0.000000000               0.000000000               0.000000000              -0.011109813              -0.000882871              -0.001525808              -0.004055818               0.001057641              -0.002998177               0.000000000               0.000000000               0.000000000               0.000000000              -0.008101244               0.000468642               0.000161397              -0.003096544               0.001188387              -0.001908157               0.000000000               0.000000000               0.000000000               0.000000000              -0.005942443               0.001602052               0.001689302              -0.002428670               0.001343564              -0.001085105               0.000000000               0.000000000               0.000000000               0.000000000              -0.004642673               0.002599674               0.002122259              -0.002065958               0.001555199              -0.000510759               0.000000000               0.000000000               0.000000000               0.000000000              -0.003723374               0.003368194               0.002156374              -0.001817286               0.001728481              -0.000088805               0.000000000               0.000000000               0.000000000               0.000000000              -0.002976019               0.003925288               0.002042431              -0.001606665               0.001843970               0.000237305               0.000000000               0.000000000               0.000000000               0.000000000              -0.002323094               0.004304805               0.001886081              -0.001409258               0.001904673               0.000495414               0.000000000               0.000000000               0.000000000               0.000000000              -0.001725290               0.004561292               0.001726912              -0.001217143               0.001926129               0.000708986               0.000000000               0.000000000               0.000000000               0.000000000              -0.001159844               0.004727333               0.001575092              -0.001025856               0.001917714               0.000891857               0.000000000               0.000000000               0.000000000               0.000000000              -0.000603462               0.004832378               0.001433776              -0.000830344               0.001887557               0.001057213               0.000000000               0.000000000               0.000000000               0.000000000              -0.000049842               0.004901667               0.001293849              -0.000631398               0.001844339               0.001212940               0.000000000               0.000000000               0.000000000               0.000000000               0.000494645               0.004956938               0.001149694              -0.000434125               0.001797004               0.001362879               0.000000000               0.000000000               0.000000000               0.000000000               0.001025663               0.005000034               0.000995750              -0.000240381               0.001746788               0.001506407               0.000000000               0.000000000               0.000000000               0.000000000               0.001537029               0.005019276               0.000817862              -0.000051024               0.001690083               0.001639059               0.000000000               0.000000000               0.000000000               0.000000000               0.002018089               0.005023448               0.000599293               0.000128851               0.001631516               0.001760366               0.000000000               0.000000000               0.000000000               0.000000000               0.002444445               0.005020016               0.000326667               0.000289162               0.001576934               0.001866096               0.000000000               0.000000000               0.000000000               0.000000000               0.002695910               0.005038769               0.000187939               0.000381116               0.001552534               0.001933650               0.000000000               0.000000000               0.000000000               0.000000000              -0.012880806              -0.001176674              -0.001297947              -0.004683215               0.001168839              -0.003514376               0.000000000               0.000000000               0.000000000               0.000000000              -0.009077867              -0.000250888               0.000022071              -0.003372837               0.001040642              -0.002332194               0.000000000               0.000000000               0.000000000               0.000000000              -0.006171786               0.000426858               0.001245453              -0.002367775               0.000931537              -0.001436237               0.000000000               0.000000000               0.000000000               0.000000000              -0.004539705               0.001323921               0.001636288              -0.001867877               0.001063925              -0.000803952               0.000000000               0.000000000               0.000000000               0.000000000              -0.003474926               0.002148160               0.001707633              -0.001571615               0.001239916              -0.000331699               0.000000000               0.000000000               0.000000000               0.000000000              -0.002678176               0.002829020               0.001648420              -0.001357941               0.001395643               0.000037703               0.000000000               0.000000000               0.000000000               0.000000000              -0.002019468               0.003352884               0.001542532              -0.001176409               0.001509752               0.000333344               0.000000000               0.000000000               0.000000000               0.000000000              -0.001435075               0.003749554               0.001425405              -0.001006846               0.001585454               0.000578608               0.000000000               0.000000000               0.000000000               0.000000000              -0.000882657               0.004052034               0.001311725              -0.000837499               0.001629830               0.000792331               0.000000000               0.000000000               0.000000000               0.000000000              -0.000336236               0.004282258               0.001206307              -0.000661370               0.001647861               0.000986492               0.000000000               0.000000000               0.000000000               0.000000000               0.000219320               0.004468164               0.001097156              -0.000476275               0.001648131               0.001171856               0.000000000               0.000000000               0.000000000               0.000000000               0.000791573               0.004630533               0.000985501              -0.000281977               0.001637488               0.001355511               0.000000000               0.000000000               0.000000000               0.000000000               0.001382078               0.004764849               0.000869062              -0.000077327               0.001614043               0.001536716               0.000000000               0.000000000               0.000000000               0.000000000               0.001987720               0.004871537               0.000731374               0.000136451               0.001578346               0.001714797               0.000000000               0.000000000               0.000000000               0.000000000               0.002611118               0.004950724               0.000553306               0.000360325               0.001530116               0.001890442               0.000000000               0.000000000               0.000000000               0.000000000               0.003248468               0.004992686               0.000312197               0.000594084               0.001466184               0.002060268               0.000000000               0.000000000               0.000000000               0.000000000               0.003686378               0.005046835               0.000189494               0.000751530               0.001431752               0.002183281               0.000000000               0.000000000               0.000000000               0.000000000              -0.014067318              -0.001292871              -0.000740543              -0.005113632               0.001273578              -0.003840054               0.000000000               0.000000000               0.000000000               0.000000000              -0.009741706              -0.000683157              -0.000017977              -0.003567743               0.000961522              -0.002606221               0.000000000               0.000000000               0.000000000               0.000000000              -0.006328993              -0.000347473               0.000660697              -0.002329937               0.000660817              -0.001669120               0.000000000               0.000000000               0.000000000               0.000000000              -0.004453894               0.000449693               0.000892643              -0.001726420               0.000725366              -0.001001054               0.000000000               0.000000000               0.000000000               0.000000000              -0.003273457               0.001287581               0.000947976              -0.001388492               0.000892018              -0.000496474               0.000000000               0.000000000               0.000000000               0.000000000              -0.002435863               0.002035597               0.000925627              -0.001167896               0.001067823              -0.000100072               0.000000000               0.000000000               0.000000000               0.000000000              -0.001768501               0.002653753               0.000872781              -0.000994905               0.001216210               0.000221305               0.000000000               0.000000000               0.000000000               0.000000000              -0.001188710               0.003138531               0.000812287              -0.000838081               0.001325527               0.000487446               0.000000000               0.000000000               0.000000000               0.000000000              -0.000644096               0.003521953               0.000752974              -0.000681779               0.001401232               0.000719453               0.000000000               0.000000000               0.000000000               0.000000000              -0.000105873               0.003839923               0.000696769              -0.000519692               0.001453192               0.000933500               0.000000000               0.000000000               0.000000000               0.000000000               0.000449564               0.004113319               0.000636250              -0.000345578               0.001486285               0.001140707               0.000000000               0.000000000               0.000000000               0.000000000               0.001041246               0.004354638               0.000575216              -0.000153862               0.001502819               0.001348957               0.000000000               0.000000000               0.000000000               0.000000000               0.001672054               0.004559337               0.000511021               0.000057102               0.001500730               0.001557832               0.000000000               0.000000000               0.000000000               0.000000000               0.002349481               0.004730633               0.000432773               0.000289723               0.001480288               0.001770011               0.000000000               0.000000000               0.000000000               0.000000000               0.003086951               0.004865612               0.000333240               0.000549400               0.001438721               0.001988121               0.000000000               0.000000000               0.000000000               0.000000000               0.003901125               0.004950098               0.000192341               0.000844151               0.001368632               0.002212784               0.000000000               0.000000000               0.000000000               0.000000000               0.004505736               0.005040380               0.000120134               0.001059593               0.001326912               0.002386505               0.000000000               0.000000000               0.000000000               0.000000000              -0.014487463              -0.001324189               0.000000000              -0.005267272               0.001314352              -0.003952920               0.000000000               0.000000000               0.000000000               0.000000000              -0.009977173              -0.000829994               0.000000000              -0.003637688               0.000935892              -0.002701796               0.000000000               0.000000000               0.000000000               0.000000000              -0.006384229              -0.000617779              -0.000000000              -0.002316862               0.000566357              -0.001750505               0.000000000               0.000000000               0.000000000               0.000000000              -0.004420244               0.000139900              -0.000000000              -0.001675078               0.000604989              -0.001070089               0.000000000               0.000000000               0.000000000               0.000000000              -0.003199134               0.000975334               0.000000000              -0.001321590               0.000765636              -0.000555954               0.000000000               0.000000000               0.000000000               0.000000000              -0.002346959               0.001743533               0.000000000              -0.001098049               0.000947187              -0.000150861               0.000000000               0.000000000               0.000000000               0.000000000              -0.001672387               0.002395684               0.000000000              -0.000926604               0.001107421               0.000180818               0.000000000               0.000000000               0.000000000               0.000000000              -0.001090852               0.002909488              -0.000000000              -0.000772754               0.001227404               0.000454650               0.000000000               0.000000000               0.000000000               0.000000000              -0.000546460               0.003320034              -0.000000000              -0.000619925               0.001313309               0.000693383               0.000000000               0.000000000               0.000000000               0.000000000              -0.000010613               0.003669638               0.000000000              -0.000462683               0.001377428               0.000914745               0.000000000               0.000000000               0.000000000               0.000000000               0.000544114               0.003971083              -0.000000000              -0.000292342               0.001421128               0.001128786               0.000000000               0.000000000               0.000000000               0.000000000               0.001141238               0.004241661              -0.000000000              -0.000102243               0.001447954               0.001345711               0.000000000               0.000000000               0.000000000               0.000000000               0.001785281               0.004476653               0.000000000               0.000109898               0.001455570               0.001565468               0.000000000               0.000000000               0.000000000               0.000000000               0.002490811               0.004669924              -0.000000000               0.000350310               0.001439856               0.001790166               0.000000000               0.000000000               0.000000000               0.000000000               0.003274382               0.004823920               0.000000000               0.000624897               0.001399658               0.002024555               0.000000000               0.000000000               0.000000000               0.000000000               0.004155298               0.004928295              -0.000000000               0.000942190               0.001328685               0.002270876               0.000000000               0.000000000               0.000000000               0.000000000               0.004823919               0.005035430              -0.000000000               0.001179529               0.001285283               0.002464812               0.000000000               0.000000000               0.000000000               0.000000000               0.002107821               0.022097274              -0.000000000              -0.001971722               0.008022925               0.006051203               0.000000000               0.000000000               0.000000000               0.000000000               0.002017875               0.016876030              -0.000000000              -0.001352797               0.006076219               0.004723422               0.000000000               0.000000000               0.000000000               0.000000000               0.002584707               0.012629666               0.000000000              -0.000609442               0.004412994               0.003803552               0.000000000               0.000000000               0.000000000               0.000000000               0.002382307               0.010231408              -0.000000000              -0.000385560               0.003538955               0.003153395               0.000000000               0.000000000               0.000000000               0.000000000               0.001976832               0.008711983              -0.000000000              -0.000347685               0.003019860               0.002672175               0.000000000               0.000000000               0.000000000               0.000000000               0.001552118               0.007638625               0.000000000              -0.000372783               0.002670444               0.002297661               0.000000000               0.000000000               0.000000000               0.000000000               0.001170291               0.006801678              -0.000000000              -0.000411350               0.002404320               0.001992970               0.000000000               0.000000000               0.000000000               0.000000000               0.000844247               0.006093530              -0.000000000              -0.000445098               0.002179522               0.001734425               0.000000000               0.000000000               0.000000000               0.000000000               0.000576327               0.005463254              -0.000000000              -0.000466783               0.001976661               0.001509878               0.000000000               0.000000000               0.000000000               0.000000000               0.000356315               0.004871763              -0.000000000              -0.000475351               0.001782355               0.001307004               0.000000000               0.000000000               0.000000000               0.000000000               0.000175596               0.004281050              -0.000000000              -0.000469282               0.001583429               0.001114148               0.000000000               0.000000000               0.000000000               0.000000000               0.000041112               0.003675430               0.000000000              -0.000444011               0.001373135               0.000929124               0.000000000               0.000000000               0.000000000               0.000000000              -0.000048963               0.003044264               0.000000000              -0.000398893               0.001147709               0.000748816               0.000000000               0.000000000               0.000000000               0.000000000              -0.000098794               0.002378592              -0.000000000              -0.000334371               0.000904313               0.000569942               0.000000000               0.000000000               0.000000000               0.000000000              -0.000107934               0.001658193              -0.000000000              -0.000247749               0.000635308               0.000387560               0.000000000               0.000000000               0.000000000               0.000000000              -0.000066835               0.000853204              -0.000000000              -0.000131714               0.000328303               0.000196589               0.000000000               0.000000000               0.000000000               0.000000000              -0.000099964               0.000232994              -0.000000000              -0.000066611               0.000099867               0.000033256               0.000000000               0.000000000               0.000000000               0.000000000               0.002165968               0.021619435              -0.001452655              -0.001890187               0.007836469               0.005946281               0.000000000               0.000000000               0.000000000               0.000000000               0.001951850               0.016576642              -0.000633522              -0.001340133               0.005972203               0.004632070               0.000000000               0.000000000               0.000000000               0.000000000               0.002387170               0.012518035               0.000173287              -0.000669564               0.004395825               0.003726261               0.000000000               0.000000000               0.000000000               0.000000000               0.002136153               0.010217403               0.000503727              -0.000476117               0.003564472               0.003088356               0.000000000               0.000000000               0.000000000               0.000000000               0.001721793               0.008743736               0.000628701              -0.000447294               0.003063647               0.002616354               0.000000000               0.000000000               0.000000000               0.000000000               0.001311474               0.007691681               0.000661981              -0.000469657               0.002720420               0.002250763               0.000000000               0.000000000               0.000000000               0.000000000               0.000951129               0.006866054               0.000654269              -0.000501582               0.002455856               0.001954274               0.000000000               0.000000000               0.000000000               0.000000000               0.000646536               0.006165605               0.000630451              -0.000528249               0.002231264               0.001703015               0.000000000               0.000000000               0.000000000               0.000000000               0.000400621               0.005538798               0.000601564              -0.000542116               0.002026953               0.001484837               0.000000000               0.000000000               0.000000000               0.000000000               0.000204755               0.004945161               0.000564055              -0.000541361               0.001828824               0.001287463               0.000000000               0.000000000               0.000000000               0.000000000               0.000053150               0.004356243               0.000520781              -0.000524598               0.001626932               0.001102334               0.000000000               0.000000000               0.000000000               0.000000000              -0.000051474               0.003759378               0.000476447              -0.000489224               0.001416188               0.000926964               0.000000000               0.000000000               0.000000000               0.000000000              -0.000114476               0.003144165               0.000430873              -0.000435948               0.001193360               0.000757412               0.000000000               0.000000000               0.000000000               0.000000000              -0.000140256               0.002503314               0.000376488              -0.000365510               0.000956266               0.000590756               0.000000000               0.000000000               0.000000000               0.000000000              -0.000128348               0.001824504               0.000297001              -0.000276193               0.000700226               0.000424033               0.000000000               0.000000000               0.000000000               0.000000000              -0.000077144               0.001085398               0.000172586              -0.000164603               0.000416663               0.000252060               0.000000000               0.000000000               0.000000000               0.000000000              -0.000100693               0.000532876               0.000107574              -0.000104369               0.000212413               0.000108044               0.000000000               0.000000000               0.000000000               0.000000000               0.002295409               0.020255297              -0.002681124              -0.001671131               0.007308742               0.005637611               0.000000000               0.000000000               0.000000000               0.000000000               0.001741486               0.015727150              -0.001163695              -0.001312834               0.005679942               0.004367108               0.000000000               0.000000000               0.000000000               0.000000000               0.001819224               0.012199416               0.000319119              -0.000842716               0.004347337               0.003504621               0.000000000               0.000000000               0.000000000               0.000000000               0.001447706               0.010166936               0.000903764              -0.000727976               0.003631603               0.002903628               0.000000000               0.000000000               0.000000000               0.000000000               0.001020785               0.008822822               0.001111165              -0.000720057               0.003180930               0.002460873               0.000000000               0.000000000               0.000000000               0.000000000               0.000650197               0.007830748               0.001156973              -0.000735018               0.002855229               0.002120211               0.000000000               0.000000000               0.000000000               0.000000000               0.000350462               0.007032177               0.001133156              -0.000747597               0.002593234               0.001845637               0.000000000               0.000000000               0.000000000               0.000000000               0.000117478               0.006347783               0.001083626              -0.000749417               0.002365712               0.001616295               0.000000000               0.000000000               0.000000000               0.000000000              -0.000054113               0.005726203               0.001025184              -0.000736066               0.002154070               0.001418004               0.000000000               0.000000000               0.000000000               0.000000000              -0.000175317               0.005135158               0.000955337              -0.000707637               0.001947581               0.001239944               0.000000000               0.000000000               0.000000000               0.000000000              -0.000249856               0.004556000               0.000877432              -0.000663195               0.001739716               0.001076521               0.000000000               0.000000000               0.000000000               0.000000000              -0.000282361               0.003981549               0.000795584              -0.000603578               0.001528362               0.000924784               0.000000000               0.000000000               0.000000000               0.000000000              -0.000280763               0.003408354               0.000709216              -0.000531329               0.001313216               0.000781887               0.000000000               0.000000000               0.000000000               0.000000000              -0.000247106               0.002836002               0.000608590              -0.000447164               0.001094379               0.000647215               0.000000000               0.000000000               0.000000000               0.000000000              -0.000185428               0.002261978               0.000467309              -0.000352282               0.000871413               0.000519130               0.000000000               0.000000000               0.000000000               0.000000000              -0.000101527               0.001685650               0.000263715              -0.000248778               0.000644804               0.000396025               0.000000000               0.000000000               0.000000000               0.000000000              -0.000095916               0.001289017               0.000160576              -0.000197095               0.000495366               0.000298271               0.000000000               0.000000000               0.000000000               0.000000000               0.002385076               0.018192094              -0.003519984              -0.001379607               0.006523839               0.005144232               0.000000000               0.000000000               0.000000000               0.000000000               0.001359347               0.014459818              -0.001517915              -0.001297720               0.005252464               0.003954745               0.000000000               0.000000000               0.000000000               0.000000000               0.000944470               0.011726660               0.000407076              -0.001111653               0.004279399               0.003167745               0.000000000               0.000000000               0.000000000               0.000000000               0.000438973               0.010066838               0.001115001              -0.001093738               0.003720158               0.002626421               0.000000000               0.000000000               0.000000000               0.000000000               0.000028444               0.008898692               0.001342049              -0.001101668               0.003333423               0.002231755               0.000000000               0.000000000               0.000000000               0.000000000              -0.000260565               0.007991175               0.001374594              -0.001096607               0.003029234               0.001932627               0.000000000               0.000000000               0.000000000               0.000000000              -0.000450457               0.007232485               0.001330791              -0.001072980               0.002768464               0.001695484               0.000000000               0.000000000               0.000000000               0.000000000              -0.000566278               0.006563261               0.001261352              -0.001032760               0.002531985               0.001499225               0.000000000               0.000000000               0.000000000               0.000000000              -0.000617714               0.005947681               0.001182293              -0.000975101               0.002307574               0.001332473               0.000000000               0.000000000               0.000000000               0.000000000              -0.000624368               0.005363666               0.001091981              -0.000904594               0.002089402               0.001184808               0.000000000               0.000000000               0.000000000               0.000000000              -0.000600675               0.004803162               0.000990424              -0.000825647               0.001876253               0.001050607               0.000000000               0.000000000               0.000000000               0.000000000              -0.000542743               0.004266052               0.000884103              -0.000736784               0.001667597               0.000930814               0.000000000               0.000000000               0.000000000               0.000000000              -0.000457997               0.003752575               0.000772852              -0.000640820               0.001464452               0.000823633               0.000000000               0.000000000               0.000000000               0.000000000              -0.000355028               0.003264798               0.000645588              -0.000541234               0.001268667               0.000727432               0.000000000               0.000000000               0.000000000               0.000000000              -0.000239190               0.002812214               0.000478269              -0.000441222               0.001084469               0.000643247               0.000000000               0.000000000               0.000000000               0.000000000              -0.000120349               0.002416520               0.000259710              -0.000347195               0.000921230               0.000574035               0.000000000               0.000000000               0.000000000               0.000000000              -0.000085836               0.002179363               0.000151092              -0.000304608               0.000827983               0.000523375               0.000000000               0.000000000               0.000000000               0.000000000               0.002294863               0.015678452              -0.003880875              -0.001099233               0.005592509               0.004493276               0.000000000               0.000000000               0.000000000               0.000000000               0.000781950               0.012946441              -0.001675723              -0.001325071               0.004757128               0.003432056               0.000000000               0.000000000               0.000000000               0.000000000              -0.000146550               0.011154847               0.000397298              -0.001449308               0.004201348               0.002752039               0.000000000               0.000000000               0.000000000               0.000000000              -0.000728130               0.009901603               0.001094979              -0.001510746               0.003804083               0.002293337               0.000000000               0.000000000               0.000000000               0.000000000              -0.001053681               0.008917111               0.001295091              -0.001509766               0.003475596               0.001965830               0.000000000               0.000000000               0.000000000               0.000000000              -0.001209033               0.008099397               0.001305196              -0.001465809               0.003188375               0.001722566               0.000000000               0.000000000               0.000000000               0.000000000              -0.001247206               0.007384940               0.001246457              -0.001390817               0.002925227               0.001534411               0.000000000               0.000000000               0.000000000               0.000000000              -0.001210748               0.006731661               0.001167208              -0.001295485               0.002675693               0.001380208               0.000000000               0.000000000               0.000000000               0.000000000              -0.001123272               0.006120190               0.001081085              -0.001186248               0.002435459               0.001249211               0.000000000               0.000000000               0.000000000               0.000000000              -0.001004192               0.005543140               0.000988992              -0.001069462               0.002204182               0.001134720               0.000000000               0.000000000               0.000000000               0.000000000              -0.000869642               0.005009467               0.000886471              -0.000952297               0.001987238               0.001034941               0.000000000               0.000000000               0.000000000               0.000000000              -0.000722111               0.004516407               0.000774870              -0.000835340               0.001783901               0.000948560               0.000000000               0.000000000               0.000000000               0.000000000              -0.000565798               0.004064469               0.000656961              -0.000720231               0.001594887               0.000874655               0.000000000               0.000000000               0.000000000               0.000000000              -0.000406061               0.003660326               0.000527391              -0.000609812               0.001423367               0.000813555               0.000000000               0.000000000               0.000000000               0.000000000              -0.000250996               0.003320425               0.000374911              -0.000509176               0.001276523               0.000767347               0.000000000               0.000000000               0.000000000               0.000000000              -0.000114780               0.003070767               0.000197235              -0.000426887               0.001165874               0.000738987               0.000000000               0.000000000               0.000000000               0.000000000              -0.000065132               0.002951077               0.000110227              -0.000393308               0.001114785               0.000721477               0.000000000               0.000000000               0.000000000               0.000000000               0.001887374               0.012963519              -0.003778866              -0.000912676               0.004625354               0.003712679               0.000000000               0.000000000               0.000000000               0.000000000               0.000005324               0.011350866              -0.001679884              -0.001416859               0.004255870               0.002839011               0.000000000               0.000000000               0.000000000               0.000000000              -0.001324147               0.010529734               0.000258196              -0.001812767               0.004114132               0.002301364               0.000000000               0.000000000               0.000000000               0.000000000              -0.001873249               0.009657691               0.000855455              -0.001909675               0.003855756               0.001946081               0.000000000               0.000000000               0.000000000               0.000000000              -0.002039182               0.008840510               0.001009060              -0.001869752               0.003570058               0.001700306               0.000000000               0.000000000               0.000000000               0.000000000              -0.002010223               0.008103041               0.001004441              -0.001766710               0.003289890               0.001523180               0.000000000               0.000000000               0.000000000               0.000000000              -0.001876240               0.007418343               0.000945581              -0.001630879               0.003016382               0.001385504               0.000000000               0.000000000               0.000000000               0.000000000              -0.001682792               0.006777654               0.000874391              -0.001478250               0.002751945               0.001273695               0.000000000               0.000000000               0.000000000               0.000000000              -0.001455996               0.006174753               0.000802976              -0.001317839               0.002497510               0.001179671               0.000000000               0.000000000               0.000000000               0.000000000              -0.001219329               0.005618734               0.000732249              -0.001159587               0.002259421               0.001099834               0.000000000               0.000000000               0.000000000               0.000000000              -0.000990807               0.005119099               0.000651088              -0.001011437               0.002043495               0.001032057               0.000000000               0.000000000               0.000000000               0.000000000              -0.000770659               0.004672743               0.000554308              -0.000873088               0.001848595               0.000975507               0.000000000               0.000000000               0.000000000               0.000000000              -0.000562187               0.004282608               0.000452563              -0.000746144               0.001676237               0.000930092               0.000000000               0.000000000               0.000000000               0.000000000              -0.000368278               0.003960102               0.000345166              -0.000633115               0.001531059               0.000897944               0.000000000               0.000000000               0.000000000               0.000000000              -0.000202944               0.003719069               0.000230529              -0.000540986               0.001420006               0.000879020               0.000000000               0.000000000               0.000000000               0.000000000              -0.000083707               0.003575409               0.000115349              -0.000478315               0.001351229               0.000872914               0.000000000               0.000000000               0.000000000               0.000000000              -0.000037385               0.003532593               0.000059524              -0.000455592               0.001329383               0.000873791               0.000000000               0.000000000               0.000000000               0.000000000               0.001104455               0.010278728              -0.003302345              -0.000870671               0.003716431               0.002845760               0.000000000               0.000000000               0.000000000               0.000000000              -0.000925109               0.009802937              -0.001587737              -0.001572280               0.003791706               0.002219426               0.000000000               0.000000000               0.000000000               0.000000000              -0.002455721               0.009878196              -0.000014063              -0.002155665               0.004011254               0.001855589               0.000000000               0.000000000               0.000000000               0.000000000              -0.002847586               0.009318877               0.000439022              -0.002232699               0.003850494               0.001617795               0.000000000               0.000000000               0.000000000               0.000000000              -0.002794136               0.008638154               0.000555488              -0.002127565               0.003588544               0.001460979               0.000000000               0.000000000               0.000000000               0.000000000              -0.002560271               0.007958822               0.000557899              -0.001954949               0.003304564               0.001349615               0.000000000               0.000000000               0.000000000               0.000000000              -0.002248921               0.007299124               0.000525231              -0.001755732               0.003018261               0.001262529               0.000000000               0.000000000               0.000000000               0.000000000              -0.001904540               0.006678487               0.000489741              -0.001549009               0.002742476               0.001193467               0.000000000               0.000000000               0.000000000               0.000000000              -0.001561944               0.006099515               0.000452669              -0.001348165               0.002482540               0.001134375               0.000000000               0.000000000               0.000000000               0.000000000              -0.001234125               0.005578571               0.000418445              -0.001160116               0.002246210               0.001086095               0.000000000               0.000000000               0.000000000               0.000000000              -0.000932248               0.005120703               0.000373096              -0.000989678               0.002036777               0.001047098               0.000000000               0.000000000               0.000000000               0.000000000              -0.000663088               0.004727531               0.000306371              -0.000839597               0.001855694               0.001016096               0.000000000               0.000000000               0.000000000               0.000000000              -0.000431295               0.004405755               0.000232867              -0.000712453               0.001706055               0.000993601               0.000000000               0.000000000               0.000000000               0.000000000              -0.000240791               0.004167703               0.000158806              -0.000611258               0.001592973               0.000981715               0.000000000               0.000000000               0.000000000               0.000000000              -0.000101325               0.004020950               0.000088301              -0.000540614               0.001520508               0.000979894               0.000000000               0.000000000               0.000000000               0.000000000              -0.000025987               0.003965044               0.000034569              -0.000505374               0.001490126               0.000984752               0.000000000               0.000000000               0.000000000               0.000000000               0.000002724               0.003974152               0.000009617              -0.000495746               0.001489953               0.000994206               0.000000000               0.000000000               0.000000000               0.000000000              -0.000009174               0.007807625              -0.002560739              -0.000979393               0.002928979               0.001949586               0.000000000               0.000000000               0.000000000               0.000000000              -0.001948391               0.008390426              -0.001449840              -0.001779446               0.003389929               0.001610483               0.000000000               0.000000000               0.000000000               0.000000000              -0.003426306               0.009188518              -0.000408689              -0.002433424               0.003873950               0.001440526               0.000000000               0.000000000               0.000000000               0.000000000              -0.003553298               0.008871247              -0.000088790              -0.002441387               0.003770848               0.001329462               0.000000000               0.000000000               0.000000000               0.000000000              -0.003256729               0.008305564               0.000025608              -0.002259463               0.003521648               0.001262185               0.000000000               0.000000000               0.000000000               0.000000000              -0.002822953               0.007679744               0.000068855              -0.002018570               0.003232746               0.001214175               0.000000000               0.000000000               0.000000000               0.000000000              -0.002350884               0.007057878               0.000089659              -0.001763812               0.002940540               0.001176728               0.000000000               0.000000000               0.000000000               0.000000000              -0.001885187               0.006468194               0.000104436              -0.001515466               0.002661198               0.001145733               0.000000000               0.000000000               0.000000000               0.000000000              -0.001453967               0.005931436               0.000109790              -0.001286664               0.002406014               0.001119350               0.000000000               0.000000000               0.000000000               0.000000000              -0.001063853               0.005459662               0.000114459              -0.001081400               0.002180336               0.001098936               0.000000000               0.000000000               0.000000000               0.000000000              -0.000714615               0.005054778               0.000109272              -0.000899826               0.001984851               0.001085025               0.000000000               0.000000000               0.000000000               0.000000000              -0.000422190               0.004729031               0.000081733              -0.000749448               0.001826144               0.001076696               0.000000000               0.000000000               0.000000000               0.000000000              -0.000196387               0.004494634               0.000046127              -0.000635473               0.001710021               0.001074548               0.000000000               0.000000000               0.000000000               0.000000000              -0.000040647               0.004357634               0.000014054              -0.000559945               0.001639179               0.001079233               0.000000000               0.000000000               0.000000000               0.000000000               0.000039626               0.004312854              -0.000010311              -0.000524246               0.001612352               0.001088106               0.000000000               0.000000000               0.000000000               0.000000000               0.000046599               0.004340284              -0.000015472              -0.000525059               0.001621767               0.001096707               0.000000000               0.000000000               0.000000000               0.000000000               0.000039868               0.004386652              -0.000017308              -0.000533380               0.001639996               0.001106616               0.000000000               0.000000000               0.000000000               0.000000000              -0.001316730               0.005725348              -0.001675565              -0.001209440               0.002311577               0.001102137               0.000000000               0.000000000               0.000000000               0.000000000              -0.002949903               0.007118035              -0.001310785              -0.001995963               0.003037975               0.001042012               0.000000000               0.000000000               0.000000000               0.000000000              -0.004194499               0.008471339              -0.000886196              -0.002631848               0.003701034               0.001069186               0.000000000               0.000000000               0.000000000               0.000000000              -0.004042568               0.008411168              -0.000647909              -0.002567352               0.003659479               0.001092126               0.000000000               0.000000000               0.000000000               0.000000000              -0.003542259               0.007985844              -0.000504135              -0.002326572               0.003437445               0.001110873               0.000000000               0.000000000               0.000000000               0.000000000              -0.002948492               0.007444756              -0.000400982              -0.002036274               0.003160318               0.001124045               0.000000000               0.000000000               0.000000000               0.000000000              -0.002351385               0.006880274              -0.000320763              -0.001741799               0.002874001               0.001132202               0.000000000               0.000000000               0.000000000               0.000000000              -0.001798132               0.006337571              -0.000254487              -0.001466492               0.002601333               0.001134841               0.000000000               0.000000000               0.000000000               0.000000000              -0.001295897               0.005851488              -0.000202804              -0.001217394               0.002356275               0.001138880               0.000000000               0.000000000               0.000000000               0.000000000              -0.000854483               0.005428404              -0.000159323              -0.000998979               0.002142443               0.001143464               0.000000000               0.000000000               0.000000000               0.000000000              -0.000475964               0.005075625              -0.000122913              -0.000812938               0.001962837               0.001149900               0.000000000               0.000000000               0.000000000               0.000000000              -0.000171738               0.004807477              -0.000099851              -0.000665335               0.001824255               0.001158920               0.000000000               0.000000000               0.000000000               0.000000000               0.000045425               0.004637456              -0.000084248              -0.000562646               0.001733352               0.001170706               0.000000000               0.000000000               0.000000000               0.000000000               0.000173641               0.004568511              -0.000067227              -0.000505947               0.001691471               0.001185524               0.000000000               0.000000000               0.000000000               0.000000000               0.000218288               0.004594881              -0.000045381              -0.000492501               0.001695779               0.001203278               0.000000000               0.000000000               0.000000000               0.000000000               0.000193924               0.004686954              -0.000021226              -0.000513146               0.001733351               0.001220205               0.000000000               0.000000000               0.000000000               0.000000000               0.000157142               0.004748882              -0.000008842              -0.000534681               0.001761172               0.001226491               0.000000000               0.000000000               0.000000000               0.000000000              -0.002808181               0.003789670              -0.000757829              -0.001526773               0.001772135               0.000245362               0.000000000               0.000000000               0.000000000               0.000000000              -0.003786396               0.005626382              -0.001164383              -0.002123191               0.002583172               0.000459981               0.000000000               0.000000000               0.000000000               0.000000000              -0.004666541               0.007380539              -0.001382449              -0.002672514               0.003350993               0.000678479               0.000000000               0.000000000               0.000000000               0.000000000              -0.004364673               0.007702998              -0.001229362              -0.002599621               0.003434180               0.000834559               0.000000000               0.000000000               0.000000000               0.000000000              -0.003781765               0.007546683              -0.001053723              -0.002361492               0.003302700               0.000941208               0.000000000               0.000000000               0.000000000               0.000000000              -0.003139596               0.007206668              -0.000894955              -0.002078177               0.003094924               0.001016747               0.000000000               0.000000000               0.000000000               0.000000000              -0.002500506               0.006789956              -0.000757731              -0.001786430               0.002858773               0.001072343               0.000000000               0.000000000               0.000000000               0.000000000              -0.001907503               0.006360236              -0.000641871              -0.001510340               0.002623504               0.001113164               0.000000000               0.000000000               0.000000000               0.000000000              -0.001367250               0.005957310              -0.000546297              -0.001257379               0.002404876               0.001147497               0.000000000               0.000000000               0.000000000               0.000000000              -0.000887483               0.005599683              -0.000460864              -0.001032764               0.002210797               0.001178033               0.000000000               0.000000000               0.000000000               0.000000000              -0.000471134               0.005302447              -0.000380467              -0.000839479               0.002047291               0.001207812               0.000000000               0.000000000               0.000000000               0.000000000              -0.000128024               0.005069130              -0.000303257              -0.000681648               0.001916909               0.001235261               0.000000000               0.000000000               0.000000000               0.000000000               0.000129828               0.004899515              -0.000232378              -0.000563753               0.001821073               0.001257320               0.000000000               0.000000000               0.000000000               0.000000000               0.000298522               0.004803075              -0.000164079              -0.000488438               0.001763822               0.001275384               0.000000000               0.000000000               0.000000000               0.000000000               0.000381760               0.004796773              -0.000094447              -0.000456435               0.001751053               0.001294618               0.000000000               0.000000000               0.000000000               0.000000000               0.000394476               0.004873519              -0.000036814              -0.000461260               0.001778243               0.001316983               0.000000000               0.000000000               0.000000000               0.000000000               0.000365496               0.004918039              -0.000006505              -0.000477693               0.001798561               0.001320868               0.000000000               0.000000000               0.000000000               0.000000000              -0.004671752               0.002049178               0.000120176              -0.002008051               0.001352400              -0.000655650               0.000000000               0.000000000               0.000000000               0.000000000              -0.004721051               0.004119307              -0.000957795              -0.002285303               0.002134855              -0.000150448               0.000000000               0.000000000               0.000000000               0.000000000              -0.005053234               0.006076504              -0.001778198              -0.002654520               0.002910320               0.000255801               0.000000000               0.000000000               0.000000000               0.000000000              -0.004620345               0.006757312              -0.001777455              -0.002577287               0.003111510               0.000534223               0.000000000               0.000000000               0.000000000               0.000000000              -0.003987228               0.006911386              -0.001604742              -0.002359128               0.003090148               0.000731020               0.000000000               0.000000000               0.000000000               0.000000000              -0.003325753               0.006812393              -0.001409334              -0.002098702               0.002970342               0.000871640               0.000000000               0.000000000               0.000000000               0.000000000              -0.002679871               0.006581636              -0.001227081              -0.001827652               0.002803074               0.000975422               0.000000000               0.000000000               0.000000000               0.000000000              -0.002062166               0.006294408              -0.001072154              -0.001560110               0.002618152               0.001058042               0.000000000               0.000000000               0.000000000               0.000000000              -0.001487999               0.006001801              -0.000938023              -0.001308222               0.002436654               0.001128432               0.000000000               0.000000000               0.000000000               0.000000000              -0.000965294               0.005729662              -0.000812711              -0.001078191               0.002269265               0.001191075               0.000000000               0.000000000               0.000000000               0.000000000              -0.000502199               0.005490148              -0.000690906              -0.000874591               0.002121561               0.001246970               0.000000000               0.000000000               0.000000000               0.000000000              -0.000104306               0.005289855              -0.000569148              -0.000700345               0.001996716               0.001296371               0.000000000               0.000000000               0.000000000               0.000000000               0.000223941               0.005127832              -0.000450193              -0.000557000               0.001894927               0.001337927               0.000000000               0.000000000               0.000000000               0.000000000               0.000467112               0.005003858              -0.000328658              -0.000450314               0.001818041               0.001367726               0.000000000               0.000000000               0.000000000               0.000000000               0.000620792               0.004939051              -0.000203278              -0.000384583               0.001774528               0.001389945               0.000000000               0.000000000               0.000000000               0.000000000               0.000684393               0.004945589              -0.000090575              -0.000361550               0.001769030               0.001407480               0.000000000               0.000000000               0.000000000               0.000000000               0.000675258               0.004952911              -0.000034505              -0.000365891               0.001772918               0.001407026               0.000000000               0.000000000               0.000000000               0.000000000              -0.006779831               0.000662944               0.000872070              -0.002625302               0.001096074              -0.001529227               0.000000000               0.000000000               0.000000000               0.000000000              -0.005801576               0.002704050              -0.000682537              -0.002513593               0.001739203              -0.000774391               0.000000000               0.000000000               0.000000000               0.000000000              -0.005379859               0.004585186              -0.001972546              -0.002590590               0.002391908              -0.000198681               0.000000000               0.000000000               0.000000000               0.000000000              -0.004729246               0.005509290              -0.002162617              -0.002462123               0.002657118               0.000194995               0.000000000               0.000000000               0.000000000               0.000000000              -0.004032031               0.005941057              -0.002044189              -0.002254639               0.002731878               0.000477240               0.000000000               0.000000000               0.000000000               0.000000000              -0.003352622               0.006091472              -0.001843856              -0.002018663               0.002703357               0.000684695               0.000000000               0.000000000               0.000000000               0.000000000              -0.002709437               0.006072213              -0.001640412              -0.001775061               0.002615738               0.000840676               0.000000000               0.000000000               0.000000000               0.000000000              -0.002090948               0.005958658              -0.001462235              -0.001528934               0.002495844               0.000966910               0.000000000               0.000000000               0.000000000               0.000000000              -0.001503882               0.005801175              -0.001304643              -0.001289100               0.002363405               0.001074306               0.000000000               0.000000000               0.000000000               0.000000000              -0.000953421               0.005637077              -0.001153844              -0.001062165               0.002233062               0.001170897               0.000000000               0.000000000               0.000000000               0.000000000              -0.000446859               0.005487992              -0.001002869              -0.000853569               0.002113835               0.001260266               0.000000000               0.000000000               0.000000000               0.000000000               0.000008590               0.005350732              -0.000854913              -0.000665619               0.002005432               0.001339813               0.000000000               0.000000000               0.000000000               0.000000000               0.000405457               0.005228347              -0.000703705              -0.000501496               0.001909930               0.001408434               0.000000000               0.000000000               0.000000000               0.000000000               0.000727510               0.005122282              -0.000537331              -0.000367468               0.001829900               0.001462431               0.000000000               0.000000000               0.000000000               0.000000000               0.000962790               0.005042423              -0.000356862              -0.000269256               0.001770543               0.001501287               0.000000000               0.000000000               0.000000000               0.000000000               0.001099197               0.005003489              -0.000174805              -0.000213237               0.001738892               0.001525655               0.000000000               0.000000000               0.000000000               0.000000000               0.001129355               0.004989145              -0.000084154              -0.000200135               0.001729743               0.001529609               0.000000000               0.000000000               0.000000000               0.000000000              -0.008992034              -0.000300193               0.001374258              -0.003334486               0.001011424              -0.002323062               0.000000000               0.000000000               0.000000000               0.000000000              -0.006961494               0.001465215              -0.000394673              -0.002793709               0.001419631              -0.001374077               0.000000000               0.000000000               0.000000000               0.000000000              -0.005673430               0.003041156              -0.001941220              -0.002507676               0.001849598              -0.000658079               0.000000000               0.000000000               0.000000000               0.000000000              -0.004720403               0.004066648              -0.002295208              -0.002278478               0.002115027              -0.000163451               0.000000000               0.000000000               0.000000000               0.000000000              -0.003929214               0.004708656              -0.002256393              -0.002062033               0.002256880               0.000194847               0.000000000               0.000000000               0.000000000               0.000000000              -0.003223262               0.005085013              -0.002088582              -0.001844346               0.002309769               0.000465423               0.000000000               0.000000000               0.000000000               0.000000000              -0.002577559               0.005276295              -0.001895361              -0.001626118               0.002300786               0.000674668               0.000000000               0.000000000               0.000000000               0.000000000              -0.001968450               0.005352132              -0.001715127              -0.001407182               0.002253086               0.000845904               0.000000000               0.000000000               0.000000000               0.000000000              -0.001387505               0.005355642              -0.001549379              -0.001189767               0.002181785               0.000992018               0.000000000               0.000000000               0.000000000               0.000000000              -0.000828496               0.005321540              -0.001391643              -0.000975877               0.002099121               0.001123244               0.000000000               0.000000000               0.000000000               0.000000000              -0.000290015               0.005276659              -0.001236390              -0.000768337               0.002014981               0.001246644               0.000000000               0.000000000               0.000000000               0.000000000               0.000219126               0.005227856              -0.001081098              -0.000571309               0.001933037               0.001361728               0.000000000               0.000000000               0.000000000               0.000000000               0.000684467               0.005177249              -0.000915128              -0.000390480               0.001855892               0.001465412               0.000000000               0.000000000               0.000000000               0.000000000               0.001096714               0.005123277              -0.000725344              -0.000229142               0.001784122               0.001554981               0.000000000               0.000000000               0.000000000               0.000000000               0.001440141               0.005069894              -0.000508434              -0.000093684               0.001721176               0.001627492               0.000000000               0.000000000               0.000000000               0.000000000               0.001693727               0.005029181              -0.000264541               0.000006499               0.001674210               0.001680710               0.000000000               0.000000000               0.000000000               0.000000000               0.001807515               0.005019649              -0.000141164               0.000050361               0.001656413               0.001706774               0.000000000               0.000000000               0.000000000               0.000000000              -0.011109813              -0.000882871               0.001525808              -0.004055818               0.001057641              -0.002998177               0.000000000               0.000000000               0.000000000               0.000000000              -0.008101244               0.000468642              -0.000161397              -0.003096544               0.001188387              -0.001908157               0.000000000               0.000000000               0.000000000               0.000000000              -0.005942443               0.001602052              -0.001689302              -0.002428670               0.001343564              -0.001085105               0.000000000               0.000000000               0.000000000               0.000000000              -0.004642673               0.002599674              -0.002122259              -0.002065958               0.001555199              -0.000510759               0.000000000               0.000000000               0.000000000               0.000000000              -0.003723374               0.003368194              -0.002156374              -0.001817286               0.001728481              -0.000088805               0.000000000               0.000000000               0.000000000               0.000000000              -0.002976019               0.003925288              -0.002042431              -0.001606665               0.001843970               0.000237305               0.000000000               0.000000000               0.000000000               0.000000000              -0.002323094               0.004304805              -0.001886081              -0.001409258               0.001904673               0.000495414               0.000000000               0.000000000               0.000000000               0.000000000              -0.001725290               0.004561292              -0.001726912              -0.001217143               0.001926129               0.000708986               0.000000000               0.000000000               0.000000000               0.000000000              -0.001159844               0.004727333              -0.001575092              -0.001025856               0.001917714               0.000891857               0.000000000               0.000000000               0.000000000               0.000000000              -0.000603462               0.004832378              -0.001433776              -0.000830344               0.001887557               0.001057213               0.000000000               0.000000000               0.000000000               0.000000000              -0.000049842               0.004901667              -0.001293849              -0.000631398               0.001844339               0.001212940               0.000000000               0.000000000               0.000000000               0.000000000               0.000494645               0.004956938              -0.001149694              -0.000434125               0.001797004               0.001362879               0.000000000               0.000000000               0.000000000               0.000000000               0.001025663               0.005000034              -0.000995750              -0.000240381               0.001746788               0.001506407               0.000000000               0.000000000               0.000000000               0.000000000               0.001537029               0.005019276              -0.000817862              -0.000051024               0.001690083               0.001639059               0.000000000               0.000000000               0.000000000               0.000000000               0.002018089               0.005023448              -0.000599293               0.000128851               0.001631516               0.001760366               0.000000000               0.000000000               0.000000000               0.000000000               0.002444445               0.005020016              -0.000326667               0.000289162               0.001576934               0.001866096               0.000000000               0.000000000               0.000000000               0.000000000               0.002695910               0.005038769              -0.000187939               0.000381116               0.001552534               0.001933650               0.000000000               0.000000000               0.000000000               0.000000000              -0.012880806              -0.001176674               0.001297947              -0.004683215               0.001168839              -0.003514376               0.000000000               0.000000000               0.000000000               0.000000000              -0.009077867              -0.000250888              -0.000022071              -0.003372837               0.001040642              -0.002332194               0.000000000               0.000000000               0.000000000               0.000000000              -0.006171786               0.000426858              -0.001245453              -0.002367775               0.000931537              -0.001436237               0.000000000               0.000000000               0.000000000               0.000000000              -0.004539705               0.001323921              -0.001636288              -0.001867877               0.001063925              -0.000803952               0.000000000               0.000000000               0.000000000               0.000000000              -0.003474926               0.002148160              -0.001707633              -0.001571615               0.001239916              -0.000331699               0.000000000               0.000000000               0.000000000               0.000000000              -0.002678176               0.002829020              -0.001648420              -0.001357941               0.001395643               0.000037703               0.000000000               0.000000000               0.000000000               0.000000000              -0.002019468               0.003352884              -0.001542532              -0.001176409               0.001509752               0.000333344               0.000000000               0.000000000               0.000000000               0.000000000              -0.001435075               0.003749554              -0.001425405              -0.001006846               0.001585454               0.000578608               0.000000000               0.000000000               0.000000000               0.000000000              -0.000882657               0.004052034              -0.001311725              -0.000837499               0.001629830               0.000792331               0.000000000               0.000000000               0.000000000               0.000000000              -0.000336236               0.004282258              -0.001206307              -0.000661370               0.001647861               0.000986492               0.000000000               0.000000000               0.000000000               0.000000000               0.000219320               0.004468164              -0.001097156              -0.000476275               0.001648131               0.001171856               0.000000000               0.000000000               0.000000000               0.000000000               0.000791573               0.004630533              -0.000985501              -0.000281977               0.001637488               0.001355511               0.000000000               0.000000000               0.000000000               0.000000000               0.001382078               0.004764849              -0.000869062              -0.000077327               0.001614043               0.001536716               0.000000000               0.000000000               0.000000000               0.000000000               0.001987720               0.004871537              -0.000731374               0.000136451               0.001578346               0.001714797               0.000000000               0.000000000               0.000000000               0.000000000               0.002611118               0.004950724              -0.000553306               0.000360325               0.001530116               0.001890442               0.000000000               0.000000000               0.000000000               0.000000000               0.003248468               0.004992686              -0.000312197               0.000594084               0.001466184               0.002060268               0.000000000               0.000000000               0.000000000               0.000000000               0.003686378               0.005046835              -0.000189494               0.000751530               0.001431752               0.002183281               0.000000000               0.000000000               0.000000000               0.000000000              -0.014067318              -0.001292871               0.000740543              -0.005113632               0.001273578              -0.003840054               0.000000000               0.000000000               0.000000000               0.000000000              -0.009741706              -0.000683157               0.000017977              -0.003567743               0.000961522              -0.002606221               0.000000000               0.000000000               0.000000000               0.000000000              -0.006328993              -0.000347473              -0.000660697              -0.002329937               0.000660817              -0.001669120               0.000000000               0.000000000               0.000000000               0.000000000              -0.004453894               0.000449693              -0.000892643              -0.001726420               0.000725366              -0.001001054               0.000000000               0.000000000               0.000000000               0.000000000              -0.003273457               0.001287581              -0.000947976              -0.001388492               0.000892018              -0.000496474               0.000000000               0.000000000               0.000000000               0.000000000              -0.002435863               0.002035597              -0.000925627              -0.001167896               0.001067823              -0.000100072               0.000000000               0.000000000               0.000000000               0.000000000              -0.001768501               0.002653753              -0.000872781              -0.000994905               0.001216210               0.000221305               0.000000000               0.000000000               0.000000000               0.000000000              -0.001188710               0.003138531              -0.000812287              -0.000838081               0.001325527               0.000487446               0.000000000               0.000000000               0.000000000               0.000000000              -0.000644096               0.003521953              -0.000752974              -0.000681779               0.001401232               0.000719453               0.000000000               0.000000000               0.000000000               0.000000000              -0.000105873               0.003839923              -0.000696769              -0.000519692               0.001453192               0.000933500               0.000000000               0.000000000               0.000000000               0.000000000               0.000449564               0.004113319              -0.000636250              -0.000345578               0.001486285               0.001140707               0.000000000               0.000000000               0.000000000               0.000000000               0.001041246               0.004354638              -0.000575216              -0.000153862               0.001502819               0.001348957               0.000000000               0.000000000               0.000000000               0.000000000               0.001672054               0.004559337              -0.000511021               0.000057102               0.001500730               0.001557832               0.000000000               0.000000000               0.000000000               0.000000000               0.002349481               0.004730633              -0.000432773               0.000289723               0.001480288               0.001770011               0.000000000               0.000000000               0.000000000               0.000000000               0.003086951               0.004865612              -0.000333240               0.000549400               0.001438721               0.001988121               0.000000000               0.000000000               0.000000000               0.000000000               0.003901125               0.004950098              -0.000192341               0.000844151               0.001368632               0.002212784               0.000000000               0.000000000               0.000000000               0.000000000               0.004505736               0.005040380              -0.000120134               0.001059593               0.001326912               0.002386505               0.000000000               0.000000000               0.000000000               0.000000000               0.000000000               0.000000000               0.000000000               0.000000000               0.000000000               0.000000000               0.000000000               0.000000000               0.000000000               0.000000000               0.000000000               0.000000000               0.000000000               0.000000000               0.000000000               0.000000000               0.000000000               0.000000000               0.000000000               0.000000000               0.000000000               0.000000000               0.000000000               0.000000000               0.000000000               0.000000000               0.000000000               0.000000000               0.000000000               0.000000000               0.000000000               0.000000000               0.000000000               0.000000000               0.000000000               0.000000000               0.000000000               0.000000000               0.000000000               0.000000000               0.000000000               0.000000000               0.000000000               0.000000000               0.000000000               0.000000000               0.000000000               0.000000000               0.000000000               0.000000000               0.000000000               0.000000000               0.000000000               0.000000000               0.000000000               0.000000000               0.000000000               0.000000000               0.000000000               0.000000000               0.000000000               0.000000000               0.000000000               0.000000000               0.000000000               0.000000000               0.000000000               0.000000000               0.000000000               0.000000000               0.000000000               0.000000000               0.000000000               0.000000000               0.000000000               0.000000000               0.000000000               0.000000000               0.000000000               0.000000000               0.000000000               0.000000000               0.000000000               0.000000000               0.000000000               0.000000000               0.000000000               0.000000000               0.000000000               0.000000000               0.000000000               0.000000000               0.000000000               0.000000000               0.000000000               0.000000000               0.000000000               0.000000000               0.000000000               0.000000000               0.000000000               0.000000000               0.000000000               0.000000000               0.000000000               0.000000000               0.000000000               0.000000000               0.000000000               0.000000000               0.000000000               0.000000000               0.000000000               0.000000000               0.000000000               0.000000000               0.000000000               0.000000000               0.000000000               0.000000000               0.000000000               0.000000000               0.000000000               0.000000000               0.000000000               0.000000000               0.000000000               0.000000000               0.000000000               0.000000000               0.000000000               0.000000000               0.000000000               0.000000000               0.000000000               0.000000000               0.000000000               0.000000000               0.000000000               0.000000000               0.000000000               0.000000000               0.000000000               0.000000000               0.000000000               0.000000000               0.000000000               0.000000000               0.000000000               0.000000000               0.000000000               0.000000000               0.000000000               0.000000000               0.000000000               0.000000000               0.000000000               0.000000000               0.000000000               0.000000000               0.000000000               0.000000000               0.000000000               0.000000000               0.000000000               0.000000000               0.000000000               0.000000000               0.000000000               0.000000000               0.000000000               0.000000000               0.000000000               0.000000000               0.000000000               0.000000000               0.000000000               0.000000000               0.000000000               0.000000000               0.000000000               0.000000000               0.000000000               0.000000000               0.000000000               0.000000000               0.000000000               0.000000000               0.000000000               0.000000000               0.000000000               0.000000000               0.000000000               0.000000000               0.000000000               0.000000000               0.000000000               0.000000000               0.000000000               0.000000000               0.000000000               0.000000000               0.000000000               0.000000000               0.000000000               0.000000000               0.000000000               0.000000000               0.000000000               0.000000000               0.000000000               0.000000000               0.000000000               0.000000000               0.000000000               0.000000000               0.000000000               0.000000000               0.000000000               0.000000000               0.000000000               0.000000000               0.000000000               0.000000000               0.000000000               0.000000000               0.000000000               0.000000000               0.000000000               0.000000000               0.000000000               0.000000000               0.000000000               0.000000000               0.000000000               0.000000000               0.000000000               0.000000000               0.000000000               0.000000000               0.000000000               0.000000000               0.000000000               0.000000000               0.000000000               0.000000000               0.000000000               0.000000000               0.000000000               0.000000000               0.000000000               0.000000000               0.000000000               0.000000000               0.000000000               0.000000000               0.000000000               0.000000000               0.000000000               0.000000000               0.000000000               0.000000000               0.000000000               0.000000000               0.000000000               0.000000000               0.000000000               0.000000000               0.000000000               0.000000000               0.000000000               0.000000000               0.000000000               0.000000000               0.000000000               0.000000000               0.000000000               0.000000000               0.000000000               0.000000000               0.000000000               0.000000000               0.000000000               0.000000000               0.000000000               0.000000000               0.000000000               0.000000000               0.000000000               0.000000000               0.000000000               0.000000000               0.000000000               0.000000000               0.000000000               0.000000000               0.000000000               0.000000000               0.000000000               0.000000000               0.000000000               0.000000000               0.000000000               0.000000000               0.000000000               0.000000000               0.000000000               0.000000000               0.000000000               0.000000000               0.000000000               0.000000000               0.000000000               0.000000000               0.000000000               0.000000000               0.000000000               0.000000000               0.000000000               0.000000000               0.000000000               0.000000000               0.000000000               0.000000000               0.000000000               0.000000000               0.000000000               0.000000000               0.000000000               0.000000000               0.000000000               0.000000000               0.000000000               0.000000000               0.000000000               0.000000000               0.000000000               0.000000000               0.000000000               0.000000000               0.002165968               0.021619435               0.001452655              -0.001890187               0.007836469               0.005946281               0.000000000               0.000000000               0.000000000               0.000000000               0.001951850               0.016576642               0.000633522              -0.001340133               0.005972203               0.004632070               0.000000000               0.000000000               0.000000000               0.000000000               0.002387170               0.012518035              -0.000173287              -0.000669564               0.004395825               0.003726261               0.000000000               0.000000000               0.000000000               0.000000000               0.002136153               0.010217403              -0.000503727              -0.000476117               0.003564472               0.003088356               0.000000000               0.000000000               0.000000000               0.000000000               0.001721793               0.008743736              -0.000628701              -0.000447294               0.003063647               0.002616354               0.000000000               0.000000000               0.000000000               0.000000000               0.001311474               0.007691681              -0.000661981              -0.000469657               0.002720420               0.002250763               0.000000000               0.000000000               0.000000000               0.000000000               0.000951129               0.006866054              -0.000654269              -0.000501582               0.002455856               0.001954274               0.000000000               0.000000000               0.000000000               0.000000000               0.000646536               0.006165605              -0.000630451              -0.000528249               0.002231264               0.001703015               0.000000000               0.000000000               0.000000000               0.000000000               0.000400621               0.005538798              -0.000601564              -0.000542116               0.002026953               0.001484837               0.000000000               0.000000000               0.000000000               0.000000000               0.000204755               0.004945161              -0.000564055              -0.000541361               0.001828824               0.001287463               0.000000000               0.000000000               0.000000000               0.000000000               0.000053150               0.004356243              -0.000520781              -0.000524598               0.001626932               0.001102334               0.000000000               0.000000000               0.000000000               0.000000000              -0.000051474               0.003759378              -0.000476447              -0.000489224               0.001416188               0.000926964               0.000000000               0.000000000               0.000000000               0.000000000              -0.000114476               0.003144165              -0.000430873              -0.000435948               0.001193360               0.000757412               0.000000000               0.000000000               0.000000000               0.000000000              -0.000140256               0.002503314              -0.000376488              -0.000365510               0.000956266               0.000590756               0.000000000               0.000000000               0.000000000               0.000000000              -0.000128348               0.001824504              -0.000297001              -0.000276193               0.000700226               0.000424033               0.000000000               0.000000000               0.000000000               0.000000000              -0.000077144               0.001085398              -0.000172586              -0.000164603               0.000416663               0.000252060               0.000000000               0.000000000               0.000000000               0.000000000              -0.000100693               0.000532876              -0.000107574              -0.000104369               0.000212413               0.000108044               0.000000000               0.000000000               0.000000000               0.000000000               0.002295409               0.020255297               0.002681124              -0.001671131               0.007308742               0.005637611               0.000000000               0.000000000               0.000000000               0.000000000               0.001741486               0.015727150               0.001163695              -0.001312834               0.005679942               0.004367108               0.000000000               0.000000000               0.000000000               0.000000000               0.001819224               0.012199416              -0.000319119              -0.000842716               0.004347337               0.003504621               0.000000000               0.000000000               0.000000000               0.000000000               0.001447706               0.010166936              -0.000903764              -0.000727976               0.003631603               0.002903628               0.000000000               0.000000000               0.000000000               0.000000000               0.001020785               0.008822822              -0.001111165              -0.000720057               0.003180930               0.002460873               0.000000000               0.000000000               0.000000000               0.000000000               0.000650197               0.007830748              -0.001156973              -0.000735018               0.002855229               0.002120211               0.000000000               0.000000000               0.000000000               0.000000000               0.000350462               0.007032177              -0.001133156              -0.000747597               0.002593234               0.001845637               0.000000000               0.000000000               0.000000000               0.000000000               0.000117478               0.006347783              -0.001083626              -0.000749417               0.002365712               0.001616295               0.000000000               0.000000000               0.000000000               0.000000000              -0.000054113               0.005726203              -0.001025184              -0.000736066               0.002154070               0.001418004               0.000000000               0.000000000               0.000000000               0.000000000              -0.000175317               0.005135158              -0.000955337              -0.000707637               0.001947581               0.001239944               0.000000000               0.000000000               0.000000000               0.000000000              -0.000249856               0.004556000              -0.000877432              -0.000663195               0.001739716               0.001076521               0.000000000               0.000000000               0.000000000               0.000000000              -0.000282361               0.003981549              -0.000795584              -0.000603578               0.001528362               0.000924784               0.000000000               0.000000000               0.000000000               0.000000000              -0.000280763               0.003408354              -0.000709216              -0.000531329               0.001313216               0.000781887               0.000000000               0.000000000               0.000000000               0.000000000              -0.000247106               0.002836002              -0.000608590              -0.000447164               0.001094379               0.000647215               0.000000000               0.000000000               0.000000000               0.000000000              -0.000185428               0.002261978              -0.000467309              -0.000352282               0.000871413               0.000519130               0.000000000               0.000000000               0.000000000               0.000000000              -0.000101527               0.001685650              -0.000263715              -0.000248778               0.000644804               0.000396025               0.000000000               0.000000000               0.000000000               0.000000000              -0.000095916               0.001289017              -0.000160576              -0.000197095               0.000495366               0.000298271               0.000000000               0.000000000               0.000000000               0.000000000               0.002385076               0.018192094               0.003519984              -0.001379607               0.006523839               0.005144232               0.000000000               0.000000000               0.000000000               0.000000000               0.001359347               0.014459818               0.001517915              -0.001297720               0.005252464               0.003954745               0.000000000               0.000000000               0.000000000               0.000000000               0.000944470               0.011726660              -0.000407076              -0.001111653               0.004279399               0.003167745               0.000000000               0.000000000               0.000000000               0.000000000               0.000438973               0.010066838              -0.001115001              -0.001093738               0.003720158               0.002626421               0.000000000               0.000000000               0.000000000               0.000000000               0.000028444               0.008898692              -0.001342049              -0.001101668               0.003333423               0.002231755               0.000000000               0.000000000               0.000000000               0.000000000              -0.000260565               0.007991175              -0.001374594              -0.001096607               0.003029234               0.001932627               0.000000000               0.000000000               0.000000000               0.000000000              -0.000450457               0.007232485              -0.001330791              -0.001072980               0.002768464               0.001695484               0.000000000               0.000000000               0.000000000               0.000000000              -0.000566278               0.006563261              -0.001261352              -0.001032760               0.002531985               0.001499225               0.000000000               0.000000000               0.000000000               0.000000000              -0.000617714               0.005947681              -0.001182293              -0.000975101               0.002307574               0.001332473               0.000000000               0.000000000               0.000000000               0.000000000              -0.000624368               0.005363666              -0.001091981              -0.000904594               0.002089402               0.001184808               0.000000000               0.000000000               0.000000000               0.000000000              -0.000600675               0.004803162              -0.000990424              -0.000825647               0.001876253               0.001050607               0.000000000               0.000000000               0.000000000               0.000000000              -0.000542743               0.004266052              -0.000884103              -0.000736784               0.001667597               0.000930814               0.000000000               0.000000000               0.000000000               0.000000000              -0.000457997               0.003752575              -0.000772852              -0.000640820               0.001464452               0.000823633               0.000000000               0.000000000               0.000000000               0.000000000              -0.000355028               0.003264798              -0.000645588              -0.000541234               0.001268667               0.000727432               0.000000000               0.000000000               0.000000000               0.000000000              -0.000239190               0.002812214              -0.000478269              -0.000441222               0.001084469               0.000643247               0.000000000               0.000000000               0.000000000               0.000000000              -0.000120349               0.002416520              -0.000259710              -0.000347195               0.000921230               0.000574035               0.000000000               0.000000000               0.000000000               0.000000000              -0.000085836               0.002179363              -0.000151092              -0.000304608               0.000827983               0.000523375               0.000000000               0.000000000               0.000000000               0.000000000               0.002294863               0.015678452               0.003880875              -0.001099233               0.005592509               0.004493276               0.000000000               0.000000000               0.000000000               0.000000000               0.000781950               0.012946441               0.001675723              -0.001325071               0.004757128               0.003432056               0.000000000               0.000000000               0.000000000               0.000000000              -0.000146550               0.011154847              -0.000397298              -0.001449308               0.004201348               0.002752039               0.000000000               0.000000000               0.000000000               0.000000000              -0.000728130               0.009901603              -0.001094979              -0.001510746               0.003804083               0.002293337               0.000000000               0.000000000               0.000000000               0.000000000              -0.001053681               0.008917111              -0.001295091              -0.001509766               0.003475596               0.001965830               0.000000000               0.000000000               0.000000000               0.000000000              -0.001209033               0.008099397              -0.001305196              -0.001465809               0.003188375               0.001722566               0.000000000               0.000000000               0.000000000               0.000000000              -0.001247206               0.007384940              -0.001246457              -0.001390817               0.002925227               0.001534411               0.000000000               0.000000000               0.000000000               0.000000000              -0.001210748               0.006731661              -0.001167208              -0.001295485               0.002675693               0.001380208               0.000000000               0.000000000               0.000000000               0.000000000              -0.001123272               0.006120190              -0.001081085              -0.001186248               0.002435459               0.001249211               0.000000000               0.000000000               0.000000000               0.000000000              -0.001004192               0.005543140              -0.000988992              -0.001069462               0.002204182               0.001134720               0.000000000               0.000000000               0.000000000               0.000000000              -0.000869642               0.005009467              -0.000886471              -0.000952297               0.001987238               0.001034941               0.000000000               0.000000000               0.000000000               0.000000000              -0.000722111               0.004516407              -0.000774870              -0.000835340               0.001783901               0.000948560               0.000000000               0.000000000               0.000000000               0.000000000              -0.000565798               0.004064469              -0.000656961              -0.000720231               0.001594887               0.000874655               0.000000000               0.000000000               0.000000000               0.000000000              -0.000406061               0.003660326              -0.000527391              -0.000609812               0.001423367               0.000813555               0.000000000               0.000000000               0.000000000               0.000000000              -0.000250996               0.003320425              -0.000374911              -0.000509176               0.001276523               0.000767347               0.000000000               0.000000000               0.000000000               0.000000000              -0.000114780               0.003070767              -0.000197235              -0.000426887               0.001165874               0.000738987               0.000000000               0.000000000               0.000000000               0.000000000              -0.000065132               0.002951077              -0.000110227              -0.000393308               0.001114785               0.000721477               0.000000000               0.000000000               0.000000000               0.000000000               0.001887374               0.012963519               0.003778866              -0.000912676               0.004625354               0.003712679               0.000000000               0.000000000               0.000000000               0.000000000               0.000005324               0.011350866               0.001679884              -0.001416859               0.004255870               0.002839011               0.000000000               0.000000000               0.000000000               0.000000000              -0.001324147               0.010529734              -0.000258196              -0.001812767               0.004114132               0.002301364               0.000000000               0.000000000               0.000000000               0.000000000              -0.001873249               0.009657691              -0.000855455              -0.001909675               0.003855756               0.001946081               0.000000000               0.000000000               0.000000000               0.000000000              -0.002039182               0.008840510              -0.001009060              -0.001869752               0.003570058               0.001700306               0.000000000               0.000000000               0.000000000               0.000000000              -0.002010223               0.008103041              -0.001004441              -0.001766710               0.003289890               0.001523180               0.000000000               0.000000000               0.000000000               0.000000000              -0.001876240               0.007418343              -0.000945581              -0.001630879               0.003016382               0.001385504               0.000000000               0.000000000               0.000000000               0.000000000              -0.001682792               0.006777654              -0.000874391              -0.001478250               0.002751945               0.001273695               0.000000000               0.000000000               0.000000000               0.000000000              -0.001455996               0.006174753              -0.000802976              -0.001317839               0.002497510               0.001179671               0.000000000               0.000000000               0.000000000               0.000000000              -0.001219329               0.005618734              -0.000732249              -0.001159587               0.002259421               0.001099834               0.000000000               0.000000000               0.000000000               0.000000000              -0.000990807               0.005119099              -0.000651088              -0.001011437               0.002043495               0.001032057               0.000000000               0.000000000               0.000000000               0.000000000              -0.000770659               0.004672743              -0.000554308              -0.000873088               0.001848595               0.000975507               0.000000000               0.000000000               0.000000000               0.000000000              -0.000562187               0.004282608              -0.000452563              -0.000746144               0.001676237               0.000930092               0.000000000               0.000000000               0.000000000               0.000000000              -0.000368278               0.003960102              -0.000345166              -0.000633115               0.001531059               0.000897944               0.000000000               0.000000000               0.000000000               0.000000000              -0.000202944               0.003719069              -0.000230529              -0.000540986               0.001420006               0.000879020               0.000000000               0.000000000               0.000000000               0.000000000              -0.000083707               0.003575409              -0.000115349              -0.000478315               0.001351229               0.000872914               0.000000000               0.000000000               0.000000000               0.000000000              -0.000037385               0.003532593              -0.000059524              -0.000455592               0.001329383               0.000873791               0.000000000               0.000000000               0.000000000               0.000000000               0.001104455               0.010278728               0.003302345              -0.000870671               0.003716431               0.002845760               0.000000000               0.000000000               0.000000000               0.000000000              -0.000925109               0.009802937               0.001587737              -0.001572280               0.003791706               0.002219426               0.000000000               0.000000000               0.000000000               0.000000000              -0.002455721               0.009878196               0.000014063              -0.002155665               0.004011254               0.001855589               0.000000000               0.000000000               0.000000000               0.000000000              -0.002847586               0.009318877              -0.000439022              -0.002232699               0.003850494               0.001617795               0.000000000               0.000000000               0.000000000               0.000000000              -0.002794136               0.008638154              -0.000555488              -0.002127565               0.003588544               0.001460979               0.000000000               0.000000000               0.000000000               0.000000000              -0.002560271               0.007958822              -0.000557899              -0.001954949               0.003304564               0.001349615               0.000000000               0.000000000               0.000000000               0.000000000              -0.002248921               0.007299124              -0.000525231              -0.001755732               0.003018261               0.001262529               0.000000000               0.000000000               0.000000000               0.000000000              -0.001904540               0.006678487              -0.000489741              -0.001549009               0.002742476               0.001193467               0.000000000               0.000000000               0.000000000               0.000000000              -0.001561944               0.006099515              -0.000452669              -0.001348165               0.002482540               0.001134375               0.000000000               0.000000000               0.000000000               0.000000000              -0.001234125               0.005578571              -0.000418445              -0.001160116               0.002246210               0.001086095               0.000000000               0.000000000               0.000000000               0.000000000              -0.000932248               0.005120703              -0.000373096              -0.000989678               0.002036777               0.001047098               0.000000000               0.000000000               0.000000000               0.000000000              -0.000663088               0.004727531              -0.000306371              -0.000839597               0.001855694               0.001016096               0.000000000               0.000000000               0.000000000               0.000000000              -0.000431295               0.004405755              -0.000232867              -0.000712453               0.001706055               0.000993601               0.000000000               0.000000000               0.000000000               0.000000000              -0.000240791               0.004167703              -0.000158806              -0.000611258               0.001592973               0.000981715               0.000000000               0.000000000               0.000000000               0.000000000              -0.000101325               0.004020950              -0.000088301              -0.000540614               0.001520508               0.000979894               0.000000000               0.000000000               0.000000000               0.000000000              -0.000025987               0.003965044              -0.000034569              -0.000505374               0.001490126               0.000984752               0.000000000               0.000000000               0.000000000               0.000000000               0.000002724               0.003974152              -0.000009617              -0.000495746               0.001489953               0.000994206               0.000000000               0.000000000               0.000000000               0.000000000              -0.000009174               0.007807625               0.002560739              -0.000979393               0.002928979               0.001949586               0.000000000               0.000000000               0.000000000               0.000000000              -0.001948391               0.008390426               0.001449840              -0.001779446               0.003389929               0.001610483               0.000000000               0.000000000               0.000000000               0.000000000              -0.003426306               0.009188518               0.000408689              -0.002433424               0.003873950               0.001440526               0.000000000               0.000000000               0.000000000               0.000000000              -0.003553298               0.008871247               0.000088790              -0.002441387               0.003770848               0.001329462               0.000000000               0.000000000               0.000000000               0.000000000              -0.003256729               0.008305564              -0.000025608              -0.002259463               0.003521648               0.001262185               0.000000000               0.000000000               0.000000000               0.000000000              -0.002822953               0.007679744              -0.000068855              -0.002018570               0.003232746               0.001214175               0.000000000               0.000000000               0.000000000               0.000000000              -0.002350884               0.007057878              -0.000089659              -0.001763812               0.002940540               0.001176728               0.000000000               0.000000000               0.000000000               0.000000000              -0.001885187               0.006468194              -0.000104436              -0.001515466               0.002661198               0.001145733               0.000000000               0.000000000               0.000000000               0.000000000              -0.001453967               0.005931436              -0.000109790              -0.001286664               0.002406014               0.001119350               0.000000000               0.000000000               0.000000000               0.000000000              -0.001063853               0.005459662              -0.000114459              -0.001081400               0.002180336               0.001098936               0.000000000               0.000000000               0.000000000               0.000000000              -0.000714615               0.005054778              -0.000109272              -0.000899826               0.001984851               0.001085025               0.000000000               0.000000000               0.000000000               0.000000000              -0.000422190               0.004729031              -0.000081733              -0.000749448               0.001826144               0.001076696               0.000000000               0.000000000               0.000000000               0.000000000              -0.000196387               0.004494634              -0.000046127              -0.000635473               0.001710021               0.001074548               0.000000000               0.000000000               0.000000000               0.000000000              -0.000040647               0.004357634              -0.000014054              -0.000559945               0.001639179               0.001079233               0.000000000               0.000000000               0.000000000               0.000000000               0.000039626               0.004312854               0.000010311              -0.000524246               0.001612352               0.001088106               0.000000000               0.000000000               0.000000000               0.000000000               0.000046599               0.004340284               0.000015472              -0.000525059               0.001621767               0.001096707               0.000000000               0.000000000               0.000000000               0.000000000               0.000039868               0.004386652               0.000017308              -0.000533380               0.001639996               0.001106616               0.000000000               0.000000000               0.000000000               0.000000000              -0.001316730               0.005725348               0.001675565              -0.001209440               0.002311577               0.001102137               0.000000000               0.000000000               0.000000000               0.000000000              -0.002949903               0.007118035               0.001310785              -0.001995963               0.003037975               0.001042012               0.000000000               0.000000000               0.000000000               0.000000000              -0.004194499               0.008471339               0.000886196              -0.002631848               0.003701034               0.001069186               0.000000000               0.000000000               0.000000000               0.000000000              -0.004042568               0.008411168               0.000647909              -0.002567352               0.003659479               0.001092126               0.000000000               0.000000000               0.000000000               0.000000000              -0.003542259               0.007985844               0.000504135              -0.002326572               0.003437445               0.001110873               0.000000000               0.000000000               0.000000000               0.000000000              -0.002948492               0.007444756               0.000400982              -0.002036274               0.003160318               0.001124045               0.000000000               0.000000000               0.000000000               0.000000000              -0.002351385               0.006880274               0.000320763              -0.001741799               0.002874001               0.001132202               0.000000000               0.000000000               0.000000000               0.000000000              -0.001798132               0.006337571               0.000254487              -0.001466492               0.002601333               0.001134841               0.000000000               0.000000000               0.000000000               0.000000000              -0.001295897               0.005851488               0.000202804              -0.001217394               0.002356275               0.001138880               0.000000000               0.000000000               0.000000000               0.000000000              -0.000854483               0.005428404               0.000159323              -0.000998979               0.002142443               0.001143464               0.000000000               0.000000000               0.000000000               0.000000000              -0.000475964               0.005075625               0.000122913              -0.000812938               0.001962837               0.001149900               0.000000000               0.000000000               0.000000000               0.000000000              -0.000171738               0.004807477               0.000099851              -0.000665335               0.001824255               0.001158920               0.000000000               0.000000000               0.000000000               0.000000000               0.000045425               0.004637456               0.000084248              -0.000562646               0.001733352               0.001170706               0.000000000               0.000000000               0.000000000               0.000000000               0.000173641               0.004568511               0.000067227              -0.000505947               0.001691471               0.001185524               0.000000000               0.000000000               0.000000000               0.000000000               0.000218288               0.004594881               0.000045381              -0.000492501               0.001695779               0.001203278               0.000000000               0.000000000               0.000000000               0.000000000               0.000193924               0.004686954               0.000021226              -0.000513146               0.001733351               0.001220205               0.000000000               0.000000000               0.000000000               0.000000000               0.000157142               0.004748882               0.000008842              -0.000534681               0.001761172               0.001226491               0.000000000               0.000000000               0.000000000               0.000000000              -0.002808181               0.003789670               0.000757829              -0.001526773               0.001772135               0.000245362               0.000000000               0.000000000               0.000000000               0.000000000              -0.003786396               0.005626382               0.001164383              -0.002123191               0.002583172               0.000459981               0.000000000               0.000000000               0.000000000               0.000000000              -0.004666541               0.007380539               0.001382449              -0.002672514               0.003350993               0.000678479               0.000000000               0.000000000               0.000000000               0.000000000              -0.004364673               0.007702998               0.001229362              -0.002599621               0.003434180               0.000834559               0.000000000               0.000000000               0.000000000               0.000000000              -0.003781765               0.007546683               0.001053723              -0.002361492               0.003302700               0.000941208               0.000000000               0.000000000               0.000000000               0.000000000              -0.003139596               0.007206668               0.000894955              -0.002078177               0.003094924               0.001016747               0.000000000               0.000000000               0.000000000               0.000000000              -0.002500506               0.006789956               0.000757731              -0.001786430               0.002858773               0.001072343               0.000000000               0.000000000               0.000000000               0.000000000              -0.001907503               0.006360236               0.000641871              -0.001510340               0.002623504               0.001113164               0.000000000               0.000000000               0.000000000               0.000000000              -0.001367250               0.005957310               0.000546297              -0.001257379               0.002404876               0.001147497               0.000000000               0.000000000               0.000000000               0.000000000              -0.000887483               0.005599683               0.000460864              -0.001032764               0.002210797               0.001178033               0.000000000               0.000000000               0.000000000               0.000000000              -0.000471134               0.005302447               0.000380467              -0.000839479               0.002047291               0.001207812               0.000000000               0.000000000               0.000000000               0.000000000              -0.000128024               0.005069130               0.000303257              -0.000681648               0.001916909               0.001235261               0.000000000               0.000000000               0.000000000               0.000000000               0.000129828               0.004899515               0.000232378              -0.000563753               0.001821073               0.001257320               0.000000000               0.000000000               0.000000000               0.000000000               0.000298522               0.004803075               0.000164079              -0.000488438               0.001763822               0.001275384               0.000000000               0.000000000               0.000000000               0.000000000               0.000381760               0.004796773               0.000094447              -0.000456435               0.001751053               0.001294618               0.000000000               0.000000000               0.000000000               0.000000000               0.000394476               0.004873519               0.000036814              -0.000461260               0.001778243               0.001316983               0.000000000               0.000000000               0.000000000               0.000000000               0.000365496               0.004918039               0.000006505              -0.000477693               0.001798561               0.001320868               0.000000000               0.000000000               0.000000000               0.000000000              -0.004671752               0.002049178              -0.000120176              -0.002008051               0.001352400              -0.000655650               0.000000000               0.000000000               0.000000000               0.000000000              -0.004721051               0.004119307               0.000957795              -0.002285303               0.002134855              -0.000150448               0.000000000               0.000000000               0.000000000               0.000000000              -0.005053234               0.006076504               0.001778198              -0.002654520               0.002910320               0.000255801               0.000000000               0.000000000               0.000000000               0.000000000              -0.004620345               0.006757312               0.001777455              -0.002577287               0.003111510               0.000534223               0.000000000               0.000000000               0.000000000               0.000000000              -0.003987228               0.006911386               0.001604742              -0.002359128               0.003090148               0.000731020               0.000000000               0.000000000               0.000000000               0.000000000              -0.003325753               0.006812393               0.001409334              -0.002098702               0.002970342               0.000871640               0.000000000               0.000000000               0.000000000               0.000000000              -0.002679871               0.006581636               0.001227081              -0.001827652               0.002803074               0.000975422               0.000000000               0.000000000               0.000000000               0.000000000              -0.002062166               0.006294408               0.001072154              -0.001560110               0.002618152               0.001058042               0.000000000               0.000000000               0.000000000               0.000000000              -0.001487999               0.006001801               0.000938023              -0.001308222               0.002436654               0.001128432               0.000000000               0.000000000               0.000000000               0.000000000              -0.000965294               0.005729662               0.000812711              -0.001078191               0.002269265               0.001191075               0.000000000               0.000000000               0.000000000               0.000000000              -0.000502199               0.005490148               0.000690906              -0.000874591               0.002121561               0.001246970               0.000000000               0.000000000               0.000000000               0.000000000              -0.000104306               0.005289855               0.000569148              -0.000700345               0.001996716               0.001296371               0.000000000               0.000000000               0.000000000               0.000000000               0.000223941               0.005127832               0.000450193              -0.000557000               0.001894927               0.001337927               0.000000000               0.000000000               0.000000000               0.000000000               0.000467112               0.005003858               0.000328658              -0.000450314               0.001818041               0.001367726               0.000000000               0.000000000               0.000000000               0.000000000               0.000620792               0.004939051               0.000203278              -0.000384583               0.001774528               0.001389945               0.000000000               0.000000000               0.000000000               0.000000000               0.000684393               0.004945589               0.000090575              -0.000361550               0.001769030               0.001407480               0.000000000               0.000000000               0.000000000               0.000000000               0.000675258               0.004952911               0.000034505              -0.000365891               0.001772918               0.001407026               0.000000000               0.000000000               0.000000000               0.000000000              -0.006779831               0.000662944              -0.000872070              -0.002625302               0.001096074              -0.001529227               0.000000000               0.000000000               0.000000000               0.000000000              -0.005801576               0.002704050               0.000682537              -0.002513593               0.001739203              -0.000774391               0.000000000               0.000000000               0.000000000               0.000000000              -0.005379859               0.004585186               0.001972546              -0.002590590               0.002391908              -0.000198681               0.000000000               0.000000000               0.000000000               0.000000000              -0.004729246               0.005509290               0.002162617              -0.002462123               0.002657118               0.000194995               0.000000000               0.000000000               0.000000000               0.000000000              -0.004032031               0.005941057               0.002044189              -0.002254639               0.002731878               0.000477240               0.000000000               0.000000000               0.000000000               0.000000000              -0.003352622               0.006091472               0.001843856              -0.002018663               0.002703357               0.000684695               0.000000000               0.000000000               0.000000000               0.000000000              -0.002709437               0.006072213               0.001640412              -0.001775061               0.002615738               0.000840676               0.000000000               0.000000000               0.000000000               0.000000000              -0.002090948               0.005958658               0.001462235              -0.001528934               0.002495844               0.000966910               0.000000000               0.000000000               0.000000000               0.000000000              -0.001503882               0.005801175               0.001304643              -0.001289100               0.002363405               0.001074306               0.000000000               0.000000000               0.000000000               0.000000000              -0.000953421               0.005637077               0.001153844              -0.001062165               0.002233062               0.001170897               0.000000000               0.000000000               0.000000000               0.000000000              -0.000446859               0.005487992               0.001002869              -0.000853569               0.002113835               0.001260266               0.000000000               0.000000000               0.000000000               0.000000000               0.000008590               0.005350732               0.000854913              -0.000665619               0.002005432               0.001339813               0.000000000               0.000000000               0.000000000               0.000000000               0.000405457               0.005228347               0.000703705              -0.000501496               0.001909930               0.001408434               0.000000000               0.000000000               0.000000000               0.000000000               0.000727510               0.005122282               0.000537331              -0.000367468               0.001829900               0.001462431               0.000000000               0.000000000               0.000000000               0.000000000               0.000962790               0.005042423               0.000356862              -0.000269256               0.001770543               0.001501287               0.000000000               0.000000000               0.000000000               0.000000000               0.001099197               0.005003489               0.000174805              -0.000213237               0.001738892               0.001525655               0.000000000               0.000000000               0.000000000               0.000000000               0.001129355               0.004989145               0.000084154              -0.000200135               0.001729743               0.001529609               0.000000000               0.000000000               0.000000000               0.000000000              -0.008992034              -0.000300193              -0.001374258              -0.003334486               0.001011424              -0.002323062               0.000000000               0.000000000               0.000000000               0.000000000              -0.006961494               0.001465215               0.000394673              -0.002793709               0.001419631              -0.001374077               0.000000000               0.000000000               0.000000000               0.000000000              -0.005673430               0.003041156               0.001941220              -0.002507676               0.001849598              -0.000658079               0.000000000               0.000000000               0.000000000               0.000000000              -0.004720403               0.004066648               0.002295208              -0.002278478               0.002115027              -0.000163451               0.000000000               0.000000000               0.000000000               0.000000000              -0.003929214               0.004708656               0.002256393              -0.002062033               0.002256880               0.000194847               0.000000000               0.000000000               0.000000000               0.000000000              -0.003223262               0.005085013               0.002088582              -0.001844346               0.002309769               0.000465423               0.000000000               0.000000000               0.000000000               0.000000000              -0.002577559               0.005276295               0.001895361              -0.001626118               0.002300786               0.000674668               0.000000000               0.000000000               0.000000000               0.000000000              -0.001968450               0.005352132               0.001715127              -0.001407182               0.002253086               0.000845904               0.000000000               0.000000000               0.000000000               0.000000000              -0.001387505               0.005355642               0.001549379              -0.001189767               0.002181785               0.000992018               0.000000000               0.000000000               0.000000000               0.000000000              -0.000828496               0.005321540               0.001391643              -0.000975877               0.002099121               0.001123244               0.000000000               0.000000000               0.000000000               0.000000000              -0.000290015               0.005276659               0.001236390              -0.000768337               0.002014981               0.001246644               0.000000000               0.000000000               0.000000000               0.000000000               0.000219126               0.005227856               0.001081098              -0.000571309               0.001933037               0.001361728               0.000000000               0.000000000               0.000000000               0.000000000               0.000684467               0.005177249               0.000915128              -0.000390480               0.001855892               0.001465412               0.000000000               0.000000000               0.000000000               0.000000000               0.001096714               0.005123277               0.000725344              -0.000229142               0.001784122               0.001554981               0.000000000               0.000000000               0.000000000               0.000000000               0.001440141               0.005069894               0.000508434              -0.000093684               0.001721176               0.001627492               0.000000000               0.000000000               0.000000000               0.000000000               0.001693727               0.005029181               0.000264541               0.000006499               0.001674210               0.001680710               0.000000000               0.000000000               0.000000000               0.000000000               0.001807515               0.005019649               0.000141164               0.000050361               0.001656413               0.001706774               0.000000000               0.000000000               0.000000000               0.000000000              -0.011109813              -0.000882871              -0.001525808              -0.004055818               0.001057641              -0.002998177               0.000000000               0.000000000               0.000000000               0.000000000              -0.008101244               0.000468642               0.000161397              -0.003096544               0.001188387              -0.001908157               0.000000000               0.000000000               0.000000000               0.000000000              -0.005942443               0.001602052               0.001689302              -0.002428670               0.001343564              -0.001085105               0.000000000               0.000000000               0.000000000               0.000000000              -0.004642673               0.002599674               0.002122259              -0.002065958               0.001555199              -0.000510759               0.000000000               0.000000000               0.000000000               0.000000000              -0.003723374               0.003368194               0.002156374              -0.001817286               0.001728481              -0.000088805               0.000000000               0.000000000               0.000000000               0.000000000              -0.002976019               0.003925288               0.002042431              -0.001606665               0.001843970               0.000237305               0.000000000               0.000000000               0.000000000               0.000000000              -0.002323094               0.004304805               0.001886081              -0.001409258               0.001904673               0.000495414               0.000000000               0.000000000               0.000000000               0.000000000              -0.001725290               0.004561292               0.001726912              -0.001217143               0.001926129               0.000708986               0.000000000               0.000000000               0.000000000               0.000000000              -0.001159844               0.004727333               0.001575092              -0.001025856               0.001917714               0.000891857               0.000000000               0.000000000               0.000000000               0.000000000              -0.000603462               0.004832378               0.001433776              -0.000830344               0.001887557               0.001057213               0.000000000               0.000000000               0.000000000               0.000000000              -0.000049842               0.004901667               0.001293849              -0.000631398               0.001844339               0.001212940               0.000000000               0.000000000               0.000000000               0.000000000               0.000494645               0.004956938               0.001149694              -0.000434125               0.001797004               0.001362879               0.000000000               0.000000000               0.000000000               0.000000000               0.001025663               0.005000034               0.000995750              -0.000240381               0.001746788               0.001506407               0.000000000               0.000000000               0.000000000               0.000000000               0.001537029               0.005019276               0.000817862              -0.000051024               0.001690083               0.001639059               0.000000000               0.000000000               0.000000000               0.000000000               0.002018089               0.005023448               0.000599293               0.000128851               0.001631516               0.001760366               0.000000000               0.000000000               0.000000000               0.000000000               0.002444445               0.005020016               0.000326667               0.000289162               0.001576934               0.001866096               0.000000000               0.000000000               0.000000000               0.000000000               0.002695910               0.005038769               0.000187939               0.000381116               0.001552534               0.001933650               0.000000000               0.000000000               0.000000000               0.000000000              -0.012880806              -0.001176674              -0.001297947              -0.004683215               0.001168839              -0.003514376               0.000000000               0.000000000               0.000000000               0.000000000              -0.009077867              -0.000250888               0.000022071              -0.003372837               0.001040642              -0.002332194               0.000000000               0.000000000               0.000000000               0.000000000              -0.006171786               0.000426858               0.001245453              -0.002367775               0.000931537              -0.001436237               0.000000000               0.000000000               0.000000000               0.000000000              -0.004539705               0.001323921               0.001636288              -0.001867877               0.001063925              -0.000803952               0.000000000               0.000000000               0.000000000               0.000000000              -0.003474926               0.002148160               0.001707633              -0.001571615               0.001239916              -0.000331699               0.000000000               0.000000000               0.000000000               0.000000000              -0.002678176               0.002829020               0.001648420              -0.001357941               0.001395643               0.000037703               0.000000000               0.000000000               0.000000000               0.000000000              -0.002019468               0.003352884               0.001542532              -0.001176409               0.001509752               0.000333344               0.000000000               0.000000000               0.000000000               0.000000000              -0.001435075               0.003749554               0.001425405              -0.001006846               0.001585454               0.000578608               0.000000000               0.000000000               0.000000000               0.000000000              -0.000882657               0.004052034               0.001311725              -0.000837499               0.001629830               0.000792331               0.000000000               0.000000000               0.000000000               0.000000000              -0.000336236               0.004282258               0.001206307              -0.000661370               0.001647861               0.000986492               0.000000000               0.000000000               0.000000000               0.000000000               0.000219320               0.004468164               0.001097156              -0.000476275               0.001648131               0.001171856               0.000000000               0.000000000               0.000000000               0.000000000               0.000791573               0.004630533               0.000985501              -0.000281977               0.001637488               0.001355511               0.000000000               0.000000000               0.000000000               0.000000000               0.001382078               0.004764849               0.000869062              -0.000077327               0.001614043               0.001536716               0.000000000               0.000000000               0.000000000               0.000000000               0.001987720               0.004871537               0.000731374               0.000136451               0.001578346               0.001714797               0.000000000               0.000000000               0.000000000               0.000000000               0.002611118               0.004950724               0.000553306               0.000360325               0.001530116               0.001890442               0.000000000               0.000000000               0.000000000               0.000000000               0.003248468               0.004992686               0.000312197               0.000594084               0.001466184               0.002060268               0.000000000               0.000000000               0.000000000               0.000000000               0.003686378               0.005046835               0.000189494               0.000751530               0.001431752               0.002183281               0.000000000               0.000000000               0.000000000               0.000000000              -0.014067318              -0.001292871              -0.000740543              -0.005113632               0.001273578              -0.003840054               0.000000000               0.000000000               0.000000000               0.000000000              -0.009741706              -0.000683157              -0.000017977              -0.003567743               0.000961522              -0.002606221               0.000000000               0.000000000               0.000000000               0.000000000              -0.006328993              -0.000347473               0.000660697              -0.002329937               0.000660817              -0.001669120               0.000000000               0.000000000               0.000000000               0.000000000              -0.004453894               0.000449693               0.000892643              -0.001726420               0.000725366              -0.001001054               0.000000000               0.000000000               0.000000000               0.000000000              -0.003273457               0.001287581               0.000947976              -0.001388492               0.000892018              -0.000496474               0.000000000               0.000000000               0.000000000               0.000000000              -0.002435863               0.002035597               0.000925627              -0.001167896               0.001067823              -0.000100072               0.000000000               0.000000000               0.000000000               0.000000000              -0.001768501               0.002653753               0.000872781              -0.000994905               0.001216210               0.000221305               0.000000000               0.000000000               0.000000000               0.000000000              -0.001188710               0.003138531               0.000812287              -0.000838081               0.001325527               0.000487446               0.000000000               0.000000000               0.000000000               0.000000000              -0.000644096               0.003521953               0.000752974              -0.000681779               0.001401232               0.000719453               0.000000000               0.000000000               0.000000000               0.000000000              -0.000105873               0.003839923               0.000696769              -0.000519692               0.001453192               0.000933500               0.000000000               0.000000000               0.000000000               0.000000000               0.000449564               0.004113319               0.000636250              -0.000345578               0.001486285               0.001140707               0.000000000               0.000000000               0.000000000               0.000000000               0.001041246               0.004354638               0.000575216              -0.000153862               0.001502819               0.001348957               0.000000000               0.000000000               0.000000000               0.000000000               0.001672054               0.004559337               0.000511021               0.000057102               0.001500730               0.001557832               0.000000000               0.000000000               0.000000000               0.000000000               0.002349481               0.004730633               0.000432773               0.000289723               0.001480288               0.001770011               0.000000000               0.000000000               0.000000000               0.000000000               0.003086951               0.004865612               0.000333240               0.000549400               0.001438721               0.001988121               0.000000000               0.000000000               0.000000000               0.000000000               0.003901125               0.004950098               0.000192341               0.000844151               0.001368632               0.002212784               0.000000000               0.000000000               0.000000000               0.000000000               0.004505736               0.005040380               0.000120134               0.001059593               0.001326912               0.002386505               0.000000000               0.000000000               0.000000000               0.000000000               0.000000000               0.000000000               0.000000000               0.000000000               0.000000000               0.000000000               0.000000000               0.000000000               0.000000000               0.000000000               0.000000000               0.000000000               0.000000000               0.000000000               0.000000000               0.000000000               0.000000000               0.000000000               0.000000000               0.000000000               0.000000000               0.000000000               0.000000000               0.000000000               0.000000000               0.000000000               0.000000000               0.000000000               0.000000000               0.000000000               0.000000000               0.000000000               0.000000000               0.000000000               0.000000000               0.000000000               0.000000000               0.000000000               0.000000000               0.000000000               0.000000000               0.000000000               0.000000000               0.000000000               0.000000000               0.000000000               0.000000000               0.000000000               0.000000000               0.000000000               0.000000000               0.000000000               0.000000000               0.000000000               0.000000000               0.000000000               0.000000000               0.000000000               0.000000000               0.000000000               0.000000000               0.000000000               0.000000000               0.000000000               0.000000000               0.000000000               0.000000000               0.000000000               0.000000000               0.000000000               0.000000000               0.000000000               0.000000000               0.000000000               0.000000000               0.000000000               0.000000000               0.000000000               0.000000000               0.000000000               0.000000000               0.000000000               0.000000000               0.000000000               0.000000000               0.000000000               0.000000000               0.000000000               0.000000000               0.000000000               0.000000000               0.000000000               0.000000000               0.000000000               0.000000000               0.000000000               0.000000000               0.000000000               0.000000000               0.000000000               0.000000000               0.000000000               0.000000000               0.000000000               0.000000000               0.000000000               0.000000000               0.000000000               0.000000000               0.000000000               0.000000000               0.000000000               0.000000000               0.000000000               0.000000000               0.000000000               0.000000000               0.000000000               0.000000000               0.000000000               0.000000000               0.000000000               0.000000000               0.000000000               0.000000000               0.000000000               0.000000000               0.000000000               0.000000000               0.000000000               0.000000000               0.000000000               0.000000000               0.000000000               0.000000000               0.000000000               0.000000000               0.000000000               0.000000000               0.000000000               0.000000000               0.000000000               0.000000000               0.000000000               0.000000000               0.000000000               0.000000000               0.000000000               0.000000000               0.000000000               0.000000000               0.000000000               0.000000000               0.000000000               0.000000000               0.000000000               0.000000000               0.000000000               0.000000000               0.000000000               0.000000000               0.000000000               0.000000000               0.000000000               0.000000000               0.000000000               0.000000000               0.000000000               0.000000000               0.000000000 </DataArray>
</PointData>
</Piece>
</UnstructuredGrid> </VTKFile>
