<?xml version="1.0"?>
<VTKFile type="UnstructuredGrid" version="0.1">
<UnstructuredGrid>
<Piece NumberOfPoints="      1156" NumberOfCells="      1024">
<Points>
<DataArray type="Float64"                                    Name="coordinates"                                                      NumberOfComponents=" 3" format="ascii">
              0.133000000               0.000000000               0.000000000               0.155937500               0.000000000               0.000000000               0.178875000               0.000000000               0.000000000               0.201812500               0.000000000               0.000000000               0.224750000               0.000000000               0.000000000               0.247687500               0.000000000               0.000000000               0.270625000               0.000000000               0.000000000               0.293562500               0.000000000               0.000000000               0.316500000               0.000000000               0.000000000               0.339437500               0.000000000               0.000000000               0.362375000               0.000000000               0.000000000               0.385312500               0.000000000               0.000000000               0.408250000               0.000000000               0.000000000               0.431187500               0.000000000               0.000000000               0.454125000               0.000000000               0.000000000               0.477062500               0.000000000               0.000000000               0.500000000               0.000000000               0.000000000               0.132359569               0.013036280               0.000000000               0.155337096               0.016127762               0.000000000               0.178314623               0.019219245               0.000000000               0.201292150               0.022310727               0.000000000               0.224269676               0.025402210               0.000000000               0.247247203               0.028493692               0.000000000               0.270224730               0.031585175               0.000000000               0.293202257               0.034676657               0.000000000               0.316179784               0.037768140               0.000000000               0.339157311               0.040859622               0.000000000               0.362134838               0.043951105               0.000000000               0.385112365               0.047042587               0.000000000               0.408089892               0.050134070               0.000000000               0.431067419               0.053225552               0.000000000               0.454044946               0.056317035               0.000000000               0.477022473               0.059408517               0.000000000               0.500000000               0.062500000               0.000000000               0.130444442               0.025947013               0.000000000               0.153541665               0.032137825               0.000000000               0.176638887               0.038328636               0.000000000               0.199736109               0.044519448               0.000000000               0.222833332               0.050710260               0.000000000               0.245930554               0.056901071               0.000000000               0.269027776               0.063091883               0.000000000               0.292124999               0.069282695               0.000000000               0.315222221               0.075473506               0.000000000               0.338319444               0.081664318               0.000000000               0.361416666               0.087855130               0.000000000               0.384513888               0.094045942               0.000000000               0.407611111               0.100236753               0.000000000               0.430708333               0.106427565               0.000000000               0.453805555               0.112618377               0.000000000               0.476902778               0.118809188               0.000000000               0.500000000               0.125000000               0.000000000               0.127273065               0.038607862               0.000000000               0.150568498               0.047913621               0.000000000               0.173863932               0.057219379               0.000000000               0.197159365               0.066525138               0.000000000               0.220454798               0.075830897               0.000000000               0.243750232               0.085136655               0.000000000               0.267045665               0.094442414               0.000000000               0.290341099               0.103748172               0.000000000               0.313636532               0.113053931               0.000000000               0.336931966               0.122359690               0.000000000               0.360227399               0.131665448               0.000000000               0.383522833               0.140971207               0.000000000               0.406818266               0.150276966               0.000000000               0.430113700               0.159582724               0.000000000               0.453409133               0.168888483               0.000000000               0.476704567               0.178194241               0.000000000               0.500000000               0.187500000               0.000000000               0.122875978               0.050896897               0.000000000               0.146446229               0.063340840               0.000000000               0.170016481               0.075784784               0.000000000               0.193586732               0.088228728               0.000000000               0.217156983               0.100672672               0.000000000               0.240727235               0.113116616               0.000000000               0.264297486               0.125560560               0.000000000               0.287867738               0.138004504               0.000000000               0.311437989               0.150448448               0.000000000               0.335008240               0.162892392               0.000000000               0.358578492               0.175336336               0.000000000               0.382148743               0.187780280               0.000000000               0.405718994               0.200224224               0.000000000               0.429289246               0.212668168               0.000000000               0.452859497               0.225112112               0.000000000               0.476429749               0.237556056               0.000000000               0.500000000               0.250000000               0.000000000               0.117295528               0.062695766               0.000000000               0.141214558               0.078308531               0.000000000               0.165133587               0.093921295               0.000000000               0.189052617               0.109534060               0.000000000               0.212971646               0.125146824               0.000000000               0.236890676               0.140759589               0.000000000               0.260809705               0.156372354               0.000000000               0.284728735               0.171985118               0.000000000               0.308647764               0.187597883               0.000000000               0.332566794               0.203210648               0.000000000               0.356485823               0.218823412               0.000000000               0.380404853               0.234436177               0.000000000               0.404323882               0.250048941               0.000000000               0.428242912               0.265661706               0.000000000               0.452161941               0.281274471               0.000000000               0.476080971               0.296887235               0.000000000               0.500000000               0.312500000               0.000000000               0.110585458               0.073890841               0.000000000               0.134923867               0.092710163               0.000000000               0.159262276               0.111529486               0.000000000               0.183600685               0.130348808               0.000000000               0.207939094               0.149168131               0.000000000               0.232277503               0.167987453               0.000000000               0.256615912               0.186806776               0.000000000               0.280954320               0.205626098               0.000000000               0.305292729               0.224445420               0.000000000               0.329631138               0.243264743               0.000000000               0.353969547               0.262084065               0.000000000               0.378307956               0.280903388               0.000000000               0.402646365               0.299722710               0.000000000               0.426984773               0.318542033               0.000000000               0.451323182               0.337361355               0.000000000               0.475661591               0.356180678               0.000000000               0.500000000               0.375000000               0.000000000               0.102810390               0.084374307               0.000000000               0.127634741               0.106444663               0.000000000               0.152459092               0.128515018               0.000000000               0.177283442               0.150585374               0.000000000               0.202107793               0.172655730               0.000000000               0.226932143               0.194726086               0.000000000               0.251756494               0.216796442               0.000000000               0.276580845               0.238866798               0.000000000               0.301405195               0.260937153               0.000000000               0.326229546               0.283007509               0.000000000               0.351053896               0.305077865               0.000000000               0.375878247               0.327148221               0.000000000               0.400702598               0.349218577               0.000000000               0.425526948               0.371288933               0.000000000               0.450351299               0.393359288               0.000000000               0.475175649               0.415429644               0.000000000               0.500000000               0.437500000               0.000000000               0.094045202               0.094045202               0.000000000               0.119417377               0.119417377               0.000000000               0.144789552               0.144789552               0.000000000               0.170161727               0.170161727               0.000000000               0.195533901               0.195533901               0.000000000               0.220906076               0.220906076               0.000000000               0.246278251               0.246278251               0.000000000               0.271650426               0.271650426               0.000000000               0.297022601               0.297022601               0.000000000               0.322394776               0.322394776               0.000000000               0.347766951               0.347766951               0.000000000               0.373139126               0.373139126               0.000000000               0.398511300               0.398511300               0.000000000               0.423883475               0.423883475               0.000000000               0.449255650               0.449255650               0.000000000               0.474627825               0.474627825               0.000000000               0.500000000               0.500000000               0.000000000               0.084374307               0.102810390               0.000000000               0.106444663               0.127634741               0.000000000               0.128515018               0.152459092               0.000000000               0.150585374               0.177283442               0.000000000               0.172655730               0.202107793               0.000000000               0.194726086               0.226932143               0.000000000               0.216796442               0.251756494               0.000000000               0.238866798               0.276580845               0.000000000               0.260937153               0.301405195               0.000000000               0.283007509               0.326229546               0.000000000               0.305077865               0.351053896               0.000000000               0.327148221               0.375878247               0.000000000               0.349218577               0.400702598               0.000000000               0.371288933               0.425526948               0.000000000               0.393359288               0.450351299               0.000000000               0.415429644               0.475175649               0.000000000               0.437500000               0.500000000               0.000000000               0.073890841               0.110585458               0.000000000               0.092710163               0.134923867               0.000000000               0.111529486               0.159262276               0.000000000               0.130348808               0.183600685               0.000000000               0.149168131               0.207939094               0.000000000               0.167987453               0.232277503               0.000000000               0.186806776               0.256615912               0.000000000               0.205626098               0.280954320               0.000000000               0.224445420               0.305292729               0.000000000               0.243264743               0.329631138               0.000000000               0.262084065               0.353969547               0.000000000               0.280903388               0.378307956               0.000000000               0.299722710               0.402646365               0.000000000               0.318542033               0.426984773               0.000000000               0.337361355               0.451323182               0.000000000               0.356180678               0.475661591               0.000000000               0.375000000               0.500000000               0.000000000               0.062695766               0.117295528               0.000000000               0.078308531               0.141214558               0.000000000               0.093921295               0.165133587               0.000000000               0.109534060               0.189052617               0.000000000               0.125146824               0.212971646               0.000000000               0.140759589               0.236890676               0.000000000               0.156372354               0.260809705               0.000000000               0.171985118               0.284728735               0.000000000               0.187597883               0.308647764               0.000000000               0.203210648               0.332566794               0.000000000               0.218823412               0.356485823               0.000000000               0.234436177               0.380404853               0.000000000               0.250048941               0.404323882               0.000000000               0.265661706               0.428242912               0.000000000               0.281274471               0.452161941               0.000000000               0.296887235               0.476080971               0.000000000               0.312500000               0.500000000               0.000000000               0.050896897               0.122875978               0.000000000               0.063340840               0.146446229               0.000000000               0.075784784               0.170016481               0.000000000               0.088228728               0.193586732               0.000000000               0.100672672               0.217156983               0.000000000               0.113116616               0.240727235               0.000000000               0.125560560               0.264297486               0.000000000               0.138004504               0.287867738               0.000000000               0.150448448               0.311437989               0.000000000               0.162892392               0.335008240               0.000000000               0.175336336               0.358578492               0.000000000               0.187780280               0.382148743               0.000000000               0.200224224               0.405718994               0.000000000               0.212668168               0.429289246               0.000000000               0.225112112               0.452859497               0.000000000               0.237556056               0.476429749               0.000000000               0.250000000               0.500000000               0.000000000               0.038607862               0.127273065               0.000000000               0.047913621               0.150568498               0.000000000               0.057219379               0.173863932               0.000000000               0.066525138               0.197159365               0.000000000               0.075830897               0.220454798               0.000000000               0.085136655               0.243750232               0.000000000               0.094442414               0.267045665               0.000000000               0.103748172               0.290341099               0.000000000               0.113053931               0.313636532               0.000000000               0.122359690               0.336931966               0.000000000               0.131665448               0.360227399               0.000000000               0.140971207               0.383522833               0.000000000               0.150276966               0.406818266               0.000000000               0.159582724               0.430113700               0.000000000               0.168888483               0.453409133               0.000000000               0.178194241               0.476704567               0.000000000               0.187500000               0.500000000               0.000000000               0.025947013               0.130444442               0.000000000               0.032137825               0.153541665               0.000000000               0.038328636               0.176638887               0.000000000               0.044519448               0.199736109               0.000000000               0.050710260               0.222833332               0.000000000               0.056901071               0.245930554               0.000000000               0.063091883               0.269027776               0.000000000               0.069282695               0.292124999               0.000000000               0.075473506               0.315222221               0.000000000               0.081664318               0.338319444               0.000000000               0.087855130               0.361416666               0.000000000               0.094045942               0.384513888               0.000000000               0.100236753               0.407611111               0.000000000               0.106427565               0.430708333               0.000000000               0.112618377               0.453805555               0.000000000               0.118809188               0.476902778               0.000000000               0.125000000               0.500000000               0.000000000               0.013036280               0.132359569               0.000000000               0.016127762               0.155337096               0.000000000               0.019219245               0.178314623               0.000000000               0.022310727               0.201292150               0.000000000               0.025402210               0.224269676               0.000000000               0.028493692               0.247247203               0.000000000               0.031585175               0.270224730               0.000000000               0.034676657               0.293202257               0.000000000               0.037768140               0.316179784               0.000000000               0.040859622               0.339157311               0.000000000               0.043951105               0.362134838               0.000000000               0.047042587               0.385112365               0.000000000               0.050134070               0.408089892               0.000000000               0.053225552               0.431067419               0.000000000               0.056317035               0.454044946               0.000000000               0.059408517               0.477022473               0.000000000               0.062500000               0.500000000               0.000000000               0.000000000               0.133000000               0.000000000               0.000000000               0.155937500               0.000000000               0.000000000               0.178875000               0.000000000               0.000000000               0.201812500               0.000000000               0.000000000               0.224750000               0.000000000               0.000000000               0.247687500               0.000000000               0.000000000               0.270625000               0.000000000               0.000000000               0.293562500               0.000000000               0.000000000               0.316500000               0.000000000               0.000000000               0.339437500               0.000000000               0.000000000               0.362375000               0.000000000               0.000000000               0.385312500               0.000000000               0.000000000               0.408250000               0.000000000               0.000000000               0.431187500               0.000000000               0.000000000               0.454125000               0.000000000               0.000000000               0.477062500               0.000000000               0.000000000               0.500000000               0.000000000               0.133000000               0.000000000               0.000000000               0.155937500               0.000000000               0.000000000               0.178875000               0.000000000               0.000000000               0.201812500               0.000000000               0.000000000               0.224750000               0.000000000               0.000000000               0.247687500               0.000000000               0.000000000               0.270625000               0.000000000               0.000000000               0.293562500               0.000000000               0.000000000               0.316500000               0.000000000               0.000000000               0.339437500               0.000000000               0.000000000               0.362375000               0.000000000               0.000000000               0.385312500               0.000000000               0.000000000               0.408250000               0.000000000               0.000000000               0.431187500               0.000000000               0.000000000               0.454125000               0.000000000               0.000000000               0.477062500               0.000000000               0.000000000               0.500000000               0.000000000               0.000000000               0.132359569              -0.013036280               0.000000000               0.155337096              -0.016127762               0.000000000               0.178314623              -0.019219245               0.000000000               0.201292150              -0.022310727               0.000000000               0.224269676              -0.025402210               0.000000000               0.247247203              -0.028493692               0.000000000               0.270224730              -0.031585175               0.000000000               0.293202257              -0.034676657               0.000000000               0.316179784              -0.037768140               0.000000000               0.339157311              -0.040859622               0.000000000               0.362134838              -0.043951105               0.000000000               0.385112365              -0.047042587               0.000000000               0.408089892              -0.050134070               0.000000000               0.431067419              -0.053225552               0.000000000               0.454044946              -0.056317035               0.000000000               0.477022473              -0.059408517               0.000000000               0.500000000              -0.062500000               0.000000000               0.130444442              -0.025947013               0.000000000               0.153541665              -0.032137825               0.000000000               0.176638887              -0.038328636               0.000000000               0.199736109              -0.044519448               0.000000000               0.222833332              -0.050710260               0.000000000               0.245930554              -0.056901071               0.000000000               0.269027776              -0.063091883               0.000000000               0.292124999              -0.069282695               0.000000000               0.315222221              -0.075473506               0.000000000               0.338319444              -0.081664318               0.000000000               0.361416666              -0.087855130               0.000000000               0.384513888              -0.094045942               0.000000000               0.407611111              -0.100236753               0.000000000               0.430708333              -0.106427565               0.000000000               0.453805555              -0.112618377               0.000000000               0.476902778              -0.118809188               0.000000000               0.500000000              -0.125000000               0.000000000               0.127273065              -0.038607862               0.000000000               0.150568498              -0.047913621               0.000000000               0.173863932              -0.057219379               0.000000000               0.197159365              -0.066525138               0.000000000               0.220454798              -0.075830897               0.000000000               0.243750232              -0.085136655               0.000000000               0.267045665              -0.094442414               0.000000000               0.290341099              -0.103748172               0.000000000               0.313636532              -0.113053931               0.000000000               0.336931966              -0.122359690               0.000000000               0.360227399              -0.131665448               0.000000000               0.383522833              -0.140971207               0.000000000               0.406818266              -0.150276966               0.000000000               0.430113700              -0.159582724               0.000000000               0.453409133              -0.168888483               0.000000000               0.476704567              -0.178194241               0.000000000               0.500000000              -0.187500000               0.000000000               0.122875978              -0.050896897               0.000000000               0.146446229              -0.063340840               0.000000000               0.170016481              -0.075784784               0.000000000               0.193586732              -0.088228728               0.000000000               0.217156983              -0.100672672               0.000000000               0.240727235              -0.113116616               0.000000000               0.264297486              -0.125560560               0.000000000               0.287867738              -0.138004504               0.000000000               0.311437989              -0.150448448               0.000000000               0.335008240              -0.162892392               0.000000000               0.358578492              -0.175336336               0.000000000               0.382148743              -0.187780280               0.000000000               0.405718994              -0.200224224               0.000000000               0.429289246              -0.212668168               0.000000000               0.452859497              -0.225112112               0.000000000               0.476429749              -0.237556056               0.000000000               0.500000000              -0.250000000               0.000000000               0.117295528              -0.062695766               0.000000000               0.141214558              -0.078308531               0.000000000               0.165133587              -0.093921295               0.000000000               0.189052617              -0.109534060               0.000000000               0.212971646              -0.125146824               0.000000000               0.236890676              -0.140759589               0.000000000               0.260809705              -0.156372354               0.000000000               0.284728735              -0.171985118               0.000000000               0.308647764              -0.187597883               0.000000000               0.332566794              -0.203210648               0.000000000               0.356485823              -0.218823412               0.000000000               0.380404853              -0.234436177               0.000000000               0.404323882              -0.250048941               0.000000000               0.428242912              -0.265661706               0.000000000               0.452161941              -0.281274471               0.000000000               0.476080971              -0.296887235               0.000000000               0.500000000              -0.312500000               0.000000000               0.110585458              -0.073890841               0.000000000               0.134923867              -0.092710163               0.000000000               0.159262276              -0.111529486               0.000000000               0.183600685              -0.130348808               0.000000000               0.207939094              -0.149168131               0.000000000               0.232277503              -0.167987453               0.000000000               0.256615912              -0.186806776               0.000000000               0.280954320              -0.205626098               0.000000000               0.305292729              -0.224445420               0.000000000               0.329631138              -0.243264743               0.000000000               0.353969547              -0.262084065               0.000000000               0.378307956              -0.280903388               0.000000000               0.402646365              -0.299722710               0.000000000               0.426984773              -0.318542033               0.000000000               0.451323182              -0.337361355               0.000000000               0.475661591              -0.356180678               0.000000000               0.500000000              -0.375000000               0.000000000               0.102810390              -0.084374307               0.000000000               0.127634741              -0.106444663               0.000000000               0.152459092              -0.128515018               0.000000000               0.177283442              -0.150585374               0.000000000               0.202107793              -0.172655730               0.000000000               0.226932143              -0.194726086               0.000000000               0.251756494              -0.216796442               0.000000000               0.276580845              -0.238866798               0.000000000               0.301405195              -0.260937153               0.000000000               0.326229546              -0.283007509               0.000000000               0.351053896              -0.305077865               0.000000000               0.375878247              -0.327148221               0.000000000               0.400702598              -0.349218577               0.000000000               0.425526948              -0.371288933               0.000000000               0.450351299              -0.393359288               0.000000000               0.475175649              -0.415429644               0.000000000               0.500000000              -0.437500000               0.000000000               0.094045202              -0.094045202               0.000000000               0.119417377              -0.119417377               0.000000000               0.144789552              -0.144789552               0.000000000               0.170161727              -0.170161727               0.000000000               0.195533901              -0.195533901               0.000000000               0.220906076              -0.220906076               0.000000000               0.246278251              -0.246278251               0.000000000               0.271650426              -0.271650426               0.000000000               0.297022601              -0.297022601               0.000000000               0.322394776              -0.322394776               0.000000000               0.347766951              -0.347766951               0.000000000               0.373139126              -0.373139126               0.000000000               0.398511300              -0.398511300               0.000000000               0.423883475              -0.423883475               0.000000000               0.449255650              -0.449255650               0.000000000               0.474627825              -0.474627825               0.000000000               0.500000000              -0.500000000               0.000000000               0.084374307              -0.102810390               0.000000000               0.106444663              -0.127634741               0.000000000               0.128515018              -0.152459092               0.000000000               0.150585374              -0.177283442               0.000000000               0.172655730              -0.202107793               0.000000000               0.194726086              -0.226932143               0.000000000               0.216796442              -0.251756494               0.000000000               0.238866798              -0.276580845               0.000000000               0.260937153              -0.301405195               0.000000000               0.283007509              -0.326229546               0.000000000               0.305077865              -0.351053896               0.000000000               0.327148221              -0.375878247               0.000000000               0.349218577              -0.400702598               0.000000000               0.371288933              -0.425526948               0.000000000               0.393359288              -0.450351299               0.000000000               0.415429644              -0.475175649               0.000000000               0.437500000              -0.500000000               0.000000000               0.073890841              -0.110585458               0.000000000               0.092710163              -0.134923867               0.000000000               0.111529486              -0.159262276               0.000000000               0.130348808              -0.183600685               0.000000000               0.149168131              -0.207939094               0.000000000               0.167987453              -0.232277503               0.000000000               0.186806776              -0.256615912               0.000000000               0.205626098              -0.280954320               0.000000000               0.224445420              -0.305292729               0.000000000               0.243264743              -0.329631138               0.000000000               0.262084065              -0.353969547               0.000000000               0.280903388              -0.378307956               0.000000000               0.299722710              -0.402646365               0.000000000               0.318542033              -0.426984773               0.000000000               0.337361355              -0.451323182               0.000000000               0.356180678              -0.475661591               0.000000000               0.375000000              -0.500000000               0.000000000               0.062695766              -0.117295528               0.000000000               0.078308531              -0.141214558               0.000000000               0.093921295              -0.165133587               0.000000000               0.109534060              -0.189052617               0.000000000               0.125146824              -0.212971646               0.000000000               0.140759589              -0.236890676               0.000000000               0.156372354              -0.260809705               0.000000000               0.171985118              -0.284728735               0.000000000               0.187597883              -0.308647764               0.000000000               0.203210648              -0.332566794               0.000000000               0.218823412              -0.356485823               0.000000000               0.234436177              -0.380404853               0.000000000               0.250048941              -0.404323882               0.000000000               0.265661706              -0.428242912               0.000000000               0.281274471              -0.452161941               0.000000000               0.296887235              -0.476080971               0.000000000               0.312500000              -0.500000000               0.000000000               0.050896897              -0.122875978               0.000000000               0.063340840              -0.146446229               0.000000000               0.075784784              -0.170016481               0.000000000               0.088228728              -0.193586732               0.000000000               0.100672672              -0.217156983               0.000000000               0.113116616              -0.240727235               0.000000000               0.125560560              -0.264297486               0.000000000               0.138004504              -0.287867738               0.000000000               0.150448448              -0.311437989               0.000000000               0.162892392              -0.335008240               0.000000000               0.175336336              -0.358578492               0.000000000               0.187780280              -0.382148743               0.000000000               0.200224224              -0.405718994               0.000000000               0.212668168              -0.429289246               0.000000000               0.225112112              -0.452859497               0.000000000               0.237556056              -0.476429749               0.000000000               0.250000000              -0.500000000               0.000000000               0.038607862              -0.127273065               0.000000000               0.047913621              -0.150568498               0.000000000               0.057219379              -0.173863932               0.000000000               0.066525138              -0.197159365               0.000000000               0.075830897              -0.220454798               0.000000000               0.085136655              -0.243750232               0.000000000               0.094442414              -0.267045665               0.000000000               0.103748172              -0.290341099               0.000000000               0.113053931              -0.313636532               0.000000000               0.122359690              -0.336931966               0.000000000               0.131665448              -0.360227399               0.000000000               0.140971207              -0.383522833               0.000000000               0.150276966              -0.406818266               0.000000000               0.159582724              -0.430113700               0.000000000               0.168888483              -0.453409133               0.000000000               0.178194241              -0.476704567               0.000000000               0.187500000              -0.500000000               0.000000000               0.025947013              -0.130444442               0.000000000               0.032137825              -0.153541665               0.000000000               0.038328636              -0.176638887               0.000000000               0.044519448              -0.199736109               0.000000000               0.050710260              -0.222833332               0.000000000               0.056901071              -0.245930554               0.000000000               0.063091883              -0.269027776               0.000000000               0.069282695              -0.292124999               0.000000000               0.075473506              -0.315222221               0.000000000               0.081664318              -0.338319444               0.000000000               0.087855130              -0.361416666               0.000000000               0.094045942              -0.384513888               0.000000000               0.100236753              -0.407611111               0.000000000               0.106427565              -0.430708333               0.000000000               0.112618377              -0.453805555               0.000000000               0.118809188              -0.476902778               0.000000000               0.125000000              -0.500000000               0.000000000               0.013036280              -0.132359569               0.000000000               0.016127762              -0.155337096               0.000000000               0.019219245              -0.178314623               0.000000000               0.022310727              -0.201292150               0.000000000               0.025402210              -0.224269676               0.000000000               0.028493692              -0.247247203               0.000000000               0.031585175              -0.270224730               0.000000000               0.034676657              -0.293202257               0.000000000               0.037768140              -0.316179784               0.000000000               0.040859622              -0.339157311               0.000000000               0.043951105              -0.362134838               0.000000000               0.047042587              -0.385112365               0.000000000               0.050134070              -0.408089892               0.000000000               0.053225552              -0.431067419               0.000000000               0.056317035              -0.454044946               0.000000000               0.059408517              -0.477022473               0.000000000               0.062500000              -0.500000000               0.000000000               0.000000000              -0.133000000               0.000000000               0.000000000              -0.155937500               0.000000000               0.000000000              -0.178875000               0.000000000               0.000000000              -0.201812500               0.000000000               0.000000000              -0.224750000               0.000000000               0.000000000              -0.247687500               0.000000000               0.000000000              -0.270625000               0.000000000               0.000000000              -0.293562500               0.000000000               0.000000000              -0.316500000               0.000000000               0.000000000              -0.339437500               0.000000000               0.000000000              -0.362375000               0.000000000               0.000000000              -0.385312500               0.000000000               0.000000000              -0.408250000               0.000000000               0.000000000              -0.431187500               0.000000000               0.000000000              -0.454125000               0.000000000               0.000000000              -0.477062500               0.000000000               0.000000000              -0.500000000               0.000000000              -0.133000000               0.000000000               0.000000000              -0.155937500               0.000000000               0.000000000              -0.178875000               0.000000000               0.000000000              -0.201812500               0.000000000               0.000000000              -0.224750000               0.000000000               0.000000000              -0.247687500               0.000000000               0.000000000              -0.270625000               0.000000000               0.000000000              -0.293562500               0.000000000               0.000000000              -0.316500000               0.000000000               0.000000000              -0.339437500               0.000000000               0.000000000              -0.362375000               0.000000000               0.000000000              -0.385312500               0.000000000               0.000000000              -0.408250000               0.000000000               0.000000000              -0.431187500               0.000000000               0.000000000              -0.454125000               0.000000000               0.000000000              -0.477062500               0.000000000               0.000000000              -0.500000000               0.000000000               0.000000000              -0.132359569              -0.013036280               0.000000000              -0.155337096              -0.016127762               0.000000000              -0.178314623              -0.019219245               0.000000000              -0.201292150              -0.022310727               0.000000000              -0.224269676              -0.025402210               0.000000000              -0.247247203              -0.028493692               0.000000000              -0.270224730              -0.031585175               0.000000000              -0.293202257              -0.034676657               0.000000000              -0.316179784              -0.037768140               0.000000000              -0.339157311              -0.040859622               0.000000000              -0.362134838              -0.043951105               0.000000000              -0.385112365              -0.047042587               0.000000000              -0.408089892              -0.050134070               0.000000000              -0.431067419              -0.053225552               0.000000000              -0.454044946              -0.056317035               0.000000000              -0.477022473              -0.059408517               0.000000000              -0.500000000              -0.062500000               0.000000000              -0.130444442              -0.025947013               0.000000000              -0.153541665              -0.032137825               0.000000000              -0.176638887              -0.038328636               0.000000000              -0.199736109              -0.044519448               0.000000000              -0.222833332              -0.050710260               0.000000000              -0.245930554              -0.056901071               0.000000000              -0.269027776              -0.063091883               0.000000000              -0.292124999              -0.069282695               0.000000000              -0.315222221              -0.075473506               0.000000000              -0.338319444              -0.081664318               0.000000000              -0.361416666              -0.087855130               0.000000000              -0.384513888              -0.094045942               0.000000000              -0.407611111              -0.100236753               0.000000000              -0.430708333              -0.106427565               0.000000000              -0.453805555              -0.112618377               0.000000000              -0.476902778              -0.118809188               0.000000000              -0.500000000              -0.125000000               0.000000000              -0.127273065              -0.038607862               0.000000000              -0.150568498              -0.047913621               0.000000000              -0.173863932              -0.057219379               0.000000000              -0.197159365              -0.066525138               0.000000000              -0.220454798              -0.075830897               0.000000000              -0.243750232              -0.085136655               0.000000000              -0.267045665              -0.094442414               0.000000000              -0.290341099              -0.103748172               0.000000000              -0.313636532              -0.113053931               0.000000000              -0.336931966              -0.122359690               0.000000000              -0.360227399              -0.131665448               0.000000000              -0.383522833              -0.140971207               0.000000000              -0.406818266              -0.150276966               0.000000000              -0.430113700              -0.159582724               0.000000000              -0.453409133              -0.168888483               0.000000000              -0.476704567              -0.178194241               0.000000000              -0.500000000              -0.187500000               0.000000000              -0.122875978              -0.050896897               0.000000000              -0.146446229              -0.063340840               0.000000000              -0.170016481              -0.075784784               0.000000000              -0.193586732              -0.088228728               0.000000000              -0.217156983              -0.100672672               0.000000000              -0.240727235              -0.113116616               0.000000000              -0.264297486              -0.125560560               0.000000000              -0.287867738              -0.138004504               0.000000000              -0.311437989              -0.150448448               0.000000000              -0.335008240              -0.162892392               0.000000000              -0.358578492              -0.175336336               0.000000000              -0.382148743              -0.187780280               0.000000000              -0.405718994              -0.200224224               0.000000000              -0.429289246              -0.212668168               0.000000000              -0.452859497              -0.225112112               0.000000000              -0.476429749              -0.237556056               0.000000000              -0.500000000              -0.250000000               0.000000000              -0.117295528              -0.062695766               0.000000000              -0.141214558              -0.078308531               0.000000000              -0.165133587              -0.093921295               0.000000000              -0.189052617              -0.109534060               0.000000000              -0.212971646              -0.125146824               0.000000000              -0.236890676              -0.140759589               0.000000000              -0.260809705              -0.156372354               0.000000000              -0.284728735              -0.171985118               0.000000000              -0.308647764              -0.187597883               0.000000000              -0.332566794              -0.203210648               0.000000000              -0.356485823              -0.218823412               0.000000000              -0.380404853              -0.234436177               0.000000000              -0.404323882              -0.250048941               0.000000000              -0.428242912              -0.265661706               0.000000000              -0.452161941              -0.281274471               0.000000000              -0.476080971              -0.296887235               0.000000000              -0.500000000              -0.312500000               0.000000000              -0.110585458              -0.073890841               0.000000000              -0.134923867              -0.092710163               0.000000000              -0.159262276              -0.111529486               0.000000000              -0.183600685              -0.130348808               0.000000000              -0.207939094              -0.149168131               0.000000000              -0.232277503              -0.167987453               0.000000000              -0.256615912              -0.186806776               0.000000000              -0.280954320              -0.205626098               0.000000000              -0.305292729              -0.224445420               0.000000000              -0.329631138              -0.243264743               0.000000000              -0.353969547              -0.262084065               0.000000000              -0.378307956              -0.280903388               0.000000000              -0.402646365              -0.299722710               0.000000000              -0.426984773              -0.318542033               0.000000000              -0.451323182              -0.337361355               0.000000000              -0.475661591              -0.356180678               0.000000000              -0.500000000              -0.375000000               0.000000000              -0.102810390              -0.084374307               0.000000000              -0.127634741              -0.106444663               0.000000000              -0.152459092              -0.128515018               0.000000000              -0.177283442              -0.150585374               0.000000000              -0.202107793              -0.172655730               0.000000000              -0.226932143              -0.194726086               0.000000000              -0.251756494              -0.216796442               0.000000000              -0.276580845              -0.238866798               0.000000000              -0.301405195              -0.260937153               0.000000000              -0.326229546              -0.283007509               0.000000000              -0.351053896              -0.305077865               0.000000000              -0.375878247              -0.327148221               0.000000000              -0.400702598              -0.349218577               0.000000000              -0.425526948              -0.371288933               0.000000000              -0.450351299              -0.393359288               0.000000000              -0.475175649              -0.415429644               0.000000000              -0.500000000              -0.437500000               0.000000000              -0.094045202              -0.094045202               0.000000000              -0.119417377              -0.119417377               0.000000000              -0.144789552              -0.144789552               0.000000000              -0.170161727              -0.170161727               0.000000000              -0.195533901              -0.195533901               0.000000000              -0.220906076              -0.220906076               0.000000000              -0.246278251              -0.246278251               0.000000000              -0.271650426              -0.271650426               0.000000000              -0.297022601              -0.297022601               0.000000000              -0.322394776              -0.322394776               0.000000000              -0.347766951              -0.347766951               0.000000000              -0.373139126              -0.373139126               0.000000000              -0.398511300              -0.398511300               0.000000000              -0.423883475              -0.423883475               0.000000000              -0.449255650              -0.449255650               0.000000000              -0.474627825              -0.474627825               0.000000000              -0.500000000              -0.500000000               0.000000000              -0.084374307              -0.102810390               0.000000000              -0.106444663              -0.127634741               0.000000000              -0.128515018              -0.152459092               0.000000000              -0.150585374              -0.177283442               0.000000000              -0.172655730              -0.202107793               0.000000000              -0.194726086              -0.226932143               0.000000000              -0.216796442              -0.251756494               0.000000000              -0.238866798              -0.276580845               0.000000000              -0.260937153              -0.301405195               0.000000000              -0.283007509              -0.326229546               0.000000000              -0.305077865              -0.351053896               0.000000000              -0.327148221              -0.375878247               0.000000000              -0.349218577              -0.400702598               0.000000000              -0.371288933              -0.425526948               0.000000000              -0.393359288              -0.450351299               0.000000000              -0.415429644              -0.475175649               0.000000000              -0.437500000              -0.500000000               0.000000000              -0.073890841              -0.110585458               0.000000000              -0.092710163              -0.134923867               0.000000000              -0.111529486              -0.159262276               0.000000000              -0.130348808              -0.183600685               0.000000000              -0.149168131              -0.207939094               0.000000000              -0.167987453              -0.232277503               0.000000000              -0.186806776              -0.256615912               0.000000000              -0.205626098              -0.280954320               0.000000000              -0.224445420              -0.305292729               0.000000000              -0.243264743              -0.329631138               0.000000000              -0.262084065              -0.353969547               0.000000000              -0.280903388              -0.378307956               0.000000000              -0.299722710              -0.402646365               0.000000000              -0.318542033              -0.426984773               0.000000000              -0.337361355              -0.451323182               0.000000000              -0.356180678              -0.475661591               0.000000000              -0.375000000              -0.500000000               0.000000000              -0.062695766              -0.117295528               0.000000000              -0.078308531              -0.141214558               0.000000000              -0.093921295              -0.165133587               0.000000000              -0.109534060              -0.189052617               0.000000000              -0.125146824              -0.212971646               0.000000000              -0.140759589              -0.236890676               0.000000000              -0.156372354              -0.260809705               0.000000000              -0.171985118              -0.284728735               0.000000000              -0.187597883              -0.308647764               0.000000000              -0.203210648              -0.332566794               0.000000000              -0.218823412              -0.356485823               0.000000000              -0.234436177              -0.380404853               0.000000000              -0.250048941              -0.404323882               0.000000000              -0.265661706              -0.428242912               0.000000000              -0.281274471              -0.452161941               0.000000000              -0.296887235              -0.476080971               0.000000000              -0.312500000              -0.500000000               0.000000000              -0.050896897              -0.122875978               0.000000000              -0.063340840              -0.146446229               0.000000000              -0.075784784              -0.170016481               0.000000000              -0.088228728              -0.193586732               0.000000000              -0.100672672              -0.217156983               0.000000000              -0.113116616              -0.240727235               0.000000000              -0.125560560              -0.264297486               0.000000000              -0.138004504              -0.287867738               0.000000000              -0.150448448              -0.311437989               0.000000000              -0.162892392              -0.335008240               0.000000000              -0.175336336              -0.358578492               0.000000000              -0.187780280              -0.382148743               0.000000000              -0.200224224              -0.405718994               0.000000000              -0.212668168              -0.429289246               0.000000000              -0.225112112              -0.452859497               0.000000000              -0.237556056              -0.476429749               0.000000000              -0.250000000              -0.500000000               0.000000000              -0.038607862              -0.127273065               0.000000000              -0.047913621              -0.150568498               0.000000000              -0.057219379              -0.173863932               0.000000000              -0.066525138              -0.197159365               0.000000000              -0.075830897              -0.220454798               0.000000000              -0.085136655              -0.243750232               0.000000000              -0.094442414              -0.267045665               0.000000000              -0.103748172              -0.290341099               0.000000000              -0.113053931              -0.313636532               0.000000000              -0.122359690              -0.336931966               0.000000000              -0.131665448              -0.360227399               0.000000000              -0.140971207              -0.383522833               0.000000000              -0.150276966              -0.406818266               0.000000000              -0.159582724              -0.430113700               0.000000000              -0.168888483              -0.453409133               0.000000000              -0.178194241              -0.476704567               0.000000000              -0.187500000              -0.500000000               0.000000000              -0.025947013              -0.130444442               0.000000000              -0.032137825              -0.153541665               0.000000000              -0.038328636              -0.176638887               0.000000000              -0.044519448              -0.199736109               0.000000000              -0.050710260              -0.222833332               0.000000000              -0.056901071              -0.245930554               0.000000000              -0.063091883              -0.269027776               0.000000000              -0.069282695              -0.292124999               0.000000000              -0.075473506              -0.315222221               0.000000000              -0.081664318              -0.338319444               0.000000000              -0.087855130              -0.361416666               0.000000000              -0.094045942              -0.384513888               0.000000000              -0.100236753              -0.407611111               0.000000000              -0.106427565              -0.430708333               0.000000000              -0.112618377              -0.453805555               0.000000000              -0.118809188              -0.476902778               0.000000000              -0.125000000              -0.500000000               0.000000000              -0.013036280              -0.132359569               0.000000000              -0.016127762              -0.155337096               0.000000000              -0.019219245              -0.178314623               0.000000000              -0.022310727              -0.201292150               0.000000000              -0.025402210              -0.224269676               0.000000000              -0.028493692              -0.247247203               0.000000000              -0.031585175              -0.270224730               0.000000000              -0.034676657              -0.293202257               0.000000000              -0.037768140              -0.316179784               0.000000000              -0.040859622              -0.339157311               0.000000000              -0.043951105              -0.362134838               0.000000000              -0.047042587              -0.385112365               0.000000000              -0.050134070              -0.408089892               0.000000000              -0.053225552              -0.431067419               0.000000000              -0.056317035              -0.454044946               0.000000000              -0.059408517              -0.477022473               0.000000000              -0.062500000              -0.500000000               0.000000000               0.000000000              -0.133000000               0.000000000               0.000000000              -0.155937500               0.000000000               0.000000000              -0.178875000               0.000000000               0.000000000              -0.201812500               0.000000000               0.000000000              -0.224750000               0.000000000               0.000000000              -0.247687500               0.000000000               0.000000000              -0.270625000               0.000000000               0.000000000              -0.293562500               0.000000000               0.000000000              -0.316500000               0.000000000               0.000000000              -0.339437500               0.000000000               0.000000000              -0.362375000               0.000000000               0.000000000              -0.385312500               0.000000000               0.000000000              -0.408250000               0.000000000               0.000000000              -0.431187500               0.000000000               0.000000000              -0.454125000               0.000000000               0.000000000              -0.477062500               0.000000000               0.000000000              -0.500000000               0.000000000              -0.133000000               0.000000000               0.000000000              -0.155937500               0.000000000               0.000000000              -0.178875000               0.000000000               0.000000000              -0.201812500               0.000000000               0.000000000              -0.224750000               0.000000000               0.000000000              -0.247687500               0.000000000               0.000000000              -0.270625000               0.000000000               0.000000000              -0.293562500               0.000000000               0.000000000              -0.316500000               0.000000000               0.000000000              -0.339437500               0.000000000               0.000000000              -0.362375000               0.000000000               0.000000000              -0.385312500               0.000000000               0.000000000              -0.408250000               0.000000000               0.000000000              -0.431187500               0.000000000               0.000000000              -0.454125000               0.000000000               0.000000000              -0.477062500               0.000000000               0.000000000              -0.500000000               0.000000000               0.000000000              -0.132359569               0.013036280               0.000000000              -0.155337096               0.016127762               0.000000000              -0.178314623               0.019219245               0.000000000              -0.201292150               0.022310727               0.000000000              -0.224269676               0.025402210               0.000000000              -0.247247203               0.028493692               0.000000000              -0.270224730               0.031585175               0.000000000              -0.293202257               0.034676657               0.000000000              -0.316179784               0.037768140               0.000000000              -0.339157311               0.040859622               0.000000000              -0.362134838               0.043951105               0.000000000              -0.385112365               0.047042587               0.000000000              -0.408089892               0.050134070               0.000000000              -0.431067419               0.053225552               0.000000000              -0.454044946               0.056317035               0.000000000              -0.477022473               0.059408517               0.000000000              -0.500000000               0.062500000               0.000000000              -0.130444442               0.025947013               0.000000000              -0.153541665               0.032137825               0.000000000              -0.176638887               0.038328636               0.000000000              -0.199736109               0.044519448               0.000000000              -0.222833332               0.050710260               0.000000000              -0.245930554               0.056901071               0.000000000              -0.269027776               0.063091883               0.000000000              -0.292124999               0.069282695               0.000000000              -0.315222221               0.075473506               0.000000000              -0.338319444               0.081664318               0.000000000              -0.361416666               0.087855130               0.000000000              -0.384513888               0.094045942               0.000000000              -0.407611111               0.100236753               0.000000000              -0.430708333               0.106427565               0.000000000              -0.453805555               0.112618377               0.000000000              -0.476902778               0.118809188               0.000000000              -0.500000000               0.125000000               0.000000000              -0.127273065               0.038607862               0.000000000              -0.150568498               0.047913621               0.000000000              -0.173863932               0.057219379               0.000000000              -0.197159365               0.066525138               0.000000000              -0.220454798               0.075830897               0.000000000              -0.243750232               0.085136655               0.000000000              -0.267045665               0.094442414               0.000000000              -0.290341099               0.103748172               0.000000000              -0.313636532               0.113053931               0.000000000              -0.336931966               0.122359690               0.000000000              -0.360227399               0.131665448               0.000000000              -0.383522833               0.140971207               0.000000000              -0.406818266               0.150276966               0.000000000              -0.430113700               0.159582724               0.000000000              -0.453409133               0.168888483               0.000000000              -0.476704567               0.178194241               0.000000000              -0.500000000               0.187500000               0.000000000              -0.122875978               0.050896897               0.000000000              -0.146446229               0.063340840               0.000000000              -0.170016481               0.075784784               0.000000000              -0.193586732               0.088228728               0.000000000              -0.217156983               0.100672672               0.000000000              -0.240727235               0.113116616               0.000000000              -0.264297486               0.125560560               0.000000000              -0.287867738               0.138004504               0.000000000              -0.311437989               0.150448448               0.000000000              -0.335008240               0.162892392               0.000000000              -0.358578492               0.175336336               0.000000000              -0.382148743               0.187780280               0.000000000              -0.405718994               0.200224224               0.000000000              -0.429289246               0.212668168               0.000000000              -0.452859497               0.225112112               0.000000000              -0.476429749               0.237556056               0.000000000              -0.500000000               0.250000000               0.000000000              -0.117295528               0.062695766               0.000000000              -0.141214558               0.078308531               0.000000000              -0.165133587               0.093921295               0.000000000              -0.189052617               0.109534060               0.000000000              -0.212971646               0.125146824               0.000000000              -0.236890676               0.140759589               0.000000000              -0.260809705               0.156372354               0.000000000              -0.284728735               0.171985118               0.000000000              -0.308647764               0.187597883               0.000000000              -0.332566794               0.203210648               0.000000000              -0.356485823               0.218823412               0.000000000              -0.380404853               0.234436177               0.000000000              -0.404323882               0.250048941               0.000000000              -0.428242912               0.265661706               0.000000000              -0.452161941               0.281274471               0.000000000              -0.476080971               0.296887235               0.000000000              -0.500000000               0.312500000               0.000000000              -0.110585458               0.073890841               0.000000000              -0.134923867               0.092710163               0.000000000              -0.159262276               0.111529486               0.000000000              -0.183600685               0.130348808               0.000000000              -0.207939094               0.149168131               0.000000000              -0.232277503               0.167987453               0.000000000              -0.256615912               0.186806776               0.000000000              -0.280954320               0.205626098               0.000000000              -0.305292729               0.224445420               0.000000000              -0.329631138               0.243264743               0.000000000              -0.353969547               0.262084065               0.000000000              -0.378307956               0.280903388               0.000000000              -0.402646365               0.299722710               0.000000000              -0.426984773               0.318542033               0.000000000              -0.451323182               0.337361355               0.000000000              -0.475661591               0.356180678               0.000000000              -0.500000000               0.375000000               0.000000000              -0.102810390               0.084374307               0.000000000              -0.127634741               0.106444663               0.000000000              -0.152459092               0.128515018               0.000000000              -0.177283442               0.150585374               0.000000000              -0.202107793               0.172655730               0.000000000              -0.226932143               0.194726086               0.000000000              -0.251756494               0.216796442               0.000000000              -0.276580845               0.238866798               0.000000000              -0.301405195               0.260937153               0.000000000              -0.326229546               0.283007509               0.000000000              -0.351053896               0.305077865               0.000000000              -0.375878247               0.327148221               0.000000000              -0.400702598               0.349218577               0.000000000              -0.425526948               0.371288933               0.000000000              -0.450351299               0.393359288               0.000000000              -0.475175649               0.415429644               0.000000000              -0.500000000               0.437500000               0.000000000              -0.094045202               0.094045202               0.000000000              -0.119417377               0.119417377               0.000000000              -0.144789552               0.144789552               0.000000000              -0.170161727               0.170161727               0.000000000              -0.195533901               0.195533901               0.000000000              -0.220906076               0.220906076               0.000000000              -0.246278251               0.246278251               0.000000000              -0.271650426               0.271650426               0.000000000              -0.297022601               0.297022601               0.000000000              -0.322394776               0.322394776               0.000000000              -0.347766951               0.347766951               0.000000000              -0.373139126               0.373139126               0.000000000              -0.398511300               0.398511300               0.000000000              -0.423883475               0.423883475               0.000000000              -0.449255650               0.449255650               0.000000000              -0.474627825               0.474627825               0.000000000              -0.500000000               0.500000000               0.000000000              -0.084374307               0.102810390               0.000000000              -0.106444663               0.127634741               0.000000000              -0.128515018               0.152459092               0.000000000              -0.150585374               0.177283442               0.000000000              -0.172655730               0.202107793               0.000000000              -0.194726086               0.226932143               0.000000000              -0.216796442               0.251756494               0.000000000              -0.238866798               0.276580845               0.000000000              -0.260937153               0.301405195               0.000000000              -0.283007509               0.326229546               0.000000000              -0.305077865               0.351053896               0.000000000              -0.327148221               0.375878247               0.000000000              -0.349218577               0.400702598               0.000000000              -0.371288933               0.425526948               0.000000000              -0.393359288               0.450351299               0.000000000              -0.415429644               0.475175649               0.000000000              -0.437500000               0.500000000               0.000000000              -0.073890841               0.110585458               0.000000000              -0.092710163               0.134923867               0.000000000              -0.111529486               0.159262276               0.000000000              -0.130348808               0.183600685               0.000000000              -0.149168131               0.207939094               0.000000000              -0.167987453               0.232277503               0.000000000              -0.186806776               0.256615912               0.000000000              -0.205626098               0.280954320               0.000000000              -0.224445420               0.305292729               0.000000000              -0.243264743               0.329631138               0.000000000              -0.262084065               0.353969547               0.000000000              -0.280903388               0.378307956               0.000000000              -0.299722710               0.402646365               0.000000000              -0.318542033               0.426984773               0.000000000              -0.337361355               0.451323182               0.000000000              -0.356180678               0.475661591               0.000000000              -0.375000000               0.500000000               0.000000000              -0.062695766               0.117295528               0.000000000              -0.078308531               0.141214558               0.000000000              -0.093921295               0.165133587               0.000000000              -0.109534060               0.189052617               0.000000000              -0.125146824               0.212971646               0.000000000              -0.140759589               0.236890676               0.000000000              -0.156372354               0.260809705               0.000000000              -0.171985118               0.284728735               0.000000000              -0.187597883               0.308647764               0.000000000              -0.203210648               0.332566794               0.000000000              -0.218823412               0.356485823               0.000000000              -0.234436177               0.380404853               0.000000000              -0.250048941               0.404323882               0.000000000              -0.265661706               0.428242912               0.000000000              -0.281274471               0.452161941               0.000000000              -0.296887235               0.476080971               0.000000000              -0.312500000               0.500000000               0.000000000              -0.050896897               0.122875978               0.000000000              -0.063340840               0.146446229               0.000000000              -0.075784784               0.170016481               0.000000000              -0.088228728               0.193586732               0.000000000              -0.100672672               0.217156983               0.000000000              -0.113116616               0.240727235               0.000000000              -0.125560560               0.264297486               0.000000000              -0.138004504               0.287867738               0.000000000              -0.150448448               0.311437989               0.000000000              -0.162892392               0.335008240               0.000000000              -0.175336336               0.358578492               0.000000000              -0.187780280               0.382148743               0.000000000              -0.200224224               0.405718994               0.000000000              -0.212668168               0.429289246               0.000000000              -0.225112112               0.452859497               0.000000000              -0.237556056               0.476429749               0.000000000              -0.250000000               0.500000000               0.000000000              -0.038607862               0.127273065               0.000000000              -0.047913621               0.150568498               0.000000000              -0.057219379               0.173863932               0.000000000              -0.066525138               0.197159365               0.000000000              -0.075830897               0.220454798               0.000000000              -0.085136655               0.243750232               0.000000000              -0.094442414               0.267045665               0.000000000              -0.103748172               0.290341099               0.000000000              -0.113053931               0.313636532               0.000000000              -0.122359690               0.336931966               0.000000000              -0.131665448               0.360227399               0.000000000              -0.140971207               0.383522833               0.000000000              -0.150276966               0.406818266               0.000000000              -0.159582724               0.430113700               0.000000000              -0.168888483               0.453409133               0.000000000              -0.178194241               0.476704567               0.000000000              -0.187500000               0.500000000               0.000000000              -0.025947013               0.130444442               0.000000000              -0.032137825               0.153541665               0.000000000              -0.038328636               0.176638887               0.000000000              -0.044519448               0.199736109               0.000000000              -0.050710260               0.222833332               0.000000000              -0.056901071               0.245930554               0.000000000              -0.063091883               0.269027776               0.000000000              -0.069282695               0.292124999               0.000000000              -0.075473506               0.315222221               0.000000000              -0.081664318               0.338319444               0.000000000              -0.087855130               0.361416666               0.000000000              -0.094045942               0.384513888               0.000000000              -0.100236753               0.407611111               0.000000000              -0.106427565               0.430708333               0.000000000              -0.112618377               0.453805555               0.000000000              -0.118809188               0.476902778               0.000000000              -0.125000000               0.500000000               0.000000000              -0.013036280               0.132359569               0.000000000              -0.016127762               0.155337096               0.000000000              -0.019219245               0.178314623               0.000000000              -0.022310727               0.201292150               0.000000000              -0.025402210               0.224269676               0.000000000              -0.028493692               0.247247203               0.000000000              -0.031585175               0.270224730               0.000000000              -0.034676657               0.293202257               0.000000000              -0.037768140               0.316179784               0.000000000              -0.040859622               0.339157311               0.000000000              -0.043951105               0.362134838               0.000000000              -0.047042587               0.385112365               0.000000000              -0.050134070               0.408089892               0.000000000              -0.053225552               0.431067419               0.000000000              -0.056317035               0.454044946               0.000000000              -0.059408517               0.477022473               0.000000000              -0.062500000               0.500000000               0.000000000               0.000000000               0.133000000               0.000000000               0.000000000               0.155937500               0.000000000               0.000000000               0.178875000               0.000000000               0.000000000               0.201812500               0.000000000               0.000000000               0.224750000               0.000000000               0.000000000               0.247687500               0.000000000               0.000000000               0.270625000               0.000000000               0.000000000               0.293562500               0.000000000               0.000000000               0.316500000               0.000000000               0.000000000               0.339437500               0.000000000               0.000000000               0.362375000               0.000000000               0.000000000               0.385312500               0.000000000               0.000000000               0.408250000               0.000000000               0.000000000               0.431187500               0.000000000               0.000000000               0.454125000               0.000000000               0.000000000               0.477062500               0.000000000               0.000000000               0.500000000               0.000000000 </DataArray>
</Points>
<Cells>
<DataArray type="Int32"                                    Name="connectivity"                                                      NumberOfComponents=" 1" format="ascii">
         0          1         18         17          1          2         19         18          2          3         20         19          3          4         21         20          4          5         22         21          5          6         23         22          6          7         24         23          7          8         25         24          8          9         26         25          9         10         27         26         10         11         28         27         11         12         29         28         12         13         30         29         13         14         31         30         14         15         32         31         15         16         33         32         17         18         35         34         18         19         36         35         19         20         37         36         20         21         38         37         21         22         39         38         22         23         40         39         23         24         41         40         24         25         42         41         25         26         43         42         26         27         44         43         27         28         45         44         28         29         46         45         29         30         47         46         30         31         48         47         31         32         49         48         32         33         50         49         34         35         52         51         35         36         53         52         36         37         54         53         37         38         55         54         38         39         56         55         39         40         57         56         40         41         58         57         41         42         59         58         42         43         60         59         43         44         61         60         44         45         62         61         45         46         63         62         46         47         64         63         47         48         65         64         48         49         66         65         49         50         67         66         51         52         69         68         52         53         70         69         53         54         71         70         54         55         72         71         55         56         73         72         56         57         74         73         57         58         75         74         58         59         76         75         59         60         77         76         60         61         78         77         61         62         79         78         62         63         80         79         63         64         81         80         64         65         82         81         65         66         83         82         66         67         84         83         68         69         86         85         69         70         87         86         70         71         88         87         71         72         89         88         72         73         90         89         73         74         91         90         74         75         92         91         75         76         93         92         76         77         94         93         77         78         95         94         78         79         96         95         79         80         97         96         80         81         98         97         81         82         99         98         82         83        100         99         83         84        101        100         85         86        103        102         86         87        104        103         87         88        105        104         88         89        106        105         89         90        107        106         90         91        108        107         91         92        109        108         92         93        110        109         93         94        111        110         94         95        112        111         95         96        113        112         96         97        114        113         97         98        115        114         98         99        116        115         99        100        117        116        100        101        118        117        102        103        120        119        103        104        121        120        104        105        122        121        105        106        123        122        106        107        124        123        107        108        125        124        108        109        126        125        109        110        127        126        110        111        128        127        111        112        129        128        112        113        130        129        113        114        131        130        114        115        132        131        115        116        133        132        116        117        134        133        117        118        135        134        119        120        137        136        120        121        138        137        121        122        139        138        122        123        140        139        123        124        141        140        124        125        142        141        125        126        143        142        126        127        144        143        127        128        145        144        128        129        146        145        129        130        147        146        130        131        148        147        131        132        149        148        132        133        150        149        133        134        151        150        134        135        152        151        136        137        154        153        137        138        155        154        138        139        156        155        139        140        157        156        140        141        158        157        141        142        159        158        142        143        160        159        143        144        161        160        144        145        162        161        145        146        163        162        146        147        164        163        147        148        165        164        148        149        166        165        149        150        167        166        150        151        168        167        151        152        169        168        153        154        171        170        154        155        172        171        155        156        173        172        156        157        174        173        157        158        175        174        158        159        176        175        159        160        177        176        160        161        178        177        161        162        179        178        162        163        180        179        163        164        181        180        164        165        182        181        165        166        183        182        166        167        184        183        167        168        185        184        168        169        186        185        170        171        188        187        171        172        189        188        172        173        190        189        173        174        191        190        174        175        192        191        175        176        193        192        176        177        194        193        177        178        195        194        178        179        196        195        179        180        197        196        180        181        198        197        181        182        199        198        182        183        200        199        183        184        201        200        184        185        202        201        185        186        203        202        187        188        205        204        188        189        206        205        189        190        207        206        190        191        208        207        191        192        209        208        192        193        210        209        193        194        211        210        194        195        212        211        195        196        213        212        196        197        214        213        197        198        215        214        198        199        216        215        199        200        217        216        200        201        218        217        201        202        219        218        202        203        220        219        204        205        222        221        205        206        223        222        206        207        224        223        207        208        225        224        208        209        226        225        209        210        227        226        210        211        228        227        211        212        229        228        212        213        230        229        213        214        231        230        214        215        232        231        215        216        233        232        216        217        234        233        217        218        235        234        218        219        236        235        219        220        237        236        221        222        239        238        222        223        240        239        223        224        241        240        224        225        242        241        225        226        243        242        226        227        244        243        227        228        245        244        228        229        246        245        229        230        247        246        230        231        248        247        231        232        249        248        232        233        250        249        233        234        251        250        234        235        252        251        235        236        253        252        236        237        254        253        238        239        256        255        239        240        257        256        240        241        258        257        241        242        259        258        242        243        260        259        243        244        261        260        244        245        262        261        245        246        263        262        246        247        264        263        247        248        265        264        248        249        266        265        249        250        267        266        250        251        268        267        251        252        269        268        252        253        270        269        253        254        271        270        255        256        273        272        256        257        274        273        257        258        275        274        258        259        276        275        259        260        277        276        260        261        278        277        261        262        279        278        262        263        280        279        263        264        281        280        264        265        282        281        265        266        283        282        266        267        284        283        267        268        285        284        268        269        286        285        269        270        287        286        270        271        288        287        306        307          1          0        307        308          2          1        308        309          3          2        309        310          4          3        310        311          5          4        311        312          6          5        312        313          7          6        313        314          8          7        314        315          9          8        315        316         10          9        316        317         11         10        317        318         12         11        318        319         13         12        319        320         14         13        320        321         15         14        321        322         16         15        323        324        307        306        324        325        308        307        325        326        309        308        326        327        310        309        327        328        311        310        328        329        312        311        329        330        313        312        330        331        314        313        331        332        315        314        332        333        316        315        333        334        317        316        334        335        318        317        335        336        319        318        336        337        320        319        337        338        321        320        338        339        322        321        340        341        324        323        341        342        325        324        342        343        326        325        343        344        327        326        344        345        328        327        345        346        329        328        346        347        330        329        347        348        331        330        348        349        332        331        349        350        333        332        350        351        334        333        351        352        335        334        352        353        336        335        353        354        337        336        354        355        338        337        355        356        339        338        357        358        341        340        358        359        342        341        359        360        343        342        360        361        344        343        361        362        345        344        362        363        346        345        363        364        347        346        364        365        348        347        365        366        349        348        366        367        350        349        367        368        351        350        368        369        352        351        369        370        353        352        370        371        354        353        371        372        355        354        372        373        356        355        374        375        358        357        375        376        359        358        376        377        360        359        377        378        361        360        378        379        362        361        379        380        363        362        380        381        364        363        381        382        365        364        382        383        366        365        383        384        367        366        384        385        368        367        385        386        369        368        386        387        370        369        387        388        371        370        388        389        372        371        389        390        373        372        391        392        375        374        392        393        376        375        393        394        377        376        394        395        378        377        395        396        379        378        396        397        380        379        397        398        381        380        398        399        382        381        399        400        383        382        400        401        384        383        401        402        385        384        402        403        386        385        403        404        387        386        404        405        388        387        405        406        389        388        406        407        390        389        408        409        392        391        409        410        393        392        410        411        394        393        411        412        395        394        412        413        396        395        413        414        397        396        414        415        398        397        415        416        399        398        416        417        400        399        417        418        401        400        418        419        402        401        419        420        403        402        420        421        404        403        421        422        405        404        422        423        406        405        423        424        407        406        425        426        409        408        426        427        410        409        427        428        411        410        428        429        412        411        429        430        413        412        430        431        414        413        431        432        415        414        432        433        416        415        433        434        417        416        434        435        418        417        435        436        419        418        436        437        420        419        437        438        421        420        438        439        422        421        439        440        423        422        440        441        424        423        442        443        426        425        443        444        427        426        444        445        428        427        445        446        429        428        446        447        430        429        447        448        431        430        448        449        432        431        449        450        433        432        450        451        434        433        451        452        435        434        452        453        436        435        453        454        437        436        454        455        438        437        455        456        439        438        456        457        440        439        457        458        441        440        459        460        443        442        460        461        444        443        461        462        445        444        462        463        446        445        463        464        447        446        464        465        448        447        465        466        449        448        466        467        450        449        467        468        451        450        468        469        452        451        469        470        453        452        470        471        454        453        471        472        455        454        472        473        456        455        473        474        457        456        474        475        458        457        476        477        460        459        477        478        461        460        478        479        462        461        479        480        463        462        480        481        464        463        481        482        465        464        482        483        466        465        483        484        467        466        484        485        468        467        485        486        469        468        486        487        470        469        487        488        471        470        488        489        472        471        489        490        473        472        490        491        474        473        491        492        475        474        493        494        477        476        494        495        478        477        495        496        479        478        496        497        480        479        497        498        481        480        498        499        482        481        499        500        483        482        500        501        484        483        501        502        485        484        502        503        486        485        503        504        487        486        504        505        488        487        505        506        489        488        506        507        490        489        507        508        491        490        508        509        492        491        510        511        494        493        511        512        495        494        512        513        496        495        513        514        497        496        514        515        498        497        515        516        499        498        516        517        500        499        517        518        501        500        518        519        502        501        519        520        503        502        520        521        504        503        521        522        505        504        522        523        506        505        523        524        507        506        524        525        508        507        525        526        509        508        527        528        511        510        528        529        512        511        529        530        513        512        530        531        514        513        531        532        515        514        532        533        516        515        533        534        517        516        534        535        518        517        535        536        519        518        536        537        520        519        537        538        521        520        538        539        522        521        539        540        523        522        540        541        524        523        541        542        525        524        542        543        526        525        544        545        528        527        545        546        529        528        546        547        530        529        547        548        531        530        548        549        532        531        549        550        533        532        550        551        534        533        551        552        535        534        552        553        536        535        553        554        537        536        554        555        538        537        555        556        539        538        556        557        540        539        557        558        541        540        558        559        542        541        559        560        543        542        561        562        545        544        562        563        546        545        563        564        547        546        564        565        548        547        565        566        549        548        566        567        550        549        567        568        551        550        568        569        552        551        569        570        553        552        570        571        554        553        571        572        555        554        572        573        556        555        573        574        557        556        574        575        558        557        575        576        559        558        576        577        560        559        578        579        596        595        579        580        597        596        580        581        598        597        581        582        599        598        582        583        600        599        583        584        601        600        584        585        602        601        585        586        603        602        586        587        604        603        587        588        605        604        588        589        606        605        589        590        607        606        590        591        608        607        591        592        609        608        592        593        610        609        593        594        611        610        595        596        613        612        596        597        614        613        597        598        615        614        598        599        616        615        599        600        617        616        600        601        618        617        601        602        619        618        602        603        620        619        603        604        621        620        604        605        622        621        605        606        623        622        606        607        624        623        607        608        625        624        608        609        626        625        609        610        627        626        610        611        628        627        612        613        630        629        613        614        631        630        614        615        632        631        615        616        633        632        616        617        634        633        617        618        635        634        618        619        636        635        619        620        637        636        620        621        638        637        621        622        639        638        622        623        640        639        623        624        641        640        624        625        642        641        625        626        643        642        626        627        644        643        627        628        645        644        629        630        647        646        630        631        648        647        631        632        649        648        632        633        650        649        633        634        651        650        634        635        652        651        635        636        653        652        636        637        654        653        637        638        655        654        638        639        656        655        639        640        657        656        640        641        658        657        641        642        659        658        642        643        660        659        643        644        661        660        644        645        662        661        646        647        664        663        647        648        665        664        648        649        666        665        649        650        667        666        650        651        668        667        651        652        669        668        652        653        670        669        653        654        671        670        654        655        672        671        655        656        673        672        656        657        674        673        657        658        675        674        658        659        676        675        659        660        677        676        660        661        678        677        661        662        679        678        663        664        681        680        664        665        682        681        665        666        683        682        666        667        684        683        667        668        685        684        668        669        686        685        669        670        687        686        670        671        688        687        671        672        689        688        672        673        690        689        673        674        691        690        674        675        692        691        675        676        693        692        676        677        694        693        677        678        695        694        678        679        696        695        680        681        698        697        681        682        699        698        682        683        700        699        683        684        701        700        684        685        702        701        685        686        703        702        686        687        704        703        687        688        705        704        688        689        706        705        689        690        707        706        690        691        708        707        691        692        709        708        692        693        710        709        693        694        711        710        694        695        712        711        695        696        713        712        697        698        715        714        698        699        716        715        699        700        717        716        700        701        718        717        701        702        719        718        702        703        720        719        703        704        721        720        704        705        722        721        705        706        723        722        706        707        724        723        707        708        725        724        708        709        726        725        709        710        727        726        710        711        728        727        711        712        729        728        712        713        730        729        714        715        732        731        715        716        733        732        716        717        734        733        717        718        735        734        718        719        736        735        719        720        737        736        720        721        738        737        721        722        739        738        722        723        740        739        723        724        741        740        724        725        742        741        725        726        743        742        726        727        744        743        727        728        745        744        728        729        746        745        729        730        747        746        731        732        749        748        732        733        750        749        733        734        751        750        734        735        752        751        735        736        753        752        736        737        754        753        737        738        755        754        738        739        756        755        739        740        757        756        740        741        758        757        741        742        759        758        742        743        760        759        743        744        761        760        744        745        762        761        745        746        763        762        746        747        764        763        748        749        766        765        749        750        767        766        750        751        768        767        751        752        769        768        752        753        770        769        753        754        771        770        754        755        772        771        755        756        773        772        756        757        774        773        757        758        775        774        758        759        776        775        759        760        777        776        760        761        778        777        761        762        779        778        762        763        780        779        763        764        781        780        765        766        783        782        766        767        784        783        767        768        785        784        768        769        786        785        769        770        787        786        770        771        788        787        771        772        789        788        772        773        790        789        773        774        791        790        774        775        792        791        775        776        793        792        776        777        794        793        777        778        795        794        778        779        796        795        779        780        797        796        780        781        798        797        782        783        800        799        783        784        801        800        784        785        802        801        785        786        803        802        786        787        804        803        787        788        805        804        788        789        806        805        789        790        807        806        790        791        808        807        791        792        809        808        792        793        810        809        793        794        811        810        794        795        812        811        795        796        813        812        796        797        814        813        797        798        815        814        799        800        817        816        800        801        818        817        801        802        819        818        802        803        820        819        803        804        821        820        804        805        822        821        805        806        823        822        806        807        824        823        807        808        825        824        808        809        826        825        809        810        827        826        810        811        828        827        811        812        829        828        812        813        830        829        813        814        831        830        814        815        832        831        816        817        834        833        817        818        835        834        818        819        836        835        819        820        837        836        820        821        838        837        821        822        839        838        822        823        840        839        823        824        841        840        824        825        842        841        825        826        843        842        826        827        844        843        827        828        845        844        828        829        846        845        829        830        847        846        830        831        848        847        831        832        849        848        833        834        562        561        834        835        563        562        835        836        564        563        836        837        565        564        837        838        566        565        838        839        567        566        839        840        568        567        840        841        569        568        841        842        570        569        842        843        571        570        843        844        572        571        844        845        573        572        845        846        574        573        846        847        575        574        847        848        576        575        848        849        577        576        884        885        579        578        885        886        580        579        886        887        581        580        887        888        582        581        888        889        583        582        889        890        584        583        890        891        585        584        891        892        586        585        892        893        587        586        893        894        588        587        894        895        589        588        895        896        590        589        896        897        591        590        897        898        592        591        898        899        593        592        899        900        594        593        901        902        885        884        902        903        886        885        903        904        887        886        904        905        888        887        905        906        889        888        906        907        890        889        907        908        891        890        908        909        892        891        909        910        893        892        910        911        894        893        911        912        895        894        912        913        896        895        913        914        897        896        914        915        898        897        915        916        899        898        916        917        900        899        918        919        902        901        919        920        903        902        920        921        904        903        921        922        905        904        922        923        906        905        923        924        907        906        924        925        908        907        925        926        909        908        926        927        910        909        927        928        911        910        928        929        912        911        929        930        913        912        930        931        914        913        931        932        915        914        932        933        916        915        933        934        917        916        935        936        919        918        936        937        920        919        937        938        921        920        938        939        922        921        939        940        923        922        940        941        924        923        941        942        925        924        942        943        926        925        943        944        927        926        944        945        928        927        945        946        929        928        946        947        930        929        947        948        931        930        948        949        932        931        949        950        933        932        950        951        934        933        952        953        936        935        953        954        937        936        954        955        938        937        955        956        939        938        956        957        940        939        957        958        941        940        958        959        942        941        959        960        943        942        960        961        944        943        961        962        945        944        962        963        946        945        963        964        947        946        964        965        948        947        965        966        949        948        966        967        950        949        967        968        951        950        969        970        953        952        970        971        954        953        971        972        955        954        972        973        956        955        973        974        957        956        974        975        958        957        975        976        959        958        976        977        960        959        977        978        961        960        978        979        962        961        979        980        963        962        980        981        964        963        981        982        965        964        982        983        966        965        983        984        967        966        984        985        968        967        986        987        970        969        987        988        971        970        988        989        972        971        989        990        973        972        990        991        974        973        991        992        975        974        992        993        976        975        993        994        977        976        994        995        978        977        995        996        979        978        996        997        980        979        997        998        981        980        998        999        982        981        999       1000        983        982       1000       1001        984        983       1001       1002        985        984       1003       1004        987        986       1004       1005        988        987       1005       1006        989        988       1006       1007        990        989       1007       1008        991        990       1008       1009        992        991       1009       1010        993        992       1010       1011        994        993       1011       1012        995        994       1012       1013        996        995       1013       1014        997        996       1014       1015        998        997       1015       1016        999        998       1016       1017       1000        999       1017       1018       1001       1000       1018       1019       1002       1001       1020       1021       1004       1003       1021       1022       1005       1004       1022       1023       1006       1005       1023       1024       1007       1006       1024       1025       1008       1007       1025       1026       1009       1008       1026       1027       1010       1009       1027       1028       1011       1010       1028       1029       1012       1011       1029       1030       1013       1012       1030       1031       1014       1013       1031       1032       1015       1014       1032       1033       1016       1015       1033       1034       1017       1016       1034       1035       1018       1017       1035       1036       1019       1018       1037       1038       1021       1020       1038       1039       1022       1021       1039       1040       1023       1022       1040       1041       1024       1023       1041       1042       1025       1024       1042       1043       1026       1025       1043       1044       1027       1026       1044       1045       1028       1027       1045       1046       1029       1028       1046       1047       1030       1029       1047       1048       1031       1030       1048       1049       1032       1031       1049       1050       1033       1032       1050       1051       1034       1033       1051       1052       1035       1034       1052       1053       1036       1035       1054       1055       1038       1037       1055       1056       1039       1038       1056       1057       1040       1039       1057       1058       1041       1040       1058       1059       1042       1041       1059       1060       1043       1042       1060       1061       1044       1043       1061       1062       1045       1044       1062       1063       1046       1045       1063       1064       1047       1046       1064       1065       1048       1047       1065       1066       1049       1048       1066       1067       1050       1049       1067       1068       1051       1050       1068       1069       1052       1051       1069       1070       1053       1052       1071       1072       1055       1054       1072       1073       1056       1055       1073       1074       1057       1056       1074       1075       1058       1057       1075       1076       1059       1058       1076       1077       1060       1059       1077       1078       1061       1060       1078       1079       1062       1061       1079       1080       1063       1062       1080       1081       1064       1063       1081       1082       1065       1064       1082       1083       1066       1065       1083       1084       1067       1066       1084       1085       1068       1067       1085       1086       1069       1068       1086       1087       1070       1069       1088       1089       1072       1071       1089       1090       1073       1072       1090       1091       1074       1073       1091       1092       1075       1074       1092       1093       1076       1075       1093       1094       1077       1076       1094       1095       1078       1077       1095       1096       1079       1078       1096       1097       1080       1079       1097       1098       1081       1080       1098       1099       1082       1081       1099       1100       1083       1082       1100       1101       1084       1083       1101       1102       1085       1084       1102       1103       1086       1085       1103       1104       1087       1086       1105       1106       1089       1088       1106       1107       1090       1089       1107       1108       1091       1090       1108       1109       1092       1091       1109       1110       1093       1092       1110       1111       1094       1093       1111       1112       1095       1094       1112       1113       1096       1095       1113       1114       1097       1096       1114       1115       1098       1097       1115       1116       1099       1098       1116       1117       1100       1099       1117       1118       1101       1100       1118       1119       1102       1101       1119       1120       1103       1102       1120       1121       1104       1103       1122       1123       1106       1105       1123       1124       1107       1106       1124       1125       1108       1107       1125       1126       1109       1108       1126       1127       1110       1109       1127       1128       1111       1110       1128       1129       1112       1111       1129       1130       1113       1112       1130       1131       1114       1113       1131       1132       1115       1114       1132       1133       1116       1115       1133       1134       1117       1116       1134       1135       1118       1117       1135       1136       1119       1118       1136       1137       1120       1119       1137       1138       1121       1120        272        273       1123       1122        273        274       1124       1123        274        275       1125       1124        275        276       1126       1125        276        277       1127       1126        277        278       1128       1127        278        279       1129       1128        279        280       1130       1129        280        281       1131       1130        281        282       1132       1131        282        283       1133       1132        283        284       1134       1133        284        285       1135       1134        285        286       1136       1135        286        287       1137       1136        287        288       1138       1137 </DataArray>
<DataArray type="Int32"                                    Name="offsets"                                                      NumberOfComponents=" 1" format="ascii">
         4          8         12         16         20         24         28         32         36         40         44         48         52         56         60         64         68         72         76         80         84         88         92         96        100        104        108        112        116        120        124        128        132        136        140        144        148        152        156        160        164        168        172        176        180        184        188        192        196        200        204        208        212        216        220        224        228        232        236        240        244        248        252        256        260        264        268        272        276        280        284        288        292        296        300        304        308        312        316        320        324        328        332        336        340        344        348        352        356        360        364        368        372        376        380        384        388        392        396        400        404        408        412        416        420        424        428        432        436        440        444        448        452        456        460        464        468        472        476        480        484        488        492        496        500        504        508        512        516        520        524        528        532        536        540        544        548        552        556        560        564        568        572        576        580        584        588        592        596        600        604        608        612        616        620        624        628        632        636        640        644        648        652        656        660        664        668        672        676        680        684        688        692        696        700        704        708        712        716        720        724        728        732        736        740        744        748        752        756        760        764        768        772        776        780        784        788        792        796        800        804        808        812        816        820        824        828        832        836        840        844        848        852        856        860        864        868        872        876        880        884        888        892        896        900        904        908        912        916        920        924        928        932        936        940        944        948        952        956        960        964        968        972        976        980        984        988        992        996       1000       1004       1008       1012       1016       1020       1024       1028       1032       1036       1040       1044       1048       1052       1056       1060       1064       1068       1072       1076       1080       1084       1088       1092       1096       1100       1104       1108       1112       1116       1120       1124       1128       1132       1136       1140       1144       1148       1152       1156       1160       1164       1168       1172       1176       1180       1184       1188       1192       1196       1200       1204       1208       1212       1216       1220       1224       1228       1232       1236       1240       1244       1248       1252       1256       1260       1264       1268       1272       1276       1280       1284       1288       1292       1296       1300       1304       1308       1312       1316       1320       1324       1328       1332       1336       1340       1344       1348       1352       1356       1360       1364       1368       1372       1376       1380       1384       1388       1392       1396       1400       1404       1408       1412       1416       1420       1424       1428       1432       1436       1440       1444       1448       1452       1456       1460       1464       1468       1472       1476       1480       1484       1488       1492       1496       1500       1504       1508       1512       1516       1520       1524       1528       1532       1536       1540       1544       1548       1552       1556       1560       1564       1568       1572       1576       1580       1584       1588       1592       1596       1600       1604       1608       1612       1616       1620       1624       1628       1632       1636       1640       1644       1648       1652       1656       1660       1664       1668       1672       1676       1680       1684       1688       1692       1696       1700       1704       1708       1712       1716       1720       1724       1728       1732       1736       1740       1744       1748       1752       1756       1760       1764       1768       1772       1776       1780       1784       1788       1792       1796       1800       1804       1808       1812       1816       1820       1824       1828       1832       1836       1840       1844       1848       1852       1856       1860       1864       1868       1872       1876       1880       1884       1888       1892       1896       1900       1904       1908       1912       1916       1920       1924       1928       1932       1936       1940       1944       1948       1952       1956       1960       1964       1968       1972       1976       1980       1984       1988       1992       1996       2000       2004       2008       2012       2016       2020       2024       2028       2032       2036       2040       2044       2048       2052       2056       2060       2064       2068       2072       2076       2080       2084       2088       2092       2096       2100       2104       2108       2112       2116       2120       2124       2128       2132       2136       2140       2144       2148       2152       2156       2160       2164       2168       2172       2176       2180       2184       2188       2192       2196       2200       2204       2208       2212       2216       2220       2224       2228       2232       2236       2240       2244       2248       2252       2256       2260       2264       2268       2272       2276       2280       2284       2288       2292       2296       2300       2304       2308       2312       2316       2320       2324       2328       2332       2336       2340       2344       2348       2352       2356       2360       2364       2368       2372       2376       2380       2384       2388       2392       2396       2400       2404       2408       2412       2416       2420       2424       2428       2432       2436       2440       2444       2448       2452       2456       2460       2464       2468       2472       2476       2480       2484       2488       2492       2496       2500       2504       2508       2512       2516       2520       2524       2528       2532       2536       2540       2544       2548       2552       2556       2560       2564       2568       2572       2576       2580       2584       2588       2592       2596       2600       2604       2608       2612       2616       2620       2624       2628       2632       2636       2640       2644       2648       2652       2656       2660       2664       2668       2672       2676       2680       2684       2688       2692       2696       2700       2704       2708       2712       2716       2720       2724       2728       2732       2736       2740       2744       2748       2752       2756       2760       2764       2768       2772       2776       2780       2784       2788       2792       2796       2800       2804       2808       2812       2816       2820       2824       2828       2832       2836       2840       2844       2848       2852       2856       2860       2864       2868       2872       2876       2880       2884       2888       2892       2896       2900       2904       2908       2912       2916       2920       2924       2928       2932       2936       2940       2944       2948       2952       2956       2960       2964       2968       2972       2976       2980       2984       2988       2992       2996       3000       3004       3008       3012       3016       3020       3024       3028       3032       3036       3040       3044       3048       3052       3056       3060       3064       3068       3072       3076       3080       3084       3088       3092       3096       3100       3104       3108       3112       3116       3120       3124       3128       3132       3136       3140       3144       3148       3152       3156       3160       3164       3168       3172       3176       3180       3184       3188       3192       3196       3200       3204       3208       3212       3216       3220       3224       3228       3232       3236       3240       3244       3248       3252       3256       3260       3264       3268       3272       3276       3280       3284       3288       3292       3296       3300       3304       3308       3312       3316       3320       3324       3328       3332       3336       3340       3344       3348       3352       3356       3360       3364       3368       3372       3376       3380       3384       3388       3392       3396       3400       3404       3408       3412       3416       3420       3424       3428       3432       3436       3440       3444       3448       3452       3456       3460       3464       3468       3472       3476       3480       3484       3488       3492       3496       3500       3504       3508       3512       3516       3520       3524       3528       3532       3536       3540       3544       3548       3552       3556       3560       3564       3568       3572       3576       3580       3584       3588       3592       3596       3600       3604       3608       3612       3616       3620       3624       3628       3632       3636       3640       3644       3648       3652       3656       3660       3664       3668       3672       3676       3680       3684       3688       3692       3696       3700       3704       3708       3712       3716       3720       3724       3728       3732       3736       3740       3744       3748       3752       3756       3760       3764       3768       3772       3776       3780       3784       3788       3792       3796       3800       3804       3808       3812       3816       3820       3824       3828       3832       3836       3840       3844       3848       3852       3856       3860       3864       3868       3872       3876       3880       3884       3888       3892       3896       3900       3904       3908       3912       3916       3920       3924       3928       3932       3936       3940       3944       3948       3952       3956       3960       3964       3968       3972       3976       3980       3984       3988       3992       3996       4000       4004       4008       4012       4016       4020       4024       4028       4032       4036       4040       4044       4048       4052       4056       4060       4064       4068       4072       4076       4080       4084       4088       4092       4096 </DataArray>
<DataArray type="UInt8"                                    Name="types"                                                      NumberOfComponents=" 1" format="ascii">
         9          9          9          9          9          9          9          9          9          9          9          9          9          9          9          9          9          9          9          9          9          9          9          9          9          9          9          9          9          9          9          9          9          9          9          9          9          9          9          9          9          9          9          9          9          9          9          9          9          9          9          9          9          9          9          9          9          9          9          9          9          9          9          9          9          9          9          9          9          9          9          9          9          9          9          9          9          9          9          9          9          9          9          9          9          9          9          9          9          9          9          9          9          9          9          9          9          9          9          9          9          9          9          9          9          9          9          9          9          9          9          9          9          9          9          9          9          9          9          9          9          9          9          9          9          9          9          9          9          9          9          9          9          9          9          9          9          9          9          9          9          9          9          9          9          9          9          9          9          9          9          9          9          9          9          9          9          9          9          9          9          9          9          9          9          9          9          9          9          9          9          9          9          9          9          9          9          9          9          9          9          9          9          9          9          9          9          9          9          9          9          9          9          9          9          9          9          9          9          9          9          9          9          9          9          9          9          9          9          9          9          9          9          9          9          9          9          9          9          9          9          9          9          9          9          9          9          9          9          9          9          9          9          9          9          9          9          9          9          9          9          9          9          9          9          9          9          9          9          9          9          9          9          9          9          9          9          9          9          9          9          9          9          9          9          9          9          9          9          9          9          9          9          9          9          9          9          9          9          9          9          9          9          9          9          9          9          9          9          9          9          9          9          9          9          9          9          9          9          9          9          9          9          9          9          9          9          9          9          9          9          9          9          9          9          9          9          9          9          9          9          9          9          9          9          9          9          9          9          9          9          9          9          9          9          9          9          9          9          9          9          9          9          9          9          9          9          9          9          9          9          9          9          9          9          9          9          9          9          9          9          9          9          9          9          9          9          9          9          9          9          9          9          9          9          9          9          9          9          9          9          9          9          9          9          9          9          9          9          9          9          9          9          9          9          9          9          9          9          9          9          9          9          9          9          9          9          9          9          9          9          9          9          9          9          9          9          9          9          9          9          9          9          9          9          9          9          9          9          9          9          9          9          9          9          9          9          9          9          9          9          9          9          9          9          9          9          9          9          9          9          9          9          9          9          9          9          9          9          9          9          9          9          9          9          9          9          9          9          9          9          9          9          9          9          9          9          9          9          9          9          9          9          9          9          9          9          9          9          9          9          9          9          9          9          9          9          9          9          9          9          9          9          9          9          9          9          9          9          9          9          9          9          9          9          9          9          9          9          9          9          9          9          9          9          9          9          9          9          9          9          9          9          9          9          9          9          9          9          9          9          9          9          9          9          9          9          9          9          9          9          9          9          9          9          9          9          9          9          9          9          9          9          9          9          9          9          9          9          9          9          9          9          9          9          9          9          9          9          9          9          9          9          9          9          9          9          9          9          9          9          9          9          9          9          9          9          9          9          9          9          9          9          9          9          9          9          9          9          9          9          9          9          9          9          9          9          9          9          9          9          9          9          9          9          9          9          9          9          9          9          9          9          9          9          9          9          9          9          9          9          9          9          9          9          9          9          9          9          9          9          9          9          9          9          9          9          9          9          9          9          9          9          9          9          9          9          9          9          9          9          9          9          9          9          9          9          9          9          9          9          9          9          9          9          9          9          9          9          9          9          9          9          9          9          9          9          9          9          9          9          9          9          9          9          9          9          9          9          9          9          9          9          9          9          9          9          9          9          9          9          9          9          9          9          9          9          9          9          9          9          9          9          9          9          9          9          9          9          9          9          9          9          9          9          9          9          9          9          9          9          9          9          9          9          9          9          9          9          9          9          9          9          9          9          9          9          9          9          9          9          9          9          9          9          9          9          9          9          9          9          9          9          9          9          9          9          9          9          9          9          9          9          9          9          9          9          9          9          9          9          9          9          9          9          9          9          9          9          9          9          9          9          9          9          9          9          9          9          9          9          9          9          9          9          9          9          9          9          9          9          9          9          9          9          9          9          9          9          9          9          9          9          9          9          9          9          9          9          9          9          9          9          9          9          9          9          9          9          9          9          9          9          9          9          9          9          9          9          9          9          9          9          9          9          9          9          9          9          9          9          9          9          9          9          9          9          9          9          9          9          9          9          9          9          9          9          9          9          9          9          9          9          9          9          9          9          9          9          9          9          9          9          9          9          9          9          9          9          9          9          9          9          9          9          9          9          9          9          9          9          9          9          9          9          9          9          9          9          9          9          9          9          9          9          9          9          9          9          9          9          9          9          9          9          9          9          9          9          9          9          9          9          9          9          9          9          9          9          9          9          9          9          9          9          9          9          9          9          9          9          9          9          9          9          9          9          9          9          9          9          9          9          9          9          9          9          9          9          9          9          9          9          9          9          9          9          9          9          9          9          9          9          9          9          9          9          9          9          9          9          9          9          9 </DataArray>
</Cells>
<CellData>
<DataArray type="Int32"                                    Name="material"                                                      NumberOfComponents=" 1" format="ascii">
         1          1          1          1          1          1          1          1          1          1          1          1          1          1          1          1          1          1          1          1          1          1          1          1          1          1          1          1          1          1          1          1          1          1          1          1          1          1          1          1          1          1          1          1          1          1          1          1          1          1          1          1          1          1          1          1          1          1          1          1          1          1          1          1          1          1          1          1          1          1          1          1          1          1          1          1          1          1          1          1          1          1          1          1          1          1          1          1          1          1          1          1          1          1          1          1          1          1          1          1          1          1          1          1          1          1          1          1          1          1          1          1          1          1          1          1          1          1          1          1          1          1          1          1          1          1          1          1          1          1          1          1          1          1          1          1          1          1          1          1          1          1          1          1          1          1          1          1          1          1          1          1          1          1          1          1          1          1          1          1          1          1          1          1          1          1          1          1          1          1          1          1          1          1          1          1          1          1          1          1          1          1          1          1          1          1          1          1          1          1          1          1          1          1          1          1          1          1          1          1          1          1          1          1          1          1          1          1          1          1          1          1          1          1          1          1          1          1          1          1          1          1          1          1          1          1          1          1          1          1          1          1          1          1          1          1          1          1          1          1          1          1          1          1          1          1          1          1          1          1          1          1          1          1          1          1          1          1          1          1          1          1          1          1          1          1          1          1          1          1          1          1          1          1          1          1          1          1          1          1          1          1          1          1          1          1          1          1          1          1          1          1          1          1          1          1          1          1          1          1          1          1          1          1          1          1          1          1          1          1          1          1          1          1          1          1          1          1          1          1          1          1          1          1          1          1          1          1          1          1          1          1          1          1          1          1          1          1          1          1          1          1          1          1          1          1          1          1          1          1          1          1          1          1          1          1          1          1          1          1          1          1          1          1          1          1          1          1          1          1          1          1          1          1          1          1          1          1          1          1          1          1          1          1          1          1          1          1          1          1          1          1          1          1          1          1          1          1          1          1          1          1          1          1          1          1          1          1          1          1          1          1          1          1          1          1          1          1          1          1          1          1          1          1          1          1          1          1          1          1          1          1          1          1          1          1          1          1          1          1          1          1          1          1          1          1          1          1          1          1          1          1          1          1          1          1          1          1          1          1          1          1          1          1          1          1          1          1          1          1          1          1          1          1          1          1          1          1          1          1          1          1          1          1          1          1          1          1          1          1          1          1          1          1          1          1          1          1          1          1          1          1          1          1          1          1          1          1          1          1          1          1          1          1          1          1          1          1          1          1          1          1          1          1          1          1          1          1          1          1          1          1          1          1          1          1          1          1          1          1          1          1          1          1          1          1          1          1          1          1          1          1          1          1          1          1          1          1          1          1          1          1          1          1          1          1          1          1          1          1          1          1          1          1          1          1          1          1          1          1          1          1          1          1          1          1          1          1          1          1          1          1          1          1          1          1          1          1          1          1          1          1          1          1          1          1          1          1          1          1          1          1          1          1          1          1          1          1          1          1          1          1          1          1          1          1          1          1          1          1          1          1          1          1          1          1          1          1          1          1          1          1          1          1          1          1          1          1          1          1          1          1          1          1          1          1          1          1          1          1          1          1          1          1          1          1          1          1          1          1          1          1          1          1          1          1          1          1          1          1          1          1          1          1          1          1          1          1          1          1          1          1          1          1          1          1          1          1          1          1          1          1          1          1          1          1          1          1          1          1          1          1          1          1          1          1          1          1          1          1          1          1          1          1          1          1          1          1          1          1          1          1          1          1          1          1          1          1          1          1          1          1          1          1          1          1          1          1          1          1          1          1          1          1          1          1          1          1          1          1          1          1          1          1          1          1          1          1          1          1          1          1          1          1          1          1          1          1          1          1          1          1          1          1          1          1          1          1          1          1          1          1          1          1          1          1          1          1          1          1          1          1          1          1          1          1          1          1          1          1          1          1          1          1          1          1          1          1          1          1          1          1          1          1          1          1          1          1          1          1          1          1          1          1          1          1          1          1          1          1          1          1          1          1          1          1          1          1          1          1          1          1          1          1          1          1          1          1          1          1          1          1          1          1          1          1          1          1          1          1          1          1          1          1          1          1          1          1          1          1          1          1          1          1          1          1          1          1          1          1          1          1          1          1          1          1          1          1          1          1          1          1          1          1          1          1          1          1          1          1          1          1          1          1          1          1          1          1          1          1          1          1          1          1          1          1          1          1          1          1          1          1          1          1          1          1          1          1          1          1          1          1          1          1          1          1          1          1          1          1          1          1          1          1          1          1          1          1          1          1          1          1          1          1          1          1          1          1          1          1          1          1          1          1          1          1          1          1          1          1          1          1          1          1          1          1          1          1          1          1          1          1          1          1          1          1          1          1          1          1          1          1          1          1          1          1          1          1          1          1          1          1          1          1          1          1          1          1          1          1          1          1          1          1 </DataArray>
</CellData>
<PointData>
<DataArray type="Float64"                                    Name="u"                                                      NumberOfComponents=" 3" format="ascii">
             -0.000533273               0.000000000               0.999999984              -0.000577985               0.000000000               0.999999984              -0.000598046              -0.000000000               0.999999984              -0.000609571              -0.000000000               0.999999984              -0.000618697              -0.000000000               0.999999984              -0.000627820              -0.000000000               0.999999984              -0.000637779              -0.000000000               0.999999984              -0.000648855               0.000000000               0.999999984              -0.000661123               0.000000000               0.999999984              -0.000674423               0.000000000               0.999999984              -0.000688503               0.000000000               0.999999984              -0.000703104               0.000000000               0.999999984              -0.000717883               0.000000000               0.999999984              -0.000732707              -0.000000000               0.999999984              -0.000747363               0.000000000               0.999999984              -0.000761518              -0.000000000               0.999999984              -0.000774456               0.000000000               0.999999984              -0.000530338               0.000114723               0.999999984              -0.000571968               0.000094886               0.999999984              -0.000590052               0.000086950               0.999999984              -0.000600437               0.000084875               0.999999984              -0.000608870               0.000085949               0.999999984              -0.000617444               0.000088684               0.999999984              -0.000627006               0.000092425               0.999999984              -0.000637739               0.000096475               0.999999984              -0.000649553               0.000100480               0.999999984              -0.000662213               0.000104196               0.999999984              -0.000675486               0.000107382               0.999999984              -0.000689150               0.000109724               0.999999984              -0.000702880               0.000111018               0.999999984              -0.000716428               0.000111144               0.999999984              -0.000729622               0.000109676               0.999999984              -0.000742186               0.000105647               0.999999984              -0.000753630               0.000098066               0.999999984              -0.000521406               0.000228264               0.999999984              -0.000554045               0.000189120               0.999999984              -0.000566770               0.000174112               0.999999984              -0.000574025               0.000170865               0.999999984              -0.000580593               0.000173575               0.999999984              -0.000587973               0.000179531               0.999999984              -0.000596472               0.000187138               0.999999984              -0.000606030               0.000195271               0.999999984              -0.000616471               0.000203390               0.999999984              -0.000627540               0.000210800               0.999999984              -0.000638940               0.000217205               0.999999984              -0.000650257               0.000222031               0.999999984              -0.000661278               0.000224808               0.999999984              -0.000671776               0.000225417               0.999999984              -0.000681529               0.000223227               0.999999984              -0.000690445               0.000217152               0.999999984              -0.000698474               0.000206060               0.999999984              -0.000506770               0.000339424               0.999999984              -0.000525270               0.000282171               0.999999984              -0.000530271               0.000261770               0.999999984              -0.000533397               0.000258709               0.999999984              -0.000537654               0.000264111               0.999999984              -0.000543524               0.000273769               0.999999984              -0.000550701               0.000285482               0.999999984              -0.000558862               0.000297847               0.999999984              -0.000567641               0.000309961               0.999999984              -0.000576580               0.000320987               0.999999984              -0.000585143               0.000330295               0.999999984              -0.000593133               0.000337578               0.999999984              -0.000600397               0.000342561               0.999999984              -0.000606854               0.000344886               0.999999984              -0.000612460               0.000343814               0.999999984              -0.000617227               0.000338803               0.999999984              -0.000621388               0.000329350               0.999999984              -0.000486725               0.000447141               0.999999984              -0.000487091               0.000373700               0.999999984              -0.000483494               0.000350077               0.999999984              -0.000482637               0.000348659               0.999999984              -0.000484870               0.000357630               0.999999984              -0.000489503               0.000371540               0.999999984              -0.000495749               0.000387495               0.999999984              -0.000502701               0.000404015               0.999999984              -0.000509655               0.000419919               0.999999984              -0.000516131               0.000434351               0.999999984              -0.000521850               0.000446756               0.999999984              -0.000526588               0.000456878               0.999999984              -0.000530212               0.000464464               0.999999984              -0.000532641               0.000469389               0.999999984              -0.000534037               0.000471261               0.999999984              -0.000534653               0.000469813               0.999999984              -0.000534693               0.000465421               0.999999984              -0.000461539               0.000550372               0.999999984              -0.000441440               0.000463600               0.999999984              -0.000430055               0.000438848               0.999999984              -0.000426340               0.000440208               0.999999984              -0.000427682               0.000453328               0.999999984              -0.000432024               0.000471709               0.999999984              -0.000437649               0.000492018               0.999999984              -0.000443455               0.000512500               0.999999984              -0.000448791               0.000532052               0.999999984              -0.000453018               0.000549808               0.999999984              -0.000455892               0.000565388               0.999999984              -0.000457242               0.000578376               0.999999984              -0.000457009               0.000588722               0.999999984              -0.000455338               0.000596674               0.999999984              -0.000452516               0.000602126               0.999999984              -0.000448715               0.000605193               0.999999984              -0.000444055               0.000605964               0.999999984              -0.000431765               0.000648029               0.999999984              -0.000390907               0.000551681               0.999999984              -0.000373672               0.000527562               0.999999984              -0.000369032               0.000532304               0.999999984              -0.000370940               0.000549739               0.999999984              -0.000375637               0.000572485               0.999999984              -0.000381060               0.000596925               0.999999984              -0.000385991               0.000621265               0.999999984              -0.000389441               0.000644436               0.999999984              -0.000391016               0.000665395               0.999999984              -0.000390662               0.000683712               0.999999984              -0.000388273               0.000699171               0.999999984              -0.000383957               0.000712055               0.999999984              -0.000377902               0.000722812               0.999999984              -0.000370357               0.000731588               0.999999984              -0.000361358               0.000738382               0.999999984              -0.000350911               0.000742964               0.999999984              -0.000398114               0.000739039               0.999999984              -0.000338054               0.000637682               0.999999984              -0.000317743               0.000615401               0.999999984              -0.000314391               0.000623544               0.999999984              -0.000317849               0.000645029               0.999999984              -0.000323425               0.000671927               0.999999984              -0.000328680               0.000700468               0.999999984              -0.000332240               0.000728619               0.999999984              -0.000333549               0.000754773               0.999999984              -0.000332272               0.000778143               0.999999984              -0.000328218               0.000798413               0.999999984              -0.000321438               0.000815779               0.999999984              -0.000312103               0.000830853               0.999999984              -0.000300538               0.000844224               0.999999984              -0.000286994               0.000855950               0.999999984              -0.000271666               0.000865684               0.999999984              -0.000254889               0.000873283               0.999999984              -0.000361911               0.000821741               0.999999984              -0.000284804               0.000721434               0.999999984              -0.000265299               0.000701224               0.999999984              -0.000264586               0.000712459               0.999999984              -0.000270203               0.000737592               0.999999984              -0.000276612               0.000768590               0.999999984              -0.000281340               0.000801051               0.999999984              -0.000283331               0.000832293               0.999999984              -0.000281885               0.000860899               0.999999984              -0.000276783               0.000886022               0.999999984              -0.000267813               0.000907755               0.999999984              -0.000255258               0.000926756               0.999999984              -0.000239712               0.000943777               0.999999984              -0.000221823               0.000959289               0.999999984              -0.000201962               0.000973259               0.999999984              -0.000180678               0.000985655               0.999999984              -0.000158723               0.000996590               0.999999984              -0.000324957               0.000899359               0.999999984              -0.000241067               0.000812661               0.999999984              -0.000218456               0.000787866               0.999999984              -0.000216432               0.000793204               0.999999984              -0.000221455               0.000813470               0.999999984              -0.000227874               0.000841366               0.999999984              -0.000233117               0.000872243               0.999999984              -0.000236015               0.000903508               0.999999984              -0.000235778               0.000933252               0.999999984              -0.000232097               0.000960491               0.999999984              -0.000224444               0.000984778               0.999999984              -0.000212731               0.001006289               0.999999984              -0.000197535               0.001025672               0.999999984              -0.000179605               0.001043395               0.999999984              -0.000159796               0.001060096               0.999999984              -0.000138297               0.001075686               0.999999984              -0.000116250               0.001090160               0.999999984              -0.000284496               0.000969632               0.999999984              -0.000200142               0.000900276               0.999999984              -0.000174589               0.000875991               0.999999984              -0.000170396               0.000877526               0.999999984              -0.000174098               0.000893944               0.999999984              -0.000179933               0.000918940               0.999999984              -0.000185281               0.000948116               0.999999984              -0.000188798               0.000978947               0.999999984              -0.000189553               0.001009598               0.999999984              -0.000187006               0.001038817               0.999999984              -0.000180662               0.001065790               0.999999984              -0.000170189               0.001090095               0.999999984              -0.000155780               0.001112019               0.999999984              -0.000137806               0.001132026               0.999999984              -0.000117117               0.001150801               0.999999984              -0.000094377               0.001168662               0.999999984              -0.000070456               0.001186023               0.999999984              -0.000241471               0.001030971               0.999999984              -0.000161940               0.000981817               0.999999984              -0.000134900               0.000961788               0.999999984              -0.000128337               0.000962240               0.999999984              -0.000130206               0.000976346               0.999999984              -0.000134871               0.000999127               0.999999984              -0.000139692               0.001026979               0.999999984              -0.000143303               0.001057463               0.999999984              -0.000144681               0.001088679               0.999999984              -0.000143128               0.001119634               0.999999984              -0.000138068               0.001149260               0.999999984              -0.000129040               0.001176910               0.999999984              -0.000115826               0.001202240               0.999999984              -0.000098357               0.001225500               0.999999984              -0.000076862               0.001246978               0.999999984              -0.000051901               0.001267215               0.999999984              -0.000024263               0.001286872               0.999999984              -0.000196146               0.001082530               0.999999984              -0.000126337               0.001054151               0.999999984              -0.000099951               0.001041180               0.999999984              -0.000091768               0.001042995               0.999999984              -0.000091669               0.001056525               0.999999984              -0.000094798               0.001078288               0.999999984              -0.000098625               0.001105306               0.999999984              -0.000101781               0.001135786               0.999999984              -0.000103244               0.001167875               0.999999984              -0.000102221               0.001200443               0.999999984              -0.000098302               0.001232626               0.999999984              -0.000090899               0.001263701               0.999999984              -0.000079421               0.001293057               0.999999984              -0.000063452               0.001320501               0.999999984              -0.000042567               0.001345949               0.999999984              -0.000016486               0.001369754               0.999999984               0.000014759               0.001392404               0.999999984              -0.000148906               0.001123438               0.999999984              -0.000092949               0.001114126               0.999999984              -0.000069826               0.001109520               0.999999984              -0.000061423               0.001114520               0.999999984              -0.000059870               0.001128872               0.999999984              -0.000061500               0.001150654               0.999999984              -0.000064076               0.001177750               0.999999984              -0.000066369               0.001208468               0.999999984              -0.000067547               0.001241561               0.999999984              -0.000066850               0.001275922               0.999999984              -0.000063885               0.001310524               0.999999984              -0.000058046               0.001344908               0.999999984              -0.000048851               0.001378371               0.999999984              -0.000035590               0.001410397               0.999999984              -0.000017209               0.001440689               0.999999984               0.000007126               0.001469202               0.999999984               0.000038303               0.001495965               0.999999984              -0.000100154               0.001153106               0.999999984              -0.000061149               0.001159030               0.999999984              -0.000043909               0.001162315               0.999999984              -0.000036965               0.001171189               0.999999984              -0.000034989               0.001187224               0.999999984              -0.000035509               0.001209610               0.999999984              -0.000036891               0.001237143               0.999999984              -0.000038301               0.001268505               0.999999984              -0.000039069               0.001302487               0.999999984              -0.000038657               0.001338301               0.999999984              -0.000036578               0.001375093               0.999999984              -0.000032528               0.001412228               0.999999984              -0.000026163               0.001449094               0.999999984              -0.000016631               0.001485269               0.999999984              -0.000002845               0.001520242               0.999999984               0.000016154               0.001553600               0.999999984               0.000041566               0.001584920               0.999999984              -0.000050330               0.001171160               0.999999984              -0.000030341               0.001186848               0.999999984              -0.000021137               0.001195610               0.999999984              -0.000017199               0.001207555               0.999999984              -0.000015867               0.001225290               0.999999984              -0.000015913               0.001248559               0.999999984              -0.000016432               0.001276575               0.999999984              -0.000017078               0.001308368               0.999999984              -0.000017461               0.001343073               0.999999984              -0.000017238               0.001379909               0.999999984              -0.000016140               0.001418105               0.999999984              -0.000014170               0.001457145               0.999999984              -0.000010905               0.001496414               0.999999984              -0.000005853               0.001535483               0.999999984               0.000001492               0.001573777               0.999999984               0.000012015               0.001610739               0.999999984               0.000026602               0.001645632               0.999999984              -0.000000000               0.001177156               0.999999984              -0.000000000               0.001196252               0.999999984              -0.000000000               0.001207073               0.999999984              -0.000000000               0.001220135               0.999999984              -0.000000000               0.001238539               0.999999984               0.000000000               0.001262232               0.999999984              -0.000000000               0.001290436               0.999999984              -0.000000000               0.001322365               0.999999984               0.000000000               0.001357264               0.999999984               0.000000000               0.001394485               0.999999984               0.000000000               0.001433201               0.999999984              -0.000000000               0.001472909               0.999999984               0.000000000               0.001513098               0.999999984              -0.000000000               0.001553271               0.999999984               0.000000000               0.001592839               0.999999984               0.000000000               0.001631175               0.999999984              -0.000000000               0.001667424               0.999999984              -0.000533273               0.000000000               0.999999984              -0.000577985               0.000000000               0.999999984              -0.000598046              -0.000000000               0.999999984              -0.000609571              -0.000000000               0.999999984              -0.000618697              -0.000000000               0.999999984              -0.000627820              -0.000000000               0.999999984              -0.000637779              -0.000000000               0.999999984              -0.000648855               0.000000000               0.999999984              -0.000661123               0.000000000               0.999999984              -0.000674423               0.000000000               0.999999984              -0.000688503               0.000000000               0.999999984              -0.000703104               0.000000000               0.999999984              -0.000717883               0.000000000               0.999999984              -0.000732707              -0.000000000               0.999999984              -0.000747363               0.000000000               0.999999984              -0.000761518              -0.000000000               0.999999984              -0.000774456               0.000000000               0.999999984              -0.000530338              -0.000114723               0.999999984              -0.000571968              -0.000094886               0.999999984              -0.000590052              -0.000086950               0.999999984              -0.000600437              -0.000084875               0.999999984              -0.000608870              -0.000085949               0.999999984              -0.000617444              -0.000088684               0.999999984              -0.000627006              -0.000092425               0.999999984              -0.000637739              -0.000096475               0.999999984              -0.000649553              -0.000100480               0.999999984              -0.000662213              -0.000104196               0.999999984              -0.000675486              -0.000107382               0.999999984              -0.000689150              -0.000109724               0.999999984              -0.000702880              -0.000111018               0.999999984              -0.000716428              -0.000111144               0.999999984              -0.000729622              -0.000109676               0.999999984              -0.000742186              -0.000105647               0.999999984              -0.000753630              -0.000098066               0.999999984              -0.000521406              -0.000228264               0.999999984              -0.000554045              -0.000189120               0.999999984              -0.000566770              -0.000174112               0.999999984              -0.000574025              -0.000170865               0.999999984              -0.000580593              -0.000173575               0.999999984              -0.000587973              -0.000179531               0.999999984              -0.000596472              -0.000187138               0.999999984              -0.000606030              -0.000195271               0.999999984              -0.000616471              -0.000203390               0.999999984              -0.000627540              -0.000210800               0.999999984              -0.000638940              -0.000217205               0.999999984              -0.000650257              -0.000222031               0.999999984              -0.000661278              -0.000224808               0.999999984              -0.000671776              -0.000225417               0.999999984              -0.000681529              -0.000223227               0.999999984              -0.000690445              -0.000217152               0.999999984              -0.000698474              -0.000206060               0.999999984              -0.000506770              -0.000339424               0.999999984              -0.000525270              -0.000282171               0.999999984              -0.000530271              -0.000261770               0.999999984              -0.000533397              -0.000258709               0.999999984              -0.000537654              -0.000264111               0.999999984              -0.000543524              -0.000273769               0.999999984              -0.000550701              -0.000285482               0.999999984              -0.000558862              -0.000297847               0.999999984              -0.000567641              -0.000309961               0.999999984              -0.000576580              -0.000320987               0.999999984              -0.000585143              -0.000330295               0.999999984              -0.000593133              -0.000337578               0.999999984              -0.000600397              -0.000342561               0.999999984              -0.000606854              -0.000344886               0.999999984              -0.000612460              -0.000343814               0.999999984              -0.000617227              -0.000338803               0.999999984              -0.000621388              -0.000329350               0.999999984              -0.000486725              -0.000447141               0.999999984              -0.000487091              -0.000373700               0.999999984              -0.000483494              -0.000350077               0.999999984              -0.000482637              -0.000348659               0.999999984              -0.000484870              -0.000357630               0.999999984              -0.000489503              -0.000371540               0.999999984              -0.000495749              -0.000387495               0.999999984              -0.000502701              -0.000404015               0.999999984              -0.000509655              -0.000419919               0.999999984              -0.000516131              -0.000434351               0.999999984              -0.000521850              -0.000446756               0.999999984              -0.000526588              -0.000456878               0.999999984              -0.000530212              -0.000464464               0.999999984              -0.000532641              -0.000469389               0.999999984              -0.000534037              -0.000471261               0.999999984              -0.000534653              -0.000469813               0.999999984              -0.000534693              -0.000465421               0.999999984              -0.000461539              -0.000550372               0.999999984              -0.000441440              -0.000463600               0.999999984              -0.000430055              -0.000438848               0.999999984              -0.000426340              -0.000440208               0.999999984              -0.000427682              -0.000453328               0.999999984              -0.000432024              -0.000471709               0.999999984              -0.000437649              -0.000492018               0.999999984              -0.000443455              -0.000512500               0.999999984              -0.000448791              -0.000532052               0.999999984              -0.000453018              -0.000549808               0.999999984              -0.000455892              -0.000565388               0.999999984              -0.000457242              -0.000578376               0.999999984              -0.000457009              -0.000588722               0.999999984              -0.000455338              -0.000596674               0.999999984              -0.000452516              -0.000602126               0.999999984              -0.000448715              -0.000605193               0.999999984              -0.000444055              -0.000605964               0.999999984              -0.000431765              -0.000648029               0.999999984              -0.000390907              -0.000551681               0.999999984              -0.000373672              -0.000527562               0.999999984              -0.000369032              -0.000532304               0.999999984              -0.000370940              -0.000549739               0.999999984              -0.000375637              -0.000572485               0.999999984              -0.000381060              -0.000596925               0.999999984              -0.000385991              -0.000621265               0.999999984              -0.000389441              -0.000644436               0.999999984              -0.000391016              -0.000665395               0.999999984              -0.000390662              -0.000683712               0.999999984              -0.000388273              -0.000699171               0.999999984              -0.000383957              -0.000712055               0.999999984              -0.000377902              -0.000722812               0.999999984              -0.000370357              -0.000731588               0.999999984              -0.000361358              -0.000738382               0.999999984              -0.000350911              -0.000742964               0.999999984              -0.000398114              -0.000739039               0.999999984              -0.000338054              -0.000637682               0.999999984              -0.000317743              -0.000615401               0.999999984              -0.000314391              -0.000623544               0.999999984              -0.000317849              -0.000645029               0.999999984              -0.000323425              -0.000671927               0.999999984              -0.000328680              -0.000700468               0.999999984              -0.000332240              -0.000728619               0.999999984              -0.000333549              -0.000754773               0.999999984              -0.000332272              -0.000778143               0.999999984              -0.000328218              -0.000798413               0.999999984              -0.000321438              -0.000815779               0.999999984              -0.000312103              -0.000830853               0.999999984              -0.000300538              -0.000844224               0.999999984              -0.000286994              -0.000855950               0.999999984              -0.000271666              -0.000865684               0.999999984              -0.000254889              -0.000873283               0.999999984              -0.000361911              -0.000821741               0.999999984              -0.000284804              -0.000721434               0.999999984              -0.000265299              -0.000701224               0.999999984              -0.000264586              -0.000712459               0.999999984              -0.000270203              -0.000737592               0.999999984              -0.000276612              -0.000768590               0.999999984              -0.000281340              -0.000801051               0.999999984              -0.000283331              -0.000832293               0.999999984              -0.000281885              -0.000860899               0.999999984              -0.000276783              -0.000886022               0.999999984              -0.000267813              -0.000907755               0.999999984              -0.000255258              -0.000926756               0.999999984              -0.000239712              -0.000943777               0.999999984              -0.000221823              -0.000959289               0.999999984              -0.000201962              -0.000973259               0.999999984              -0.000180678              -0.000985655               0.999999984              -0.000158723              -0.000996590               0.999999984              -0.000324957              -0.000899359               0.999999984              -0.000241067              -0.000812661               0.999999984              -0.000218456              -0.000787866               0.999999984              -0.000216432              -0.000793204               0.999999984              -0.000221455              -0.000813470               0.999999984              -0.000227874              -0.000841366               0.999999984              -0.000233117              -0.000872243               0.999999984              -0.000236015              -0.000903508               0.999999984              -0.000235778              -0.000933252               0.999999984              -0.000232097              -0.000960491               0.999999984              -0.000224444              -0.000984778               0.999999984              -0.000212731              -0.001006289               0.999999984              -0.000197535              -0.001025672               0.999999984              -0.000179605              -0.001043395               0.999999984              -0.000159796              -0.001060096               0.999999984              -0.000138297              -0.001075686               0.999999984              -0.000116250              -0.001090160               0.999999984              -0.000284496              -0.000969632               0.999999984              -0.000200142              -0.000900276               0.999999984              -0.000174589              -0.000875991               0.999999984              -0.000170396              -0.000877526               0.999999984              -0.000174098              -0.000893944               0.999999984              -0.000179933              -0.000918940               0.999999984              -0.000185281              -0.000948116               0.999999984              -0.000188798              -0.000978947               0.999999984              -0.000189553              -0.001009598               0.999999984              -0.000187006              -0.001038817               0.999999984              -0.000180662              -0.001065790               0.999999984              -0.000170189              -0.001090095               0.999999984              -0.000155780              -0.001112019               0.999999984              -0.000137806              -0.001132026               0.999999984              -0.000117117              -0.001150801               0.999999984              -0.000094377              -0.001168662               0.999999984              -0.000070456              -0.001186023               0.999999984              -0.000241471              -0.001030971               0.999999984              -0.000161940              -0.000981817               0.999999984              -0.000134900              -0.000961788               0.999999984              -0.000128337              -0.000962240               0.999999984              -0.000130206              -0.000976346               0.999999984              -0.000134871              -0.000999127               0.999999984              -0.000139692              -0.001026979               0.999999984              -0.000143303              -0.001057463               0.999999984              -0.000144681              -0.001088679               0.999999984              -0.000143128              -0.001119634               0.999999984              -0.000138068              -0.001149260               0.999999984              -0.000129040              -0.001176910               0.999999984              -0.000115826              -0.001202240               0.999999984              -0.000098357              -0.001225500               0.999999984              -0.000076862              -0.001246978               0.999999984              -0.000051901              -0.001267215               0.999999984              -0.000024263              -0.001286872               0.999999984              -0.000196146              -0.001082530               0.999999984              -0.000126337              -0.001054151               0.999999984              -0.000099951              -0.001041180               0.999999984              -0.000091768              -0.001042995               0.999999984              -0.000091669              -0.001056525               0.999999984              -0.000094798              -0.001078288               0.999999984              -0.000098625              -0.001105306               0.999999984              -0.000101781              -0.001135786               0.999999984              -0.000103244              -0.001167875               0.999999984              -0.000102221              -0.001200443               0.999999984              -0.000098302              -0.001232626               0.999999984              -0.000090899              -0.001263701               0.999999984              -0.000079421              -0.001293057               0.999999984              -0.000063452              -0.001320501               0.999999984              -0.000042567              -0.001345949               0.999999984              -0.000016486              -0.001369754               0.999999984               0.000014759              -0.001392404               0.999999984              -0.000148906              -0.001123438               0.999999984              -0.000092949              -0.001114126               0.999999984              -0.000069826              -0.001109520               0.999999984              -0.000061423              -0.001114520               0.999999984              -0.000059870              -0.001128872               0.999999984              -0.000061500              -0.001150654               0.999999984              -0.000064076              -0.001177750               0.999999984              -0.000066369              -0.001208468               0.999999984              -0.000067547              -0.001241561               0.999999984              -0.000066850              -0.001275922               0.999999984              -0.000063885              -0.001310524               0.999999984              -0.000058046              -0.001344908               0.999999984              -0.000048851              -0.001378371               0.999999984              -0.000035590              -0.001410397               0.999999984              -0.000017209              -0.001440689               0.999999984               0.000007126              -0.001469202               0.999999984               0.000038303              -0.001495965               0.999999984              -0.000100154              -0.001153106               0.999999984              -0.000061149              -0.001159030               0.999999984              -0.000043909              -0.001162315               0.999999984              -0.000036965              -0.001171189               0.999999984              -0.000034989              -0.001187224               0.999999984              -0.000035509              -0.001209610               0.999999984              -0.000036891              -0.001237143               0.999999984              -0.000038301              -0.001268505               0.999999984              -0.000039069              -0.001302487               0.999999984              -0.000038657              -0.001338301               0.999999984              -0.000036578              -0.001375093               0.999999984              -0.000032528              -0.001412228               0.999999984              -0.000026163              -0.001449094               0.999999984              -0.000016631              -0.001485269               0.999999984              -0.000002845              -0.001520242               0.999999984               0.000016154              -0.001553600               0.999999984               0.000041566              -0.001584920               0.999999984              -0.000050330              -0.001171160               0.999999984              -0.000030341              -0.001186848               0.999999984              -0.000021137              -0.001195610               0.999999984              -0.000017199              -0.001207555               0.999999984              -0.000015867              -0.001225290               0.999999984              -0.000015913              -0.001248559               0.999999984              -0.000016432              -0.001276575               0.999999984              -0.000017078              -0.001308368               0.999999984              -0.000017461              -0.001343073               0.999999984              -0.000017238              -0.001379909               0.999999984              -0.000016140              -0.001418105               0.999999984              -0.000014170              -0.001457145               0.999999984              -0.000010905              -0.001496414               0.999999984              -0.000005853              -0.001535483               0.999999984               0.000001492              -0.001573777               0.999999984               0.000012015              -0.001610739               0.999999984               0.000026602              -0.001645632               0.999999984              -0.000000000              -0.001177156               0.999999984              -0.000000000              -0.001196252               0.999999984               0.000000000              -0.001207073               0.999999984              -0.000000000              -0.001220135               0.999999984              -0.000000000              -0.001238539               0.999999984               0.000000000              -0.001262232               0.999999984               0.000000000              -0.001290436               0.999999984              -0.000000000              -0.001322365               0.999999984              -0.000000000              -0.001357264               0.999999984              -0.000000000              -0.001394485               0.999999984              -0.000000000              -0.001433201               0.999999984              -0.000000000              -0.001472909               0.999999984              -0.000000000              -0.001513098               0.999999984               0.000000000              -0.001553271               0.999999984               0.000000000              -0.001592839               0.999999984              -0.000000000              -0.001631175               0.999999984               0.000000000              -0.001667424               0.999999984               0.000533273              -0.000000000               0.999999984               0.000577985               0.000000000               0.999999984               0.000598046              -0.000000000               0.999999984               0.000609571               0.000000000               0.999999984               0.000618697              -0.000000000               0.999999984               0.000627820               0.000000000               0.999999984               0.000637779               0.000000000               0.999999984               0.000648855              -0.000000000               0.999999984               0.000661123               0.000000000               0.999999984               0.000674423               0.000000000               0.999999984               0.000688503              -0.000000000               0.999999984               0.000703104              -0.000000000               0.999999984               0.000717883              -0.000000000               0.999999984               0.000732707              -0.000000000               0.999999984               0.000747363              -0.000000000               0.999999984               0.000761518               0.000000000               0.999999984               0.000774456              -0.000000000               0.999999984               0.000530338              -0.000114723               0.999999984               0.000571968              -0.000094886               0.999999984               0.000590052              -0.000086950               0.999999984               0.000600437              -0.000084875               0.999999984               0.000608870              -0.000085949               0.999999984               0.000617444              -0.000088684               0.999999984               0.000627006              -0.000092425               0.999999984               0.000637739              -0.000096475               0.999999984               0.000649553              -0.000100480               0.999999984               0.000662213              -0.000104196               0.999999984               0.000675486              -0.000107382               0.999999984               0.000689150              -0.000109724               0.999999984               0.000702880              -0.000111018               0.999999984               0.000716428              -0.000111144               0.999999984               0.000729622              -0.000109676               0.999999984               0.000742186              -0.000105647               0.999999984               0.000753630              -0.000098066               0.999999984               0.000521406              -0.000228264               0.999999984               0.000554045              -0.000189120               0.999999984               0.000566770              -0.000174112               0.999999984               0.000574025              -0.000170865               0.999999984               0.000580593              -0.000173575               0.999999984               0.000587973              -0.000179531               0.999999984               0.000596472              -0.000187138               0.999999984               0.000606030              -0.000195271               0.999999984               0.000616471              -0.000203390               0.999999984               0.000627540              -0.000210800               0.999999984               0.000638940              -0.000217205               0.999999984               0.000650257              -0.000222031               0.999999984               0.000661278              -0.000224808               0.999999984               0.000671776              -0.000225417               0.999999984               0.000681529              -0.000223227               0.999999984               0.000690445              -0.000217152               0.999999984               0.000698474              -0.000206060               0.999999984               0.000506770              -0.000339424               0.999999984               0.000525270              -0.000282171               0.999999984               0.000530271              -0.000261770               0.999999984               0.000533397              -0.000258709               0.999999984               0.000537654              -0.000264111               0.999999984               0.000543524              -0.000273769               0.999999984               0.000550701              -0.000285482               0.999999984               0.000558862              -0.000297847               0.999999984               0.000567641              -0.000309961               0.999999984               0.000576580              -0.000320987               0.999999984               0.000585143              -0.000330295               0.999999984               0.000593133              -0.000337578               0.999999984               0.000600397              -0.000342561               0.999999984               0.000606854              -0.000344886               0.999999984               0.000612460              -0.000343814               0.999999984               0.000617227              -0.000338803               0.999999984               0.000621388              -0.000329350               0.999999984               0.000486725              -0.000447141               0.999999984               0.000487091              -0.000373700               0.999999984               0.000483494              -0.000350077               0.999999984               0.000482637              -0.000348659               0.999999984               0.000484870              -0.000357630               0.999999984               0.000489503              -0.000371540               0.999999984               0.000495749              -0.000387495               0.999999984               0.000502701              -0.000404015               0.999999984               0.000509655              -0.000419919               0.999999984               0.000516131              -0.000434351               0.999999984               0.000521850              -0.000446756               0.999999984               0.000526588              -0.000456878               0.999999984               0.000530212              -0.000464464               0.999999984               0.000532641              -0.000469389               0.999999984               0.000534037              -0.000471261               0.999999984               0.000534653              -0.000469813               0.999999984               0.000534693              -0.000465421               0.999999984               0.000461539              -0.000550372               0.999999984               0.000441440              -0.000463600               0.999999984               0.000430055              -0.000438848               0.999999984               0.000426340              -0.000440208               0.999999984               0.000427682              -0.000453328               0.999999984               0.000432024              -0.000471709               0.999999984               0.000437649              -0.000492018               0.999999984               0.000443455              -0.000512500               0.999999984               0.000448791              -0.000532052               0.999999984               0.000453018              -0.000549808               0.999999984               0.000455892              -0.000565388               0.999999984               0.000457242              -0.000578376               0.999999984               0.000457009              -0.000588722               0.999999984               0.000455338              -0.000596674               0.999999984               0.000452516              -0.000602126               0.999999984               0.000448715              -0.000605193               0.999999984               0.000444055              -0.000605964               0.999999984               0.000431765              -0.000648029               0.999999984               0.000390907              -0.000551681               0.999999984               0.000373672              -0.000527562               0.999999984               0.000369032              -0.000532304               0.999999984               0.000370940              -0.000549739               0.999999984               0.000375637              -0.000572485               0.999999984               0.000381060              -0.000596925               0.999999984               0.000385991              -0.000621265               0.999999984               0.000389441              -0.000644436               0.999999984               0.000391016              -0.000665395               0.999999984               0.000390662              -0.000683712               0.999999984               0.000388273              -0.000699171               0.999999984               0.000383957              -0.000712055               0.999999984               0.000377902              -0.000722812               0.999999984               0.000370357              -0.000731588               0.999999984               0.000361358              -0.000738382               0.999999984               0.000350911              -0.000742964               0.999999984               0.000398114              -0.000739039               0.999999984               0.000338054              -0.000637682               0.999999984               0.000317743              -0.000615401               0.999999984               0.000314391              -0.000623544               0.999999984               0.000317849              -0.000645029               0.999999984               0.000323425              -0.000671927               0.999999984               0.000328680              -0.000700468               0.999999984               0.000332240              -0.000728619               0.999999984               0.000333549              -0.000754773               0.999999984               0.000332272              -0.000778143               0.999999984               0.000328218              -0.000798413               0.999999984               0.000321438              -0.000815779               0.999999984               0.000312103              -0.000830853               0.999999984               0.000300538              -0.000844224               0.999999984               0.000286994              -0.000855950               0.999999984               0.000271666              -0.000865684               0.999999984               0.000254889              -0.000873283               0.999999984               0.000361911              -0.000821741               0.999999984               0.000284804              -0.000721434               0.999999984               0.000265299              -0.000701224               0.999999984               0.000264586              -0.000712459               0.999999984               0.000270203              -0.000737592               0.999999984               0.000276612              -0.000768590               0.999999984               0.000281340              -0.000801051               0.999999984               0.000283331              -0.000832293               0.999999984               0.000281885              -0.000860899               0.999999984               0.000276783              -0.000886022               0.999999984               0.000267813              -0.000907755               0.999999984               0.000255258              -0.000926756               0.999999984               0.000239712              -0.000943777               0.999999984               0.000221823              -0.000959289               0.999999984               0.000201962              -0.000973259               0.999999984               0.000180678              -0.000985655               0.999999984               0.000158723              -0.000996590               0.999999984               0.000324957              -0.000899359               0.999999984               0.000241067              -0.000812661               0.999999984               0.000218456              -0.000787866               0.999999984               0.000216432              -0.000793204               0.999999984               0.000221455              -0.000813470               0.999999984               0.000227874              -0.000841366               0.999999984               0.000233117              -0.000872243               0.999999984               0.000236015              -0.000903508               0.999999984               0.000235778              -0.000933252               0.999999984               0.000232097              -0.000960491               0.999999984               0.000224444              -0.000984778               0.999999984               0.000212731              -0.001006289               0.999999984               0.000197535              -0.001025672               0.999999984               0.000179605              -0.001043395               0.999999984               0.000159796              -0.001060096               0.999999984               0.000138297              -0.001075686               0.999999984               0.000116250              -0.001090160               0.999999984               0.000284496              -0.000969632               0.999999984               0.000200142              -0.000900276               0.999999984               0.000174589              -0.000875991               0.999999984               0.000170396              -0.000877526               0.999999984               0.000174098              -0.000893944               0.999999984               0.000179933              -0.000918940               0.999999984               0.000185281              -0.000948116               0.999999984               0.000188798              -0.000978947               0.999999984               0.000189553              -0.001009598               0.999999984               0.000187006              -0.001038817               0.999999984               0.000180662              -0.001065790               0.999999984               0.000170189              -0.001090095               0.999999984               0.000155780              -0.001112019               0.999999984               0.000137806              -0.001132026               0.999999984               0.000117117              -0.001150801               0.999999984               0.000094377              -0.001168662               0.999999984               0.000070456              -0.001186023               0.999999984               0.000241471              -0.001030971               0.999999984               0.000161940              -0.000981817               0.999999984               0.000134900              -0.000961788               0.999999984               0.000128337              -0.000962240               0.999999984               0.000130206              -0.000976346               0.999999984               0.000134871              -0.000999127               0.999999984               0.000139692              -0.001026979               0.999999984               0.000143303              -0.001057463               0.999999984               0.000144681              -0.001088679               0.999999984               0.000143128              -0.001119634               0.999999984               0.000138068              -0.001149260               0.999999984               0.000129040              -0.001176910               0.999999984               0.000115826              -0.001202240               0.999999984               0.000098357              -0.001225500               0.999999984               0.000076862              -0.001246978               0.999999984               0.000051901              -0.001267215               0.999999984               0.000024263              -0.001286872               0.999999984               0.000196146              -0.001082530               0.999999984               0.000126337              -0.001054151               0.999999984               0.000099951              -0.001041180               0.999999984               0.000091768              -0.001042995               0.999999984               0.000091669              -0.001056525               0.999999984               0.000094798              -0.001078288               0.999999984               0.000098625              -0.001105306               0.999999984               0.000101781              -0.001135786               0.999999984               0.000103244              -0.001167875               0.999999984               0.000102221              -0.001200443               0.999999984               0.000098302              -0.001232626               0.999999984               0.000090899              -0.001263701               0.999999984               0.000079421              -0.001293057               0.999999984               0.000063452              -0.001320501               0.999999984               0.000042567              -0.001345949               0.999999984               0.000016486              -0.001369754               0.999999984              -0.000014759              -0.001392404               0.999999984               0.000148906              -0.001123438               0.999999984               0.000092949              -0.001114126               0.999999984               0.000069826              -0.001109520               0.999999984               0.000061423              -0.001114520               0.999999984               0.000059870              -0.001128872               0.999999984               0.000061500              -0.001150654               0.999999984               0.000064076              -0.001177750               0.999999984               0.000066369              -0.001208468               0.999999984               0.000067547              -0.001241561               0.999999984               0.000066850              -0.001275922               0.999999984               0.000063885              -0.001310524               0.999999984               0.000058046              -0.001344908               0.999999984               0.000048851              -0.001378371               0.999999984               0.000035590              -0.001410397               0.999999984               0.000017209              -0.001440689               0.999999984              -0.000007126              -0.001469202               0.999999984              -0.000038303              -0.001495965               0.999999984               0.000100154              -0.001153106               0.999999984               0.000061149              -0.001159030               0.999999984               0.000043909              -0.001162315               0.999999984               0.000036965              -0.001171189               0.999999984               0.000034989              -0.001187224               0.999999984               0.000035509              -0.001209610               0.999999984               0.000036891              -0.001237143               0.999999984               0.000038301              -0.001268505               0.999999984               0.000039069              -0.001302487               0.999999984               0.000038657              -0.001338301               0.999999984               0.000036578              -0.001375093               0.999999984               0.000032528              -0.001412228               0.999999984               0.000026163              -0.001449094               0.999999984               0.000016631              -0.001485269               0.999999984               0.000002845              -0.001520242               0.999999984              -0.000016154              -0.001553600               0.999999984              -0.000041566              -0.001584920               0.999999984               0.000050330              -0.001171160               0.999999984               0.000030341              -0.001186848               0.999999984               0.000021137              -0.001195610               0.999999984               0.000017199              -0.001207555               0.999999984               0.000015867              -0.001225290               0.999999984               0.000015913              -0.001248559               0.999999984               0.000016432              -0.001276575               0.999999984               0.000017078              -0.001308368               0.999999984               0.000017461              -0.001343073               0.999999984               0.000017238              -0.001379909               0.999999984               0.000016140              -0.001418105               0.999999984               0.000014170              -0.001457145               0.999999984               0.000010905              -0.001496414               0.999999984               0.000005853              -0.001535483               0.999999984              -0.000001492              -0.001573777               0.999999984              -0.000012015              -0.001610739               0.999999984              -0.000026602              -0.001645632               0.999999984              -0.000000000              -0.001177156               0.999999984              -0.000000000              -0.001196252               0.999999984               0.000000000              -0.001207073               0.999999984              -0.000000000              -0.001220135               0.999999984              -0.000000000              -0.001238539               0.999999984               0.000000000              -0.001262232               0.999999984               0.000000000              -0.001290436               0.999999984              -0.000000000              -0.001322365               0.999999984              -0.000000000              -0.001357264               0.999999984              -0.000000000              -0.001394485               0.999999984              -0.000000000              -0.001433201               0.999999984              -0.000000000              -0.001472909               0.999999984              -0.000000000              -0.001513098               0.999999984               0.000000000              -0.001553271               0.999999984               0.000000000              -0.001592839               0.999999984              -0.000000000              -0.001631175               0.999999984               0.000000000              -0.001667424               0.999999984               0.000533273              -0.000000000               0.999999984               0.000577985               0.000000000               0.999999984               0.000598046              -0.000000000               0.999999984               0.000609571               0.000000000               0.999999984               0.000618697              -0.000000000               0.999999984               0.000627820               0.000000000               0.999999984               0.000637779               0.000000000               0.999999984               0.000648855              -0.000000000               0.999999984               0.000661123               0.000000000               0.999999984               0.000674423               0.000000000               0.999999984               0.000688503              -0.000000000               0.999999984               0.000703104              -0.000000000               0.999999984               0.000717883              -0.000000000               0.999999984               0.000732707              -0.000000000               0.999999984               0.000747363              -0.000000000               0.999999984               0.000761518               0.000000000               0.999999984               0.000774456              -0.000000000               0.999999984               0.000530338               0.000114723               0.999999984               0.000571968               0.000094886               0.999999984               0.000590052               0.000086950               0.999999984               0.000600437               0.000084875               0.999999984               0.000608870               0.000085949               0.999999984               0.000617444               0.000088684               0.999999984               0.000627006               0.000092425               0.999999984               0.000637739               0.000096475               0.999999984               0.000649553               0.000100480               0.999999984               0.000662213               0.000104196               0.999999984               0.000675486               0.000107382               0.999999984               0.000689150               0.000109724               0.999999984               0.000702880               0.000111018               0.999999984               0.000716428               0.000111144               0.999999984               0.000729622               0.000109676               0.999999984               0.000742186               0.000105647               0.999999984               0.000753630               0.000098066               0.999999984               0.000521406               0.000228264               0.999999984               0.000554045               0.000189120               0.999999984               0.000566770               0.000174112               0.999999984               0.000574025               0.000170865               0.999999984               0.000580593               0.000173575               0.999999984               0.000587973               0.000179531               0.999999984               0.000596472               0.000187138               0.999999984               0.000606030               0.000195271               0.999999984               0.000616471               0.000203390               0.999999984               0.000627540               0.000210800               0.999999984               0.000638940               0.000217205               0.999999984               0.000650257               0.000222031               0.999999984               0.000661278               0.000224808               0.999999984               0.000671776               0.000225417               0.999999984               0.000681529               0.000223227               0.999999984               0.000690445               0.000217152               0.999999984               0.000698474               0.000206060               0.999999984               0.000506770               0.000339424               0.999999984               0.000525270               0.000282171               0.999999984               0.000530271               0.000261770               0.999999984               0.000533397               0.000258709               0.999999984               0.000537654               0.000264111               0.999999984               0.000543524               0.000273769               0.999999984               0.000550701               0.000285482               0.999999984               0.000558862               0.000297847               0.999999984               0.000567641               0.000309961               0.999999984               0.000576580               0.000320987               0.999999984               0.000585143               0.000330295               0.999999984               0.000593133               0.000337578               0.999999984               0.000600397               0.000342561               0.999999984               0.000606854               0.000344886               0.999999984               0.000612460               0.000343814               0.999999984               0.000617227               0.000338803               0.999999984               0.000621388               0.000329350               0.999999984               0.000486725               0.000447141               0.999999984               0.000487091               0.000373700               0.999999984               0.000483494               0.000350077               0.999999984               0.000482637               0.000348659               0.999999984               0.000484870               0.000357630               0.999999984               0.000489503               0.000371540               0.999999984               0.000495749               0.000387495               0.999999984               0.000502701               0.000404015               0.999999984               0.000509655               0.000419919               0.999999984               0.000516131               0.000434351               0.999999984               0.000521850               0.000446756               0.999999984               0.000526588               0.000456878               0.999999984               0.000530212               0.000464464               0.999999984               0.000532641               0.000469389               0.999999984               0.000534037               0.000471261               0.999999984               0.000534653               0.000469813               0.999999984               0.000534693               0.000465421               0.999999984               0.000461539               0.000550372               0.999999984               0.000441440               0.000463600               0.999999984               0.000430055               0.000438848               0.999999984               0.000426340               0.000440208               0.999999984               0.000427682               0.000453328               0.999999984               0.000432024               0.000471709               0.999999984               0.000437649               0.000492018               0.999999984               0.000443455               0.000512500               0.999999984               0.000448791               0.000532052               0.999999984               0.000453018               0.000549808               0.999999984               0.000455892               0.000565388               0.999999984               0.000457242               0.000578376               0.999999984               0.000457009               0.000588722               0.999999984               0.000455338               0.000596674               0.999999984               0.000452516               0.000602126               0.999999984               0.000448715               0.000605193               0.999999984               0.000444055               0.000605964               0.999999984               0.000431765               0.000648029               0.999999984               0.000390907               0.000551681               0.999999984               0.000373672               0.000527562               0.999999984               0.000369032               0.000532304               0.999999984               0.000370940               0.000549739               0.999999984               0.000375637               0.000572485               0.999999984               0.000381060               0.000596925               0.999999984               0.000385991               0.000621265               0.999999984               0.000389441               0.000644436               0.999999984               0.000391016               0.000665395               0.999999984               0.000390662               0.000683712               0.999999984               0.000388273               0.000699171               0.999999984               0.000383957               0.000712055               0.999999984               0.000377902               0.000722812               0.999999984               0.000370357               0.000731588               0.999999984               0.000361358               0.000738382               0.999999984               0.000350911               0.000742964               0.999999984               0.000398114               0.000739039               0.999999984               0.000338054               0.000637682               0.999999984               0.000317743               0.000615401               0.999999984               0.000314391               0.000623544               0.999999984               0.000317849               0.000645029               0.999999984               0.000323425               0.000671927               0.999999984               0.000328680               0.000700468               0.999999984               0.000332240               0.000728619               0.999999984               0.000333549               0.000754773               0.999999984               0.000332272               0.000778143               0.999999984               0.000328218               0.000798413               0.999999984               0.000321438               0.000815779               0.999999984               0.000312103               0.000830853               0.999999984               0.000300538               0.000844224               0.999999984               0.000286994               0.000855950               0.999999984               0.000271666               0.000865684               0.999999984               0.000254889               0.000873283               0.999999984               0.000361911               0.000821741               0.999999984               0.000284804               0.000721434               0.999999984               0.000265299               0.000701224               0.999999984               0.000264586               0.000712459               0.999999984               0.000270203               0.000737592               0.999999984               0.000276612               0.000768590               0.999999984               0.000281340               0.000801051               0.999999984               0.000283331               0.000832293               0.999999984               0.000281885               0.000860899               0.999999984               0.000276783               0.000886022               0.999999984               0.000267813               0.000907755               0.999999984               0.000255258               0.000926756               0.999999984               0.000239712               0.000943777               0.999999984               0.000221823               0.000959289               0.999999984               0.000201962               0.000973259               0.999999984               0.000180678               0.000985655               0.999999984               0.000158723               0.000996590               0.999999984               0.000324957               0.000899359               0.999999984               0.000241067               0.000812661               0.999999984               0.000218456               0.000787866               0.999999984               0.000216432               0.000793204               0.999999984               0.000221455               0.000813470               0.999999984               0.000227874               0.000841366               0.999999984               0.000233117               0.000872243               0.999999984               0.000236015               0.000903508               0.999999984               0.000235778               0.000933252               0.999999984               0.000232097               0.000960491               0.999999984               0.000224444               0.000984778               0.999999984               0.000212731               0.001006289               0.999999984               0.000197535               0.001025672               0.999999984               0.000179605               0.001043395               0.999999984               0.000159796               0.001060096               0.999999984               0.000138297               0.001075686               0.999999984               0.000116250               0.001090160               0.999999984               0.000284496               0.000969632               0.999999984               0.000200142               0.000900276               0.999999984               0.000174589               0.000875991               0.999999984               0.000170396               0.000877526               0.999999984               0.000174098               0.000893944               0.999999984               0.000179933               0.000918940               0.999999984               0.000185281               0.000948116               0.999999984               0.000188798               0.000978947               0.999999984               0.000189553               0.001009598               0.999999984               0.000187006               0.001038817               0.999999984               0.000180662               0.001065790               0.999999984               0.000170189               0.001090095               0.999999984               0.000155780               0.001112019               0.999999984               0.000137806               0.001132026               0.999999984               0.000117117               0.001150801               0.999999984               0.000094377               0.001168662               0.999999984               0.000070456               0.001186023               0.999999984               0.000241471               0.001030971               0.999999984               0.000161940               0.000981817               0.999999984               0.000134900               0.000961788               0.999999984               0.000128337               0.000962240               0.999999984               0.000130206               0.000976346               0.999999984               0.000134871               0.000999127               0.999999984               0.000139692               0.001026979               0.999999984               0.000143303               0.001057463               0.999999984               0.000144681               0.001088679               0.999999984               0.000143128               0.001119634               0.999999984               0.000138068               0.001149260               0.999999984               0.000129040               0.001176910               0.999999984               0.000115826               0.001202240               0.999999984               0.000098357               0.001225500               0.999999984               0.000076862               0.001246978               0.999999984               0.000051901               0.001267215               0.999999984               0.000024263               0.001286872               0.999999984               0.000196146               0.001082530               0.999999984               0.000126337               0.001054151               0.999999984               0.000099951               0.001041180               0.999999984               0.000091768               0.001042995               0.999999984               0.000091669               0.001056525               0.999999984               0.000094798               0.001078288               0.999999984               0.000098625               0.001105306               0.999999984               0.000101781               0.001135786               0.999999984               0.000103244               0.001167875               0.999999984               0.000102221               0.001200443               0.999999984               0.000098302               0.001232626               0.999999984               0.000090899               0.001263701               0.999999984               0.000079421               0.001293057               0.999999984               0.000063452               0.001320501               0.999999984               0.000042567               0.001345949               0.999999984               0.000016486               0.001369754               0.999999984              -0.000014759               0.001392404               0.999999984               0.000148906               0.001123438               0.999999984               0.000092949               0.001114126               0.999999984               0.000069826               0.001109520               0.999999984               0.000061423               0.001114520               0.999999984               0.000059870               0.001128872               0.999999984               0.000061500               0.001150654               0.999999984               0.000064076               0.001177750               0.999999984               0.000066369               0.001208468               0.999999984               0.000067547               0.001241561               0.999999984               0.000066850               0.001275922               0.999999984               0.000063885               0.001310524               0.999999984               0.000058046               0.001344908               0.999999984               0.000048851               0.001378371               0.999999984               0.000035590               0.001410397               0.999999984               0.000017209               0.001440689               0.999999984              -0.000007126               0.001469202               0.999999984              -0.000038303               0.001495965               0.999999984               0.000100154               0.001153106               0.999999984               0.000061149               0.001159030               0.999999984               0.000043909               0.001162315               0.999999984               0.000036965               0.001171189               0.999999984               0.000034989               0.001187224               0.999999984               0.000035509               0.001209610               0.999999984               0.000036891               0.001237143               0.999999984               0.000038301               0.001268505               0.999999984               0.000039069               0.001302487               0.999999984               0.000038657               0.001338301               0.999999984               0.000036578               0.001375093               0.999999984               0.000032528               0.001412228               0.999999984               0.000026163               0.001449094               0.999999984               0.000016631               0.001485269               0.999999984               0.000002845               0.001520242               0.999999984              -0.000016154               0.001553600               0.999999984              -0.000041566               0.001584920               0.999999984               0.000050330               0.001171160               0.999999984               0.000030341               0.001186848               0.999999984               0.000021137               0.001195610               0.999999984               0.000017199               0.001207555               0.999999984               0.000015867               0.001225290               0.999999984               0.000015913               0.001248559               0.999999984               0.000016432               0.001276575               0.999999984               0.000017078               0.001308368               0.999999984               0.000017461               0.001343073               0.999999984               0.000017238               0.001379909               0.999999984               0.000016140               0.001418105               0.999999984               0.000014170               0.001457145               0.999999984               0.000010905               0.001496414               0.999999984               0.000005853               0.001535483               0.999999984              -0.000001492               0.001573777               0.999999984              -0.000012015               0.001610739               0.999999984              -0.000026602               0.001645632               0.999999984              -0.000000000               0.001177156               0.999999984              -0.000000000               0.001196252               0.999999984              -0.000000000               0.001207073               0.999999984              -0.000000000               0.001220135               0.999999984              -0.000000000               0.001238539               0.999999984               0.000000000               0.001262232               0.999999984              -0.000000000               0.001290436               0.999999984              -0.000000000               0.001322365               0.999999984               0.000000000               0.001357264               0.999999984               0.000000000               0.001394485               0.999999984               0.000000000               0.001433201               0.999999984              -0.000000000               0.001472909               0.999999984               0.000000000               0.001513098               0.999999984              -0.000000000               0.001553271               0.999999984               0.000000000               0.001592839               0.999999984               0.000000000               0.001631175               0.999999984              -0.000000000               0.001667424               0.999999984 </DataArray>
<DataArray type="Float64"                                    Name="defo"                                                      NumberOfComponents=" 3" format="ascii">
             -0.000533273               0.000000000               0.999999984              -0.000577985               0.000000000               0.999999984              -0.000598046              -0.000000000               0.999999984              -0.000609571              -0.000000000               0.999999984              -0.000618697              -0.000000000               0.999999984              -0.000627820              -0.000000000               0.999999984              -0.000637779              -0.000000000               0.999999984              -0.000648855               0.000000000               0.999999984              -0.000661123               0.000000000               0.999999984              -0.000674423               0.000000000               0.999999984              -0.000688503               0.000000000               0.999999984              -0.000703104               0.000000000               0.999999984              -0.000717883               0.000000000               0.999999984              -0.000732707              -0.000000000               0.999999984              -0.000747363               0.000000000               0.999999984              -0.000761518              -0.000000000               0.999999984              -0.000774456               0.000000000               0.999999984              -0.000530338               0.000114723               0.999999984              -0.000571968               0.000094886               0.999999984              -0.000590052               0.000086950               0.999999984              -0.000600437               0.000084875               0.999999984              -0.000608870               0.000085949               0.999999984              -0.000617444               0.000088684               0.999999984              -0.000627006               0.000092425               0.999999984              -0.000637739               0.000096475               0.999999984              -0.000649553               0.000100480               0.999999984              -0.000662213               0.000104196               0.999999984              -0.000675486               0.000107382               0.999999984              -0.000689150               0.000109724               0.999999984              -0.000702880               0.000111018               0.999999984              -0.000716428               0.000111144               0.999999984              -0.000729622               0.000109676               0.999999984              -0.000742186               0.000105647               0.999999984              -0.000753630               0.000098066               0.999999984              -0.000521406               0.000228264               0.999999984              -0.000554045               0.000189120               0.999999984              -0.000566770               0.000174112               0.999999984              -0.000574025               0.000170865               0.999999984              -0.000580593               0.000173575               0.999999984              -0.000587973               0.000179531               0.999999984              -0.000596472               0.000187138               0.999999984              -0.000606030               0.000195271               0.999999984              -0.000616471               0.000203390               0.999999984              -0.000627540               0.000210800               0.999999984              -0.000638940               0.000217205               0.999999984              -0.000650257               0.000222031               0.999999984              -0.000661278               0.000224808               0.999999984              -0.000671776               0.000225417               0.999999984              -0.000681529               0.000223227               0.999999984              -0.000690445               0.000217152               0.999999984              -0.000698474               0.000206060               0.999999984              -0.000506770               0.000339424               0.999999984              -0.000525270               0.000282171               0.999999984              -0.000530271               0.000261770               0.999999984              -0.000533397               0.000258709               0.999999984              -0.000537654               0.000264111               0.999999984              -0.000543524               0.000273769               0.999999984              -0.000550701               0.000285482               0.999999984              -0.000558862               0.000297847               0.999999984              -0.000567641               0.000309961               0.999999984              -0.000576580               0.000320987               0.999999984              -0.000585143               0.000330295               0.999999984              -0.000593133               0.000337578               0.999999984              -0.000600397               0.000342561               0.999999984              -0.000606854               0.000344886               0.999999984              -0.000612460               0.000343814               0.999999984              -0.000617227               0.000338803               0.999999984              -0.000621388               0.000329350               0.999999984              -0.000486725               0.000447141               0.999999984              -0.000487091               0.000373700               0.999999984              -0.000483494               0.000350077               0.999999984              -0.000482637               0.000348659               0.999999984              -0.000484870               0.000357630               0.999999984              -0.000489503               0.000371540               0.999999984              -0.000495749               0.000387495               0.999999984              -0.000502701               0.000404015               0.999999984              -0.000509655               0.000419919               0.999999984              -0.000516131               0.000434351               0.999999984              -0.000521850               0.000446756               0.999999984              -0.000526588               0.000456878               0.999999984              -0.000530212               0.000464464               0.999999984              -0.000532641               0.000469389               0.999999984              -0.000534037               0.000471261               0.999999984              -0.000534653               0.000469813               0.999999984              -0.000534693               0.000465421               0.999999984              -0.000461539               0.000550372               0.999999984              -0.000441440               0.000463600               0.999999984              -0.000430055               0.000438848               0.999999984              -0.000426340               0.000440208               0.999999984              -0.000427682               0.000453328               0.999999984              -0.000432024               0.000471709               0.999999984              -0.000437649               0.000492018               0.999999984              -0.000443455               0.000512500               0.999999984              -0.000448791               0.000532052               0.999999984              -0.000453018               0.000549808               0.999999984              -0.000455892               0.000565388               0.999999984              -0.000457242               0.000578376               0.999999984              -0.000457009               0.000588722               0.999999984              -0.000455338               0.000596674               0.999999984              -0.000452516               0.000602126               0.999999984              -0.000448715               0.000605193               0.999999984              -0.000444055               0.000605964               0.999999984              -0.000431765               0.000648029               0.999999984              -0.000390907               0.000551681               0.999999984              -0.000373672               0.000527562               0.999999984              -0.000369032               0.000532304               0.999999984              -0.000370940               0.000549739               0.999999984              -0.000375637               0.000572485               0.999999984              -0.000381060               0.000596925               0.999999984              -0.000385991               0.000621265               0.999999984              -0.000389441               0.000644436               0.999999984              -0.000391016               0.000665395               0.999999984              -0.000390662               0.000683712               0.999999984              -0.000388273               0.000699171               0.999999984              -0.000383957               0.000712055               0.999999984              -0.000377902               0.000722812               0.999999984              -0.000370357               0.000731588               0.999999984              -0.000361358               0.000738382               0.999999984              -0.000350911               0.000742964               0.999999984              -0.000398114               0.000739039               0.999999984              -0.000338054               0.000637682               0.999999984              -0.000317743               0.000615401               0.999999984              -0.000314391               0.000623544               0.999999984              -0.000317849               0.000645029               0.999999984              -0.000323425               0.000671927               0.999999984              -0.000328680               0.000700468               0.999999984              -0.000332240               0.000728619               0.999999984              -0.000333549               0.000754773               0.999999984              -0.000332272               0.000778143               0.999999984              -0.000328218               0.000798413               0.999999984              -0.000321438               0.000815779               0.999999984              -0.000312103               0.000830853               0.999999984              -0.000300538               0.000844224               0.999999984              -0.000286994               0.000855950               0.999999984              -0.000271666               0.000865684               0.999999984              -0.000254889               0.000873283               0.999999984              -0.000361911               0.000821741               0.999999984              -0.000284804               0.000721434               0.999999984              -0.000265299               0.000701224               0.999999984              -0.000264586               0.000712459               0.999999984              -0.000270203               0.000737592               0.999999984              -0.000276612               0.000768590               0.999999984              -0.000281340               0.000801051               0.999999984              -0.000283331               0.000832293               0.999999984              -0.000281885               0.000860899               0.999999984              -0.000276783               0.000886022               0.999999984              -0.000267813               0.000907755               0.999999984              -0.000255258               0.000926756               0.999999984              -0.000239712               0.000943777               0.999999984              -0.000221823               0.000959289               0.999999984              -0.000201962               0.000973259               0.999999984              -0.000180678               0.000985655               0.999999984              -0.000158723               0.000996590               0.999999984              -0.000324957               0.000899359               0.999999984              -0.000241067               0.000812661               0.999999984              -0.000218456               0.000787866               0.999999984              -0.000216432               0.000793204               0.999999984              -0.000221455               0.000813470               0.999999984              -0.000227874               0.000841366               0.999999984              -0.000233117               0.000872243               0.999999984              -0.000236015               0.000903508               0.999999984              -0.000235778               0.000933252               0.999999984              -0.000232097               0.000960491               0.999999984              -0.000224444               0.000984778               0.999999984              -0.000212731               0.001006289               0.999999984              -0.000197535               0.001025672               0.999999984              -0.000179605               0.001043395               0.999999984              -0.000159796               0.001060096               0.999999984              -0.000138297               0.001075686               0.999999984              -0.000116250               0.001090160               0.999999984              -0.000284496               0.000969632               0.999999984              -0.000200142               0.000900276               0.999999984              -0.000174589               0.000875991               0.999999984              -0.000170396               0.000877526               0.999999984              -0.000174098               0.000893944               0.999999984              -0.000179933               0.000918940               0.999999984              -0.000185281               0.000948116               0.999999984              -0.000188798               0.000978947               0.999999984              -0.000189553               0.001009598               0.999999984              -0.000187006               0.001038817               0.999999984              -0.000180662               0.001065790               0.999999984              -0.000170189               0.001090095               0.999999984              -0.000155780               0.001112019               0.999999984              -0.000137806               0.001132026               0.999999984              -0.000117117               0.001150801               0.999999984              -0.000094377               0.001168662               0.999999984              -0.000070456               0.001186023               0.999999984              -0.000241471               0.001030971               0.999999984              -0.000161940               0.000981817               0.999999984              -0.000134900               0.000961788               0.999999984              -0.000128337               0.000962240               0.999999984              -0.000130206               0.000976346               0.999999984              -0.000134871               0.000999127               0.999999984              -0.000139692               0.001026979               0.999999984              -0.000143303               0.001057463               0.999999984              -0.000144681               0.001088679               0.999999984              -0.000143128               0.001119634               0.999999984              -0.000138068               0.001149260               0.999999984              -0.000129040               0.001176910               0.999999984              -0.000115826               0.001202240               0.999999984              -0.000098357               0.001225500               0.999999984              -0.000076862               0.001246978               0.999999984              -0.000051901               0.001267215               0.999999984              -0.000024263               0.001286872               0.999999984              -0.000196146               0.001082530               0.999999984              -0.000126337               0.001054151               0.999999984              -0.000099951               0.001041180               0.999999984              -0.000091768               0.001042995               0.999999984              -0.000091669               0.001056525               0.999999984              -0.000094798               0.001078288               0.999999984              -0.000098625               0.001105306               0.999999984              -0.000101781               0.001135786               0.999999984              -0.000103244               0.001167875               0.999999984              -0.000102221               0.001200443               0.999999984              -0.000098302               0.001232626               0.999999984              -0.000090899               0.001263701               0.999999984              -0.000079421               0.001293057               0.999999984              -0.000063452               0.001320501               0.999999984              -0.000042567               0.001345949               0.999999984              -0.000016486               0.001369754               0.999999984               0.000014759               0.001392404               0.999999984              -0.000148906               0.001123438               0.999999984              -0.000092949               0.001114126               0.999999984              -0.000069826               0.001109520               0.999999984              -0.000061423               0.001114520               0.999999984              -0.000059870               0.001128872               0.999999984              -0.000061500               0.001150654               0.999999984              -0.000064076               0.001177750               0.999999984              -0.000066369               0.001208468               0.999999984              -0.000067547               0.001241561               0.999999984              -0.000066850               0.001275922               0.999999984              -0.000063885               0.001310524               0.999999984              -0.000058046               0.001344908               0.999999984              -0.000048851               0.001378371               0.999999984              -0.000035590               0.001410397               0.999999984              -0.000017209               0.001440689               0.999999984               0.000007126               0.001469202               0.999999984               0.000038303               0.001495965               0.999999984              -0.000100154               0.001153106               0.999999984              -0.000061149               0.001159030               0.999999984              -0.000043909               0.001162315               0.999999984              -0.000036965               0.001171189               0.999999984              -0.000034989               0.001187224               0.999999984              -0.000035509               0.001209610               0.999999984              -0.000036891               0.001237143               0.999999984              -0.000038301               0.001268505               0.999999984              -0.000039069               0.001302487               0.999999984              -0.000038657               0.001338301               0.999999984              -0.000036578               0.001375093               0.999999984              -0.000032528               0.001412228               0.999999984              -0.000026163               0.001449094               0.999999984              -0.000016631               0.001485269               0.999999984              -0.000002845               0.001520242               0.999999984               0.000016154               0.001553600               0.999999984               0.000041566               0.001584920               0.999999984              -0.000050330               0.001171160               0.999999984              -0.000030341               0.001186848               0.999999984              -0.000021137               0.001195610               0.999999984              -0.000017199               0.001207555               0.999999984              -0.000015867               0.001225290               0.999999984              -0.000015913               0.001248559               0.999999984              -0.000016432               0.001276575               0.999999984              -0.000017078               0.001308368               0.999999984              -0.000017461               0.001343073               0.999999984              -0.000017238               0.001379909               0.999999984              -0.000016140               0.001418105               0.999999984              -0.000014170               0.001457145               0.999999984              -0.000010905               0.001496414               0.999999984              -0.000005853               0.001535483               0.999999984               0.000001492               0.001573777               0.999999984               0.000012015               0.001610739               0.999999984               0.000026602               0.001645632               0.999999984              -0.000000000               0.001177156               0.999999984              -0.000000000               0.001196252               0.999999984              -0.000000000               0.001207073               0.999999984              -0.000000000               0.001220135               0.999999984              -0.000000000               0.001238539               0.999999984               0.000000000               0.001262232               0.999999984              -0.000000000               0.001290436               0.999999984              -0.000000000               0.001322365               0.999999984               0.000000000               0.001357264               0.999999984               0.000000000               0.001394485               0.999999984               0.000000000               0.001433201               0.999999984              -0.000000000               0.001472909               0.999999984               0.000000000               0.001513098               0.999999984              -0.000000000               0.001553271               0.999999984               0.000000000               0.001592839               0.999999984               0.000000000               0.001631175               0.999999984              -0.000000000               0.001667424               0.999999984              -0.000533273               0.000000000               0.999999984              -0.000577985               0.000000000               0.999999984              -0.000598046              -0.000000000               0.999999984              -0.000609571              -0.000000000               0.999999984              -0.000618697              -0.000000000               0.999999984              -0.000627820              -0.000000000               0.999999984              -0.000637779              -0.000000000               0.999999984              -0.000648855               0.000000000               0.999999984              -0.000661123               0.000000000               0.999999984              -0.000674423               0.000000000               0.999999984              -0.000688503               0.000000000               0.999999984              -0.000703104               0.000000000               0.999999984              -0.000717883               0.000000000               0.999999984              -0.000732707              -0.000000000               0.999999984              -0.000747363               0.000000000               0.999999984              -0.000761518              -0.000000000               0.999999984              -0.000774456               0.000000000               0.999999984              -0.000530338              -0.000114723               0.999999984              -0.000571968              -0.000094886               0.999999984              -0.000590052              -0.000086950               0.999999984              -0.000600437              -0.000084875               0.999999984              -0.000608870              -0.000085949               0.999999984              -0.000617444              -0.000088684               0.999999984              -0.000627006              -0.000092425               0.999999984              -0.000637739              -0.000096475               0.999999984              -0.000649553              -0.000100480               0.999999984              -0.000662213              -0.000104196               0.999999984              -0.000675486              -0.000107382               0.999999984              -0.000689150              -0.000109724               0.999999984              -0.000702880              -0.000111018               0.999999984              -0.000716428              -0.000111144               0.999999984              -0.000729622              -0.000109676               0.999999984              -0.000742186              -0.000105647               0.999999984              -0.000753630              -0.000098066               0.999999984              -0.000521406              -0.000228264               0.999999984              -0.000554045              -0.000189120               0.999999984              -0.000566770              -0.000174112               0.999999984              -0.000574025              -0.000170865               0.999999984              -0.000580593              -0.000173575               0.999999984              -0.000587973              -0.000179531               0.999999984              -0.000596472              -0.000187138               0.999999984              -0.000606030              -0.000195271               0.999999984              -0.000616471              -0.000203390               0.999999984              -0.000627540              -0.000210800               0.999999984              -0.000638940              -0.000217205               0.999999984              -0.000650257              -0.000222031               0.999999984              -0.000661278              -0.000224808               0.999999984              -0.000671776              -0.000225417               0.999999984              -0.000681529              -0.000223227               0.999999984              -0.000690445              -0.000217152               0.999999984              -0.000698474              -0.000206060               0.999999984              -0.000506770              -0.000339424               0.999999984              -0.000525270              -0.000282171               0.999999984              -0.000530271              -0.000261770               0.999999984              -0.000533397              -0.000258709               0.999999984              -0.000537654              -0.000264111               0.999999984              -0.000543524              -0.000273769               0.999999984              -0.000550701              -0.000285482               0.999999984              -0.000558862              -0.000297847               0.999999984              -0.000567641              -0.000309961               0.999999984              -0.000576580              -0.000320987               0.999999984              -0.000585143              -0.000330295               0.999999984              -0.000593133              -0.000337578               0.999999984              -0.000600397              -0.000342561               0.999999984              -0.000606854              -0.000344886               0.999999984              -0.000612460              -0.000343814               0.999999984              -0.000617227              -0.000338803               0.999999984              -0.000621388              -0.000329350               0.999999984              -0.000486725              -0.000447141               0.999999984              -0.000487091              -0.000373700               0.999999984              -0.000483494              -0.000350077               0.999999984              -0.000482637              -0.000348659               0.999999984              -0.000484870              -0.000357630               0.999999984              -0.000489503              -0.000371540               0.999999984              -0.000495749              -0.000387495               0.999999984              -0.000502701              -0.000404015               0.999999984              -0.000509655              -0.000419919               0.999999984              -0.000516131              -0.000434351               0.999999984              -0.000521850              -0.000446756               0.999999984              -0.000526588              -0.000456878               0.999999984              -0.000530212              -0.000464464               0.999999984              -0.000532641              -0.000469389               0.999999984              -0.000534037              -0.000471261               0.999999984              -0.000534653              -0.000469813               0.999999984              -0.000534693              -0.000465421               0.999999984              -0.000461539              -0.000550372               0.999999984              -0.000441440              -0.000463600               0.999999984              -0.000430055              -0.000438848               0.999999984              -0.000426340              -0.000440208               0.999999984              -0.000427682              -0.000453328               0.999999984              -0.000432024              -0.000471709               0.999999984              -0.000437649              -0.000492018               0.999999984              -0.000443455              -0.000512500               0.999999984              -0.000448791              -0.000532052               0.999999984              -0.000453018              -0.000549808               0.999999984              -0.000455892              -0.000565388               0.999999984              -0.000457242              -0.000578376               0.999999984              -0.000457009              -0.000588722               0.999999984              -0.000455338              -0.000596674               0.999999984              -0.000452516              -0.000602126               0.999999984              -0.000448715              -0.000605193               0.999999984              -0.000444055              -0.000605964               0.999999984              -0.000431765              -0.000648029               0.999999984              -0.000390907              -0.000551681               0.999999984              -0.000373672              -0.000527562               0.999999984              -0.000369032              -0.000532304               0.999999984              -0.000370940              -0.000549739               0.999999984              -0.000375637              -0.000572485               0.999999984              -0.000381060              -0.000596925               0.999999984              -0.000385991              -0.000621265               0.999999984              -0.000389441              -0.000644436               0.999999984              -0.000391016              -0.000665395               0.999999984              -0.000390662              -0.000683712               0.999999984              -0.000388273              -0.000699171               0.999999984              -0.000383957              -0.000712055               0.999999984              -0.000377902              -0.000722812               0.999999984              -0.000370357              -0.000731588               0.999999984              -0.000361358              -0.000738382               0.999999984              -0.000350911              -0.000742964               0.999999984              -0.000398114              -0.000739039               0.999999984              -0.000338054              -0.000637682               0.999999984              -0.000317743              -0.000615401               0.999999984              -0.000314391              -0.000623544               0.999999984              -0.000317849              -0.000645029               0.999999984              -0.000323425              -0.000671927               0.999999984              -0.000328680              -0.000700468               0.999999984              -0.000332240              -0.000728619               0.999999984              -0.000333549              -0.000754773               0.999999984              -0.000332272              -0.000778143               0.999999984              -0.000328218              -0.000798413               0.999999984              -0.000321438              -0.000815779               0.999999984              -0.000312103              -0.000830853               0.999999984              -0.000300538              -0.000844224               0.999999984              -0.000286994              -0.000855950               0.999999984              -0.000271666              -0.000865684               0.999999984              -0.000254889              -0.000873283               0.999999984              -0.000361911              -0.000821741               0.999999984              -0.000284804              -0.000721434               0.999999984              -0.000265299              -0.000701224               0.999999984              -0.000264586              -0.000712459               0.999999984              -0.000270203              -0.000737592               0.999999984              -0.000276612              -0.000768590               0.999999984              -0.000281340              -0.000801051               0.999999984              -0.000283331              -0.000832293               0.999999984              -0.000281885              -0.000860899               0.999999984              -0.000276783              -0.000886022               0.999999984              -0.000267813              -0.000907755               0.999999984              -0.000255258              -0.000926756               0.999999984              -0.000239712              -0.000943777               0.999999984              -0.000221823              -0.000959289               0.999999984              -0.000201962              -0.000973259               0.999999984              -0.000180678              -0.000985655               0.999999984              -0.000158723              -0.000996590               0.999999984              -0.000324957              -0.000899359               0.999999984              -0.000241067              -0.000812661               0.999999984              -0.000218456              -0.000787866               0.999999984              -0.000216432              -0.000793204               0.999999984              -0.000221455              -0.000813470               0.999999984              -0.000227874              -0.000841366               0.999999984              -0.000233117              -0.000872243               0.999999984              -0.000236015              -0.000903508               0.999999984              -0.000235778              -0.000933252               0.999999984              -0.000232097              -0.000960491               0.999999984              -0.000224444              -0.000984778               0.999999984              -0.000212731              -0.001006289               0.999999984              -0.000197535              -0.001025672               0.999999984              -0.000179605              -0.001043395               0.999999984              -0.000159796              -0.001060096               0.999999984              -0.000138297              -0.001075686               0.999999984              -0.000116250              -0.001090160               0.999999984              -0.000284496              -0.000969632               0.999999984              -0.000200142              -0.000900276               0.999999984              -0.000174589              -0.000875991               0.999999984              -0.000170396              -0.000877526               0.999999984              -0.000174098              -0.000893944               0.999999984              -0.000179933              -0.000918940               0.999999984              -0.000185281              -0.000948116               0.999999984              -0.000188798              -0.000978947               0.999999984              -0.000189553              -0.001009598               0.999999984              -0.000187006              -0.001038817               0.999999984              -0.000180662              -0.001065790               0.999999984              -0.000170189              -0.001090095               0.999999984              -0.000155780              -0.001112019               0.999999984              -0.000137806              -0.001132026               0.999999984              -0.000117117              -0.001150801               0.999999984              -0.000094377              -0.001168662               0.999999984              -0.000070456              -0.001186023               0.999999984              -0.000241471              -0.001030971               0.999999984              -0.000161940              -0.000981817               0.999999984              -0.000134900              -0.000961788               0.999999984              -0.000128337              -0.000962240               0.999999984              -0.000130206              -0.000976346               0.999999984              -0.000134871              -0.000999127               0.999999984              -0.000139692              -0.001026979               0.999999984              -0.000143303              -0.001057463               0.999999984              -0.000144681              -0.001088679               0.999999984              -0.000143128              -0.001119634               0.999999984              -0.000138068              -0.001149260               0.999999984              -0.000129040              -0.001176910               0.999999984              -0.000115826              -0.001202240               0.999999984              -0.000098357              -0.001225500               0.999999984              -0.000076862              -0.001246978               0.999999984              -0.000051901              -0.001267215               0.999999984              -0.000024263              -0.001286872               0.999999984              -0.000196146              -0.001082530               0.999999984              -0.000126337              -0.001054151               0.999999984              -0.000099951              -0.001041180               0.999999984              -0.000091768              -0.001042995               0.999999984              -0.000091669              -0.001056525               0.999999984              -0.000094798              -0.001078288               0.999999984              -0.000098625              -0.001105306               0.999999984              -0.000101781              -0.001135786               0.999999984              -0.000103244              -0.001167875               0.999999984              -0.000102221              -0.001200443               0.999999984              -0.000098302              -0.001232626               0.999999984              -0.000090899              -0.001263701               0.999999984              -0.000079421              -0.001293057               0.999999984              -0.000063452              -0.001320501               0.999999984              -0.000042567              -0.001345949               0.999999984              -0.000016486              -0.001369754               0.999999984               0.000014759              -0.001392404               0.999999984              -0.000148906              -0.001123438               0.999999984              -0.000092949              -0.001114126               0.999999984              -0.000069826              -0.001109520               0.999999984              -0.000061423              -0.001114520               0.999999984              -0.000059870              -0.001128872               0.999999984              -0.000061500              -0.001150654               0.999999984              -0.000064076              -0.001177750               0.999999984              -0.000066369              -0.001208468               0.999999984              -0.000067547              -0.001241561               0.999999984              -0.000066850              -0.001275922               0.999999984              -0.000063885              -0.001310524               0.999999984              -0.000058046              -0.001344908               0.999999984              -0.000048851              -0.001378371               0.999999984              -0.000035590              -0.001410397               0.999999984              -0.000017209              -0.001440689               0.999999984               0.000007126              -0.001469202               0.999999984               0.000038303              -0.001495965               0.999999984              -0.000100154              -0.001153106               0.999999984              -0.000061149              -0.001159030               0.999999984              -0.000043909              -0.001162315               0.999999984              -0.000036965              -0.001171189               0.999999984              -0.000034989              -0.001187224               0.999999984              -0.000035509              -0.001209610               0.999999984              -0.000036891              -0.001237143               0.999999984              -0.000038301              -0.001268505               0.999999984              -0.000039069              -0.001302487               0.999999984              -0.000038657              -0.001338301               0.999999984              -0.000036578              -0.001375093               0.999999984              -0.000032528              -0.001412228               0.999999984              -0.000026163              -0.001449094               0.999999984              -0.000016631              -0.001485269               0.999999984              -0.000002845              -0.001520242               0.999999984               0.000016154              -0.001553600               0.999999984               0.000041566              -0.001584920               0.999999984              -0.000050330              -0.001171160               0.999999984              -0.000030341              -0.001186848               0.999999984              -0.000021137              -0.001195610               0.999999984              -0.000017199              -0.001207555               0.999999984              -0.000015867              -0.001225290               0.999999984              -0.000015913              -0.001248559               0.999999984              -0.000016432              -0.001276575               0.999999984              -0.000017078              -0.001308368               0.999999984              -0.000017461              -0.001343073               0.999999984              -0.000017238              -0.001379909               0.999999984              -0.000016140              -0.001418105               0.999999984              -0.000014170              -0.001457145               0.999999984              -0.000010905              -0.001496414               0.999999984              -0.000005853              -0.001535483               0.999999984               0.000001492              -0.001573777               0.999999984               0.000012015              -0.001610739               0.999999984               0.000026602              -0.001645632               0.999999984              -0.000000000              -0.001177156               0.999999984              -0.000000000              -0.001196252               0.999999984               0.000000000              -0.001207073               0.999999984              -0.000000000              -0.001220135               0.999999984              -0.000000000              -0.001238539               0.999999984               0.000000000              -0.001262232               0.999999984               0.000000000              -0.001290436               0.999999984              -0.000000000              -0.001322365               0.999999984              -0.000000000              -0.001357264               0.999999984              -0.000000000              -0.001394485               0.999999984              -0.000000000              -0.001433201               0.999999984              -0.000000000              -0.001472909               0.999999984              -0.000000000              -0.001513098               0.999999984               0.000000000              -0.001553271               0.999999984               0.000000000              -0.001592839               0.999999984              -0.000000000              -0.001631175               0.999999984               0.000000000              -0.001667424               0.999999984               0.000533273              -0.000000000               0.999999984               0.000577985               0.000000000               0.999999984               0.000598046              -0.000000000               0.999999984               0.000609571               0.000000000               0.999999984               0.000618697              -0.000000000               0.999999984               0.000627820               0.000000000               0.999999984               0.000637779               0.000000000               0.999999984               0.000648855              -0.000000000               0.999999984               0.000661123               0.000000000               0.999999984               0.000674423               0.000000000               0.999999984               0.000688503              -0.000000000               0.999999984               0.000703104              -0.000000000               0.999999984               0.000717883              -0.000000000               0.999999984               0.000732707              -0.000000000               0.999999984               0.000747363              -0.000000000               0.999999984               0.000761518               0.000000000               0.999999984               0.000774456              -0.000000000               0.999999984               0.000530338              -0.000114723               0.999999984               0.000571968              -0.000094886               0.999999984               0.000590052              -0.000086950               0.999999984               0.000600437              -0.000084875               0.999999984               0.000608870              -0.000085949               0.999999984               0.000617444              -0.000088684               0.999999984               0.000627006              -0.000092425               0.999999984               0.000637739              -0.000096475               0.999999984               0.000649553              -0.000100480               0.999999984               0.000662213              -0.000104196               0.999999984               0.000675486              -0.000107382               0.999999984               0.000689150              -0.000109724               0.999999984               0.000702880              -0.000111018               0.999999984               0.000716428              -0.000111144               0.999999984               0.000729622              -0.000109676               0.999999984               0.000742186              -0.000105647               0.999999984               0.000753630              -0.000098066               0.999999984               0.000521406              -0.000228264               0.999999984               0.000554045              -0.000189120               0.999999984               0.000566770              -0.000174112               0.999999984               0.000574025              -0.000170865               0.999999984               0.000580593              -0.000173575               0.999999984               0.000587973              -0.000179531               0.999999984               0.000596472              -0.000187138               0.999999984               0.000606030              -0.000195271               0.999999984               0.000616471              -0.000203390               0.999999984               0.000627540              -0.000210800               0.999999984               0.000638940              -0.000217205               0.999999984               0.000650257              -0.000222031               0.999999984               0.000661278              -0.000224808               0.999999984               0.000671776              -0.000225417               0.999999984               0.000681529              -0.000223227               0.999999984               0.000690445              -0.000217152               0.999999984               0.000698474              -0.000206060               0.999999984               0.000506770              -0.000339424               0.999999984               0.000525270              -0.000282171               0.999999984               0.000530271              -0.000261770               0.999999984               0.000533397              -0.000258709               0.999999984               0.000537654              -0.000264111               0.999999984               0.000543524              -0.000273769               0.999999984               0.000550701              -0.000285482               0.999999984               0.000558862              -0.000297847               0.999999984               0.000567641              -0.000309961               0.999999984               0.000576580              -0.000320987               0.999999984               0.000585143              -0.000330295               0.999999984               0.000593133              -0.000337578               0.999999984               0.000600397              -0.000342561               0.999999984               0.000606854              -0.000344886               0.999999984               0.000612460              -0.000343814               0.999999984               0.000617227              -0.000338803               0.999999984               0.000621388              -0.000329350               0.999999984               0.000486725              -0.000447141               0.999999984               0.000487091              -0.000373700               0.999999984               0.000483494              -0.000350077               0.999999984               0.000482637              -0.000348659               0.999999984               0.000484870              -0.000357630               0.999999984               0.000489503              -0.000371540               0.999999984               0.000495749              -0.000387495               0.999999984               0.000502701              -0.000404015               0.999999984               0.000509655              -0.000419919               0.999999984               0.000516131              -0.000434351               0.999999984               0.000521850              -0.000446756               0.999999984               0.000526588              -0.000456878               0.999999984               0.000530212              -0.000464464               0.999999984               0.000532641              -0.000469389               0.999999984               0.000534037              -0.000471261               0.999999984               0.000534653              -0.000469813               0.999999984               0.000534693              -0.000465421               0.999999984               0.000461539              -0.000550372               0.999999984               0.000441440              -0.000463600               0.999999984               0.000430055              -0.000438848               0.999999984               0.000426340              -0.000440208               0.999999984               0.000427682              -0.000453328               0.999999984               0.000432024              -0.000471709               0.999999984               0.000437649              -0.000492018               0.999999984               0.000443455              -0.000512500               0.999999984               0.000448791              -0.000532052               0.999999984               0.000453018              -0.000549808               0.999999984               0.000455892              -0.000565388               0.999999984               0.000457242              -0.000578376               0.999999984               0.000457009              -0.000588722               0.999999984               0.000455338              -0.000596674               0.999999984               0.000452516              -0.000602126               0.999999984               0.000448715              -0.000605193               0.999999984               0.000444055              -0.000605964               0.999999984               0.000431765              -0.000648029               0.999999984               0.000390907              -0.000551681               0.999999984               0.000373672              -0.000527562               0.999999984               0.000369032              -0.000532304               0.999999984               0.000370940              -0.000549739               0.999999984               0.000375637              -0.000572485               0.999999984               0.000381060              -0.000596925               0.999999984               0.000385991              -0.000621265               0.999999984               0.000389441              -0.000644436               0.999999984               0.000391016              -0.000665395               0.999999984               0.000390662              -0.000683712               0.999999984               0.000388273              -0.000699171               0.999999984               0.000383957              -0.000712055               0.999999984               0.000377902              -0.000722812               0.999999984               0.000370357              -0.000731588               0.999999984               0.000361358              -0.000738382               0.999999984               0.000350911              -0.000742964               0.999999984               0.000398114              -0.000739039               0.999999984               0.000338054              -0.000637682               0.999999984               0.000317743              -0.000615401               0.999999984               0.000314391              -0.000623544               0.999999984               0.000317849              -0.000645029               0.999999984               0.000323425              -0.000671927               0.999999984               0.000328680              -0.000700468               0.999999984               0.000332240              -0.000728619               0.999999984               0.000333549              -0.000754773               0.999999984               0.000332272              -0.000778143               0.999999984               0.000328218              -0.000798413               0.999999984               0.000321438              -0.000815779               0.999999984               0.000312103              -0.000830853               0.999999984               0.000300538              -0.000844224               0.999999984               0.000286994              -0.000855950               0.999999984               0.000271666              -0.000865684               0.999999984               0.000254889              -0.000873283               0.999999984               0.000361911              -0.000821741               0.999999984               0.000284804              -0.000721434               0.999999984               0.000265299              -0.000701224               0.999999984               0.000264586              -0.000712459               0.999999984               0.000270203              -0.000737592               0.999999984               0.000276612              -0.000768590               0.999999984               0.000281340              -0.000801051               0.999999984               0.000283331              -0.000832293               0.999999984               0.000281885              -0.000860899               0.999999984               0.000276783              -0.000886022               0.999999984               0.000267813              -0.000907755               0.999999984               0.000255258              -0.000926756               0.999999984               0.000239712              -0.000943777               0.999999984               0.000221823              -0.000959289               0.999999984               0.000201962              -0.000973259               0.999999984               0.000180678              -0.000985655               0.999999984               0.000158723              -0.000996590               0.999999984               0.000324957              -0.000899359               0.999999984               0.000241067              -0.000812661               0.999999984               0.000218456              -0.000787866               0.999999984               0.000216432              -0.000793204               0.999999984               0.000221455              -0.000813470               0.999999984               0.000227874              -0.000841366               0.999999984               0.000233117              -0.000872243               0.999999984               0.000236015              -0.000903508               0.999999984               0.000235778              -0.000933252               0.999999984               0.000232097              -0.000960491               0.999999984               0.000224444              -0.000984778               0.999999984               0.000212731              -0.001006289               0.999999984               0.000197535              -0.001025672               0.999999984               0.000179605              -0.001043395               0.999999984               0.000159796              -0.001060096               0.999999984               0.000138297              -0.001075686               0.999999984               0.000116250              -0.001090160               0.999999984               0.000284496              -0.000969632               0.999999984               0.000200142              -0.000900276               0.999999984               0.000174589              -0.000875991               0.999999984               0.000170396              -0.000877526               0.999999984               0.000174098              -0.000893944               0.999999984               0.000179933              -0.000918940               0.999999984               0.000185281              -0.000948116               0.999999984               0.000188798              -0.000978947               0.999999984               0.000189553              -0.001009598               0.999999984               0.000187006              -0.001038817               0.999999984               0.000180662              -0.001065790               0.999999984               0.000170189              -0.001090095               0.999999984               0.000155780              -0.001112019               0.999999984               0.000137806              -0.001132026               0.999999984               0.000117117              -0.001150801               0.999999984               0.000094377              -0.001168662               0.999999984               0.000070456              -0.001186023               0.999999984               0.000241471              -0.001030971               0.999999984               0.000161940              -0.000981817               0.999999984               0.000134900              -0.000961788               0.999999984               0.000128337              -0.000962240               0.999999984               0.000130206              -0.000976346               0.999999984               0.000134871              -0.000999127               0.999999984               0.000139692              -0.001026979               0.999999984               0.000143303              -0.001057463               0.999999984               0.000144681              -0.001088679               0.999999984               0.000143128              -0.001119634               0.999999984               0.000138068              -0.001149260               0.999999984               0.000129040              -0.001176910               0.999999984               0.000115826              -0.001202240               0.999999984               0.000098357              -0.001225500               0.999999984               0.000076862              -0.001246978               0.999999984               0.000051901              -0.001267215               0.999999984               0.000024263              -0.001286872               0.999999984               0.000196146              -0.001082530               0.999999984               0.000126337              -0.001054151               0.999999984               0.000099951              -0.001041180               0.999999984               0.000091768              -0.001042995               0.999999984               0.000091669              -0.001056525               0.999999984               0.000094798              -0.001078288               0.999999984               0.000098625              -0.001105306               0.999999984               0.000101781              -0.001135786               0.999999984               0.000103244              -0.001167875               0.999999984               0.000102221              -0.001200443               0.999999984               0.000098302              -0.001232626               0.999999984               0.000090899              -0.001263701               0.999999984               0.000079421              -0.001293057               0.999999984               0.000063452              -0.001320501               0.999999984               0.000042567              -0.001345949               0.999999984               0.000016486              -0.001369754               0.999999984              -0.000014759              -0.001392404               0.999999984               0.000148906              -0.001123438               0.999999984               0.000092949              -0.001114126               0.999999984               0.000069826              -0.001109520               0.999999984               0.000061423              -0.001114520               0.999999984               0.000059870              -0.001128872               0.999999984               0.000061500              -0.001150654               0.999999984               0.000064076              -0.001177750               0.999999984               0.000066369              -0.001208468               0.999999984               0.000067547              -0.001241561               0.999999984               0.000066850              -0.001275922               0.999999984               0.000063885              -0.001310524               0.999999984               0.000058046              -0.001344908               0.999999984               0.000048851              -0.001378371               0.999999984               0.000035590              -0.001410397               0.999999984               0.000017209              -0.001440689               0.999999984              -0.000007126              -0.001469202               0.999999984              -0.000038303              -0.001495965               0.999999984               0.000100154              -0.001153106               0.999999984               0.000061149              -0.001159030               0.999999984               0.000043909              -0.001162315               0.999999984               0.000036965              -0.001171189               0.999999984               0.000034989              -0.001187224               0.999999984               0.000035509              -0.001209610               0.999999984               0.000036891              -0.001237143               0.999999984               0.000038301              -0.001268505               0.999999984               0.000039069              -0.001302487               0.999999984               0.000038657              -0.001338301               0.999999984               0.000036578              -0.001375093               0.999999984               0.000032528              -0.001412228               0.999999984               0.000026163              -0.001449094               0.999999984               0.000016631              -0.001485269               0.999999984               0.000002845              -0.001520242               0.999999984              -0.000016154              -0.001553600               0.999999984              -0.000041566              -0.001584920               0.999999984               0.000050330              -0.001171160               0.999999984               0.000030341              -0.001186848               0.999999984               0.000021137              -0.001195610               0.999999984               0.000017199              -0.001207555               0.999999984               0.000015867              -0.001225290               0.999999984               0.000015913              -0.001248559               0.999999984               0.000016432              -0.001276575               0.999999984               0.000017078              -0.001308368               0.999999984               0.000017461              -0.001343073               0.999999984               0.000017238              -0.001379909               0.999999984               0.000016140              -0.001418105               0.999999984               0.000014170              -0.001457145               0.999999984               0.000010905              -0.001496414               0.999999984               0.000005853              -0.001535483               0.999999984              -0.000001492              -0.001573777               0.999999984              -0.000012015              -0.001610739               0.999999984              -0.000026602              -0.001645632               0.999999984              -0.000000000              -0.001177156               0.999999984              -0.000000000              -0.001196252               0.999999984               0.000000000              -0.001207073               0.999999984              -0.000000000              -0.001220135               0.999999984              -0.000000000              -0.001238539               0.999999984               0.000000000              -0.001262232               0.999999984               0.000000000              -0.001290436               0.999999984              -0.000000000              -0.001322365               0.999999984              -0.000000000              -0.001357264               0.999999984              -0.000000000              -0.001394485               0.999999984              -0.000000000              -0.001433201               0.999999984              -0.000000000              -0.001472909               0.999999984              -0.000000000              -0.001513098               0.999999984               0.000000000              -0.001553271               0.999999984               0.000000000              -0.001592839               0.999999984              -0.000000000              -0.001631175               0.999999984               0.000000000              -0.001667424               0.999999984               0.000533273              -0.000000000               0.999999984               0.000577985               0.000000000               0.999999984               0.000598046              -0.000000000               0.999999984               0.000609571               0.000000000               0.999999984               0.000618697              -0.000000000               0.999999984               0.000627820               0.000000000               0.999999984               0.000637779               0.000000000               0.999999984               0.000648855              -0.000000000               0.999999984               0.000661123               0.000000000               0.999999984               0.000674423               0.000000000               0.999999984               0.000688503              -0.000000000               0.999999984               0.000703104              -0.000000000               0.999999984               0.000717883              -0.000000000               0.999999984               0.000732707              -0.000000000               0.999999984               0.000747363              -0.000000000               0.999999984               0.000761518               0.000000000               0.999999984               0.000774456              -0.000000000               0.999999984               0.000530338               0.000114723               0.999999984               0.000571968               0.000094886               0.999999984               0.000590052               0.000086950               0.999999984               0.000600437               0.000084875               0.999999984               0.000608870               0.000085949               0.999999984               0.000617444               0.000088684               0.999999984               0.000627006               0.000092425               0.999999984               0.000637739               0.000096475               0.999999984               0.000649553               0.000100480               0.999999984               0.000662213               0.000104196               0.999999984               0.000675486               0.000107382               0.999999984               0.000689150               0.000109724               0.999999984               0.000702880               0.000111018               0.999999984               0.000716428               0.000111144               0.999999984               0.000729622               0.000109676               0.999999984               0.000742186               0.000105647               0.999999984               0.000753630               0.000098066               0.999999984               0.000521406               0.000228264               0.999999984               0.000554045               0.000189120               0.999999984               0.000566770               0.000174112               0.999999984               0.000574025               0.000170865               0.999999984               0.000580593               0.000173575               0.999999984               0.000587973               0.000179531               0.999999984               0.000596472               0.000187138               0.999999984               0.000606030               0.000195271               0.999999984               0.000616471               0.000203390               0.999999984               0.000627540               0.000210800               0.999999984               0.000638940               0.000217205               0.999999984               0.000650257               0.000222031               0.999999984               0.000661278               0.000224808               0.999999984               0.000671776               0.000225417               0.999999984               0.000681529               0.000223227               0.999999984               0.000690445               0.000217152               0.999999984               0.000698474               0.000206060               0.999999984               0.000506770               0.000339424               0.999999984               0.000525270               0.000282171               0.999999984               0.000530271               0.000261770               0.999999984               0.000533397               0.000258709               0.999999984               0.000537654               0.000264111               0.999999984               0.000543524               0.000273769               0.999999984               0.000550701               0.000285482               0.999999984               0.000558862               0.000297847               0.999999984               0.000567641               0.000309961               0.999999984               0.000576580               0.000320987               0.999999984               0.000585143               0.000330295               0.999999984               0.000593133               0.000337578               0.999999984               0.000600397               0.000342561               0.999999984               0.000606854               0.000344886               0.999999984               0.000612460               0.000343814               0.999999984               0.000617227               0.000338803               0.999999984               0.000621388               0.000329350               0.999999984               0.000486725               0.000447141               0.999999984               0.000487091               0.000373700               0.999999984               0.000483494               0.000350077               0.999999984               0.000482637               0.000348659               0.999999984               0.000484870               0.000357630               0.999999984               0.000489503               0.000371540               0.999999984               0.000495749               0.000387495               0.999999984               0.000502701               0.000404015               0.999999984               0.000509655               0.000419919               0.999999984               0.000516131               0.000434351               0.999999984               0.000521850               0.000446756               0.999999984               0.000526588               0.000456878               0.999999984               0.000530212               0.000464464               0.999999984               0.000532641               0.000469389               0.999999984               0.000534037               0.000471261               0.999999984               0.000534653               0.000469813               0.999999984               0.000534693               0.000465421               0.999999984               0.000461539               0.000550372               0.999999984               0.000441440               0.000463600               0.999999984               0.000430055               0.000438848               0.999999984               0.000426340               0.000440208               0.999999984               0.000427682               0.000453328               0.999999984               0.000432024               0.000471709               0.999999984               0.000437649               0.000492018               0.999999984               0.000443455               0.000512500               0.999999984               0.000448791               0.000532052               0.999999984               0.000453018               0.000549808               0.999999984               0.000455892               0.000565388               0.999999984               0.000457242               0.000578376               0.999999984               0.000457009               0.000588722               0.999999984               0.000455338               0.000596674               0.999999984               0.000452516               0.000602126               0.999999984               0.000448715               0.000605193               0.999999984               0.000444055               0.000605964               0.999999984               0.000431765               0.000648029               0.999999984               0.000390907               0.000551681               0.999999984               0.000373672               0.000527562               0.999999984               0.000369032               0.000532304               0.999999984               0.000370940               0.000549739               0.999999984               0.000375637               0.000572485               0.999999984               0.000381060               0.000596925               0.999999984               0.000385991               0.000621265               0.999999984               0.000389441               0.000644436               0.999999984               0.000391016               0.000665395               0.999999984               0.000390662               0.000683712               0.999999984               0.000388273               0.000699171               0.999999984               0.000383957               0.000712055               0.999999984               0.000377902               0.000722812               0.999999984               0.000370357               0.000731588               0.999999984               0.000361358               0.000738382               0.999999984               0.000350911               0.000742964               0.999999984               0.000398114               0.000739039               0.999999984               0.000338054               0.000637682               0.999999984               0.000317743               0.000615401               0.999999984               0.000314391               0.000623544               0.999999984               0.000317849               0.000645029               0.999999984               0.000323425               0.000671927               0.999999984               0.000328680               0.000700468               0.999999984               0.000332240               0.000728619               0.999999984               0.000333549               0.000754773               0.999999984               0.000332272               0.000778143               0.999999984               0.000328218               0.000798413               0.999999984               0.000321438               0.000815779               0.999999984               0.000312103               0.000830853               0.999999984               0.000300538               0.000844224               0.999999984               0.000286994               0.000855950               0.999999984               0.000271666               0.000865684               0.999999984               0.000254889               0.000873283               0.999999984               0.000361911               0.000821741               0.999999984               0.000284804               0.000721434               0.999999984               0.000265299               0.000701224               0.999999984               0.000264586               0.000712459               0.999999984               0.000270203               0.000737592               0.999999984               0.000276612               0.000768590               0.999999984               0.000281340               0.000801051               0.999999984               0.000283331               0.000832293               0.999999984               0.000281885               0.000860899               0.999999984               0.000276783               0.000886022               0.999999984               0.000267813               0.000907755               0.999999984               0.000255258               0.000926756               0.999999984               0.000239712               0.000943777               0.999999984               0.000221823               0.000959289               0.999999984               0.000201962               0.000973259               0.999999984               0.000180678               0.000985655               0.999999984               0.000158723               0.000996590               0.999999984               0.000324957               0.000899359               0.999999984               0.000241067               0.000812661               0.999999984               0.000218456               0.000787866               0.999999984               0.000216432               0.000793204               0.999999984               0.000221455               0.000813470               0.999999984               0.000227874               0.000841366               0.999999984               0.000233117               0.000872243               0.999999984               0.000236015               0.000903508               0.999999984               0.000235778               0.000933252               0.999999984               0.000232097               0.000960491               0.999999984               0.000224444               0.000984778               0.999999984               0.000212731               0.001006289               0.999999984               0.000197535               0.001025672               0.999999984               0.000179605               0.001043395               0.999999984               0.000159796               0.001060096               0.999999984               0.000138297               0.001075686               0.999999984               0.000116250               0.001090160               0.999999984               0.000284496               0.000969632               0.999999984               0.000200142               0.000900276               0.999999984               0.000174589               0.000875991               0.999999984               0.000170396               0.000877526               0.999999984               0.000174098               0.000893944               0.999999984               0.000179933               0.000918940               0.999999984               0.000185281               0.000948116               0.999999984               0.000188798               0.000978947               0.999999984               0.000189553               0.001009598               0.999999984               0.000187006               0.001038817               0.999999984               0.000180662               0.001065790               0.999999984               0.000170189               0.001090095               0.999999984               0.000155780               0.001112019               0.999999984               0.000137806               0.001132026               0.999999984               0.000117117               0.001150801               0.999999984               0.000094377               0.001168662               0.999999984               0.000070456               0.001186023               0.999999984               0.000241471               0.001030971               0.999999984               0.000161940               0.000981817               0.999999984               0.000134900               0.000961788               0.999999984               0.000128337               0.000962240               0.999999984               0.000130206               0.000976346               0.999999984               0.000134871               0.000999127               0.999999984               0.000139692               0.001026979               0.999999984               0.000143303               0.001057463               0.999999984               0.000144681               0.001088679               0.999999984               0.000143128               0.001119634               0.999999984               0.000138068               0.001149260               0.999999984               0.000129040               0.001176910               0.999999984               0.000115826               0.001202240               0.999999984               0.000098357               0.001225500               0.999999984               0.000076862               0.001246978               0.999999984               0.000051901               0.001267215               0.999999984               0.000024263               0.001286872               0.999999984               0.000196146               0.001082530               0.999999984               0.000126337               0.001054151               0.999999984               0.000099951               0.001041180               0.999999984               0.000091768               0.001042995               0.999999984               0.000091669               0.001056525               0.999999984               0.000094798               0.001078288               0.999999984               0.000098625               0.001105306               0.999999984               0.000101781               0.001135786               0.999999984               0.000103244               0.001167875               0.999999984               0.000102221               0.001200443               0.999999984               0.000098302               0.001232626               0.999999984               0.000090899               0.001263701               0.999999984               0.000079421               0.001293057               0.999999984               0.000063452               0.001320501               0.999999984               0.000042567               0.001345949               0.999999984               0.000016486               0.001369754               0.999999984              -0.000014759               0.001392404               0.999999984               0.000148906               0.001123438               0.999999984               0.000092949               0.001114126               0.999999984               0.000069826               0.001109520               0.999999984               0.000061423               0.001114520               0.999999984               0.000059870               0.001128872               0.999999984               0.000061500               0.001150654               0.999999984               0.000064076               0.001177750               0.999999984               0.000066369               0.001208468               0.999999984               0.000067547               0.001241561               0.999999984               0.000066850               0.001275922               0.999999984               0.000063885               0.001310524               0.999999984               0.000058046               0.001344908               0.999999984               0.000048851               0.001378371               0.999999984               0.000035590               0.001410397               0.999999984               0.000017209               0.001440689               0.999999984              -0.000007126               0.001469202               0.999999984              -0.000038303               0.001495965               0.999999984               0.000100154               0.001153106               0.999999984               0.000061149               0.001159030               0.999999984               0.000043909               0.001162315               0.999999984               0.000036965               0.001171189               0.999999984               0.000034989               0.001187224               0.999999984               0.000035509               0.001209610               0.999999984               0.000036891               0.001237143               0.999999984               0.000038301               0.001268505               0.999999984               0.000039069               0.001302487               0.999999984               0.000038657               0.001338301               0.999999984               0.000036578               0.001375093               0.999999984               0.000032528               0.001412228               0.999999984               0.000026163               0.001449094               0.999999984               0.000016631               0.001485269               0.999999984               0.000002845               0.001520242               0.999999984              -0.000016154               0.001553600               0.999999984              -0.000041566               0.001584920               0.999999984               0.000050330               0.001171160               0.999999984               0.000030341               0.001186848               0.999999984               0.000021137               0.001195610               0.999999984               0.000017199               0.001207555               0.999999984               0.000015867               0.001225290               0.999999984               0.000015913               0.001248559               0.999999984               0.000016432               0.001276575               0.999999984               0.000017078               0.001308368               0.999999984               0.000017461               0.001343073               0.999999984               0.000017238               0.001379909               0.999999984               0.000016140               0.001418105               0.999999984               0.000014170               0.001457145               0.999999984               0.000010905               0.001496414               0.999999984               0.000005853               0.001535483               0.999999984              -0.000001492               0.001573777               0.999999984              -0.000012015               0.001610739               0.999999984              -0.000026602               0.001645632               0.999999984              -0.000000000               0.001177156               0.999999984              -0.000000000               0.001196252               0.999999984              -0.000000000               0.001207073               0.999999984              -0.000000000               0.001220135               0.999999984              -0.000000000               0.001238539               0.999999984               0.000000000               0.001262232               0.999999984              -0.000000000               0.001290436               0.999999984              -0.000000000               0.001322365               0.999999984               0.000000000               0.001357264               0.999999984               0.000000000               0.001394485               0.999999984               0.000000000               0.001433201               0.999999984              -0.000000000               0.001472909               0.999999984               0.000000000               0.001513098               0.999999984              -0.000000000               0.001553271               0.999999984               0.000000000               0.001592839               0.999999984               0.000000000               0.001631175               0.999999984              -0.000000000               0.001667424               0.999999984 </DataArray>
<DataArray type="Float64"                                    Name="stress"                                                      NumberOfComponents="10" format="ascii">
              0.001920778               0.021060119              -0.000000000              -0.001912218               0.007657376               0.005745157               0.000000000               0.000000000               0.000000000               0.000000000               0.001925182               0.016611966              -0.000000000              -0.001354549               0.005988783               0.004634234               0.000000000               0.000000000               0.000000000               0.000000000               0.002546932               0.013027243              -0.000000000              -0.000673304               0.004566806               0.003893501               0.000000000               0.000000000               0.000000000               0.000000000               0.002467334               0.011018708               0.000000000              -0.000452087               0.003823562               0.003371474               0.000000000               0.000000000               0.000000000               0.000000000               0.002175362               0.009770695               0.000000000              -0.000405575               0.003392057               0.002986482               0.000000000               0.000000000               0.000000000               0.000000000               0.001840205               0.008925100               0.000000000              -0.000425560               0.003116857               0.002691297               0.000000000               0.000000000               0.000000000               0.000000000               0.001520732               0.008312033               0.000000000              -0.000468729               0.002926893               0.002458164               0.000000000               0.000000000               0.000000000               0.000000000               0.001228167               0.007826052               0.000000000              -0.000517693               0.002781222               0.002263529               0.000000000               0.000000000               0.000000000               0.000000000               0.000968971               0.007412764              -0.000000000              -0.000563230               0.002658640               0.002095410               0.000000000               0.000000000               0.000000000               0.000000000               0.000748559               0.007042929              -0.000000000              -0.000599655               0.002547505               0.001947849               0.000000000               0.000000000               0.000000000               0.000000000               0.000562924               0.006693416              -0.000000000              -0.000625579               0.002439643               0.001814064               0.000000000               0.000000000               0.000000000               0.000000000               0.000411683               0.006346348              -0.000000000              -0.000638911               0.002328398               0.001689488               0.000000000               0.000000000               0.000000000               0.000000000               0.000286076               0.005989422              -0.000000000              -0.000641398               0.002210253               0.001568856               0.000000000               0.000000000               0.000000000               0.000000000               0.000175094               0.005612952               0.000000000              -0.000635957               0.002082951               0.001446994               0.000000000               0.000000000               0.000000000               0.000000000               0.000081523               0.005199794              -0.000000000              -0.000619402               0.001939715               0.001320313               0.000000000               0.000000000               0.000000000               0.000000000               0.000022342               0.004722797              -0.000000000              -0.000581970               0.001768240               0.001186270               0.000000000               0.000000000               0.000000000               0.000000000              -0.000034164               0.004352460               0.000000000              -0.000556868               0.001636428               0.001079560               0.000000000               0.000000000               0.000000000               0.000000000               0.001993954               0.020635509              -0.001455702              -0.001831702               0.007489001               0.005657300               0.000000000               0.000000000               0.000000000               0.000000000               0.001897550               0.016335311              -0.000752106              -0.001330329               0.005888492               0.004558163               0.000000000               0.000000000               0.000000000               0.000000000               0.002407378               0.012903289              -0.000052849              -0.000710143               0.004537768               0.003827625               0.000000000               0.000000000               0.000000000               0.000000000               0.002283226               0.010978198               0.000239009              -0.000516064               0.003831384               0.003315320               0.000000000               0.000000000               0.000000000               0.000000000               0.001984223               0.009773908               0.000358272              -0.000477654               0.003417155               0.002939501               0.000000000               0.000000000               0.000000000               0.000000000               0.001658334               0.008952658               0.000403041              -0.000497206               0.003149925               0.002652719               0.000000000               0.000000000               0.000000000               0.000000000               0.001350392               0.008345706               0.000412047              -0.000536815               0.002960813               0.002423997               0.000000000               0.000000000               0.000000000               0.000000000               0.001075317               0.007861362               0.000402964              -0.000579425               0.002813570               0.002234144               0.000000000               0.000000000               0.000000000               0.000000000               0.000838990               0.007451766               0.000387324              -0.000616848               0.002689513               0.002072665               0.000000000               0.000000000               0.000000000               0.000000000               0.000640152               0.007083195               0.000368577              -0.000645341               0.002576155               0.001930814               0.000000000               0.000000000               0.000000000               0.000000000               0.000474728               0.006736115               0.000345815              -0.000663990               0.002466679               0.001802689               0.000000000               0.000000000               0.000000000               0.000000000               0.000340849               0.006393548               0.000319211              -0.000671374               0.002354953               0.001683579               0.000000000               0.000000000               0.000000000               0.000000000               0.000233114               0.006043690               0.000291943              -0.000668042               0.002237224               0.001569182               0.000000000               0.000000000               0.000000000               0.000000000               0.000142678               0.005679837               0.000259545              -0.000656474               0.002112085               0.001455611               0.000000000               0.000000000               0.000000000               0.000000000               0.000067750               0.005289944               0.000205692              -0.000635835               0.001975242               0.001339407               0.000000000               0.000000000               0.000000000               0.000000000               0.000020643               0.004860422               0.000118344              -0.000599810               0.001820061               0.001220251               0.000000000               0.000000000               0.000000000               0.000000000              -0.000026253               0.004540746               0.000071974              -0.000577437               0.001706046               0.001128609               0.000000000               0.000000000               0.000000000               0.000000000               0.002176589               0.019417463              -0.002709157              -0.001610959               0.007009409               0.005398450               0.000000000               0.000000000               0.000000000               0.000000000               0.001798385               0.015547744              -0.001402118              -0.001269071               0.005605553               0.004336482               0.000000000               0.000000000               0.000000000               0.000000000               0.002004940               0.012556748              -0.000112134              -0.000817739               0.004458121               0.003640381               0.000000000               0.000000000               0.000000000               0.000000000               0.001772289               0.010860237               0.000410307              -0.000692920               0.003851016               0.003158096               0.000000000               0.000000000               0.000000000               0.000000000               0.001456060               0.009774406               0.000616956              -0.000675777               0.003483362               0.002807585               0.000000000               0.000000000               0.000000000               0.000000000               0.001158680               0.009010640               0.000690031              -0.000691824               0.003234125               0.002542301               0.000000000               0.000000000               0.000000000               0.000000000               0.000899566               0.008426380               0.000701907              -0.000715959               0.003047418               0.002331459               0.000000000               0.000000000               0.000000000               0.000000000               0.000678903               0.007951040               0.000686027              -0.000739290               0.002896750               0.002157460               0.000000000               0.000000000               0.000000000               0.000000000               0.000495486               0.007542713               0.000655806              -0.000757030               0.002766556               0.002009526               0.000000000               0.000000000               0.000000000               0.000000000               0.000347479               0.007171888               0.000618242              -0.000766180               0.002645998               0.001879819               0.000000000               0.000000000               0.000000000               0.000000000               0.000233866               0.006822968               0.000577179              -0.000765170               0.002529356               0.001764187               0.000000000               0.000000000               0.000000000               0.000000000               0.000149327               0.006490577               0.000528648              -0.000755323               0.002415278               0.001659956               0.000000000               0.000000000               0.000000000               0.000000000               0.000087086               0.006169664               0.000476080              -0.000738549               0.002302717               0.001564168               0.000000000               0.000000000               0.000000000               0.000000000               0.000045036               0.005853448               0.000411947              -0.000714791               0.002189393               0.001474602               0.000000000               0.000000000               0.000000000               0.000000000               0.000017325               0.005536249               0.000316652              -0.000685533               0.002073909               0.001388376               0.000000000               0.000000000               0.000000000               0.000000000               0.000002932               0.005226328               0.000177549              -0.000652190               0.001959489               0.001307299               0.000000000               0.000000000               0.000000000               0.000000000              -0.000018843               0.005022945               0.000102772              -0.000634933               0.001885942               0.001251010               0.000000000               0.000000000               0.000000000               0.000000000               0.002375741               0.017569442              -0.003614681              -0.001305276               0.006291514               0.004986237               0.000000000               0.000000000               0.000000000               0.000000000               0.001601750               0.014368037              -0.001882123              -0.001195346               0.005187746               0.003992400               0.000000000               0.000000000               0.000000000               0.000000000               0.001387866               0.012044863              -0.000191684              -0.000985156               0.004343299               0.003358144               0.000000000               0.000000000               0.000000000               0.000000000               0.001030721               0.010667774               0.000462784              -0.000946949               0.003871539               0.002924590               0.000000000               0.000000000               0.000000000               0.000000000               0.000716273               0.009740404               0.000709557              -0.000948946               0.003563084               0.002614138               0.000000000               0.000000000               0.000000000               0.000000000               0.000472509               0.009050635               0.000790038              -0.000954136               0.003334894               0.002380757               0.000000000               0.000000000               0.000000000               0.000000000               0.000290073               0.008498036               0.000797719              -0.000953475               0.003150475               0.002197000               0.000000000               0.000000000               0.000000000               0.000000000               0.000151886               0.008034469               0.000773206              -0.000947349               0.002993913               0.002046563               0.000000000               0.000000000               0.000000000               0.000000000               0.000049067               0.007625477               0.000732942              -0.000934783               0.002853394               0.001918612               0.000000000               0.000000000               0.000000000               0.000000000              -0.000015520               0.007256797               0.000682787              -0.000912918               0.002723214               0.001810297               0.000000000               0.000000000               0.000000000               0.000000000              -0.000050364               0.006917690               0.000628540              -0.000883596               0.002600405               0.001716810               0.000000000               0.000000000               0.000000000               0.000000000              -0.000066630               0.006607633               0.000569815              -0.000850938               0.002486168               0.001635230               0.000000000               0.000000000               0.000000000               0.000000000              -0.000067975               0.006327015               0.000504217              -0.000816366               0.002381106               0.001564740               0.000000000               0.000000000               0.000000000               0.000000000              -0.000059143               0.006072148               0.000420672              -0.000781195               0.002284427               0.001503232               0.000000000               0.000000000               0.000000000               0.000000000              -0.000042778               0.005846034               0.000308112              -0.000746794               0.002197590               0.001450796               0.000000000               0.000000000               0.000000000               0.000000000              -0.000023364               0.005662813               0.000165491              -0.000716611               0.002126456               0.001409845               0.000000000               0.000000000               0.000000000               0.000000000              -0.000019461               0.005568640               0.000089955              -0.000703376               0.002090653               0.001387277               0.000000000               0.000000000               0.000000000               0.000000000               0.002468730               0.015314703              -0.004092444              -0.000988565               0.005434371               0.004445806               0.000000000               0.000000000               0.000000000               0.000000000               0.001279757               0.012951638              -0.002165289              -0.001139045               0.004696851               0.003557806               0.000000000               0.000000000               0.000000000               0.000000000               0.000628685               0.011423721              -0.000310244              -0.001192205               0.004205271               0.003013065               0.000000000               0.000000000               0.000000000               0.000000000               0.000188104               0.010395911               0.000371731              -0.001228947               0.003874918               0.002645971               0.000000000               0.000000000               0.000000000               0.000000000              -0.000080069               0.009632446               0.000615923              -0.001234079               0.003622143               0.002388064               0.000000000               0.000000000               0.000000000               0.000000000              -0.000239234               0.009021831               0.000686464              -0.001217439               0.003413060               0.002195621               0.000000000               0.000000000               0.000000000               0.000000000              -0.000325039               0.008506357               0.000689501              -0.001185181               0.003230485               0.002045303               0.000000000               0.000000000               0.000000000               0.000000000              -0.000359311               0.008058383               0.000665261              -0.001142037               0.003066780               0.001924743               0.000000000               0.000000000               0.000000000               0.000000000              -0.000358581               0.007660015               0.000624268              -0.001091967               0.002917302               0.001825335               0.000000000               0.000000000               0.000000000               0.000000000              -0.000334774               0.007303003               0.000573210              -0.001038413               0.002780448               0.001742035               0.000000000               0.000000000               0.000000000               0.000000000              -0.000294000               0.006985855               0.000516081              -0.000983479               0.002656422               0.001672942               0.000000000               0.000000000               0.000000000               0.000000000              -0.000242784               0.006701653               0.000455815              -0.000928748               0.002543445               0.001614696               0.000000000               0.000000000               0.000000000               0.000000000              -0.000185024               0.006450814               0.000392406              -0.000875734               0.002442161               0.001566427               0.000000000               0.000000000               0.000000000               0.000000000              -0.000128765               0.006239259               0.000316246              -0.000828192               0.002355796               0.001527604               0.000000000               0.000000000               0.000000000               0.000000000              -0.000080359               0.006073816               0.000219136              -0.000789360               0.002287705               0.001498345               0.000000000               0.000000000               0.000000000               0.000000000              -0.000037742               0.005962900               0.000110641              -0.000759514               0.002240785               0.001481271               0.000000000               0.000000000               0.000000000               0.000000000              -0.000021290               0.005915350               0.000058474              -0.000747401               0.002220897               0.001473497               0.000000000               0.000000000               0.000000000               0.000000000               0.002347880               0.012875061              -0.004151889              -0.000728930               0.004534620               0.003805690               0.000000000               0.000000000               0.000000000               0.000000000               0.000829813               0.011443367              -0.002280134              -0.001119240               0.004187497               0.003068257               0.000000000               0.000000000               0.000000000               0.000000000              -0.000178417               0.010737327              -0.000491611              -0.001409069               0.004048763               0.002639694               0.000000000               0.000000000               0.000000000               0.000000000              -0.000622606               0.010040663               0.000137008              -0.001488556               0.003843040               0.002354483               0.000000000               0.000000000               0.000000000               0.000000000              -0.000795027               0.009427848               0.000355574              -0.001476612               0.003634789               0.002158176               0.000000000               0.000000000               0.000000000               0.000000000              -0.000834394               0.008891277               0.000421051              -0.001424304               0.003438497               0.002014194               0.000000000               0.000000000               0.000000000               0.000000000              -0.000802764               0.008417615               0.000430166              -0.001353235               0.003256922               0.001903687               0.000000000               0.000000000               0.000000000               0.000000000              -0.000734112               0.007995446               0.000416757              -0.001274720               0.003090028               0.001815309               0.000000000               0.000000000               0.000000000               0.000000000              -0.000642435               0.007619313               0.000388502              -0.001193324               0.002937520               0.001744196               0.000000000               0.000000000               0.000000000               0.000000000              -0.000541888               0.007279204               0.000351746              -0.001113106               0.002797412               0.001684307               0.000000000               0.000000000               0.000000000               0.000000000              -0.000441335               0.006970905               0.000309681              -0.001036861               0.002669232               0.001632371               0.000000000               0.000000000               0.000000000               0.000000000              -0.000341303               0.006694110               0.000265052              -0.000964750               0.002552931               0.001588181               0.000000000               0.000000000               0.000000000               0.000000000              -0.000247139               0.006455098               0.000223031              -0.000899562               0.002451532               0.001551970               0.000000000               0.000000000               0.000000000               0.000000000              -0.000168223               0.006257860               0.000176321              -0.000845314               0.002367704               0.001522390               0.000000000               0.000000000               0.000000000               0.000000000              -0.000103675               0.006106783               0.000119095              -0.000802224               0.002302982               0.001500758               0.000000000               0.000000000               0.000000000               0.000000000              -0.000047859               0.006000035               0.000057447              -0.000767950               0.002255975               0.001488025               0.000000000               0.000000000               0.000000000               0.000000000              -0.000033921               0.005938803               0.000033298              -0.000755069               0.002231271               0.001476202               0.000000000               0.000000000               0.000000000               0.000000000               0.001956493               0.010448918              -0.003865566              -0.000572432               0.003673748               0.003101315               0.000000000               0.000000000               0.000000000               0.000000000               0.000283053               0.009960871              -0.002274978              -0.001138963               0.003699911               0.002560948               0.000000000               0.000000000               0.000000000               0.000000000              -0.000936673               0.010018619              -0.000743751              -0.001603576               0.003874032               0.002270456               0.000000000               0.000000000               0.000000000               0.000000000              -0.001295662               0.009606101              -0.000209695              -0.001686632               0.003764212               0.002077580               0.000000000               0.000000000               0.000000000               0.000000000              -0.001329229               0.009123257              -0.000007683              -0.001638864               0.003587343               0.001948480               0.000000000               0.000000000               0.000000000               0.000000000              -0.001234707               0.008658151               0.000070281              -0.001545280               0.003401115               0.001855835               0.000000000               0.000000000               0.000000000               0.000000000              -0.001092328               0.008232877               0.000100668              -0.001438729               0.003223841               0.001785112               0.000000000               0.000000000               0.000000000               0.000000000              -0.000930413               0.007845924               0.000112458              -0.001329642               0.003058496               0.001728854               0.000000000               0.000000000               0.000000000               0.000000000              -0.000765714               0.007482276               0.000110644              -0.001222424               0.002901542               0.001679118               0.000000000               0.000000000               0.000000000               0.000000000              -0.000615647               0.007137811               0.000098251              -0.001123091               0.002753610               0.001630519               0.000000000               0.000000000               0.000000000               0.000000000              -0.000483213               0.006816556               0.000083017              -0.001033272               0.002616587               0.001583315               0.000000000               0.000000000               0.000000000               0.000000000              -0.000363647               0.006532178               0.000070044              -0.000952888               0.002495000               0.001542113               0.000000000               0.000000000               0.000000000               0.000000000              -0.000261024               0.006293156               0.000064634              -0.000884526               0.002392540               0.001508013               0.000000000               0.000000000               0.000000000               0.000000000              -0.000179523               0.006097718               0.000060228              -0.000829534               0.002309063               0.001479530               0.000000000               0.000000000               0.000000000               0.000000000              -0.000112651               0.005941240               0.000048591              -0.000784897               0.002242026               0.001457129               0.000000000               0.000000000               0.000000000               0.000000000              -0.000052701               0.005812594               0.000027726              -0.000746335               0.002186290               0.001439955               0.000000000               0.000000000               0.000000000               0.000000000              -0.000042443               0.005728632               0.000025019              -0.000731993               0.002153523               0.001421529               0.000000000               0.000000000               0.000000000               0.000000000               0.001322391               0.008191407              -0.003320508              -0.000528031               0.002906451               0.002378420               0.000000000               0.000000000               0.000000000               0.000000000              -0.000326357               0.008591519              -0.002191143              -0.001196322               0.003262584               0.002066262               0.000000000               0.000000000               0.000000000               0.000000000              -0.001570476               0.009284468              -0.001056726              -0.001749483               0.003677953               0.001928470               0.000000000               0.000000000               0.000000000               0.000000000              -0.001769488               0.009104012              -0.000611554              -0.001801555               0.003635159               0.001833603               0.000000000               0.000000000               0.000000000               0.000000000              -0.001648446               0.008738137              -0.000399083              -0.001710430               0.003482827               0.001772396               0.000000000               0.000000000               0.000000000               0.000000000              -0.001428331               0.008352620              -0.000288675              -0.001579698               0.003310745               0.001731047               0.000000000               0.000000000               0.000000000               0.000000000              -0.001189448               0.007978790              -0.000222491              -0.001443388               0.003140700               0.001697311               0.000000000               0.000000000               0.000000000               0.000000000              -0.000965053               0.007605804              -0.000179837              -0.001312617               0.002972782               0.001660165               0.000000000               0.000000000               0.000000000               0.000000000              -0.000766884               0.007231608              -0.000153423              -0.001191529               0.002807688               0.001616159               0.000000000               0.000000000               0.000000000               0.000000000              -0.000592886               0.006870488              -0.000132958              -0.001081140               0.002650520               0.001569379               0.000000000               0.000000000               0.000000000               0.000000000              -0.000446389               0.006538723              -0.000108419              -0.000984734               0.002507797               0.001523063               0.000000000               0.000000000               0.000000000               0.000000000              -0.000326926               0.006252898              -0.000075206              -0.000904207               0.002385681               0.001481474               0.000000000               0.000000000               0.000000000               0.000000000              -0.000233632               0.006015725              -0.000033817              -0.000839575               0.002285080               0.001445505               0.000000000               0.000000000               0.000000000               0.000000000              -0.000161026               0.005819112               0.000004256              -0.000787772               0.002202275               0.001414503               0.000000000               0.000000000               0.000000000               0.000000000              -0.000100755               0.005654310               0.000025325              -0.000744570               0.002132941               0.001388371               0.000000000               0.000000000               0.000000000               0.000000000              -0.000049812               0.005517572               0.000023874              -0.000708374               0.002075297               0.001366923               0.000000000               0.000000000               0.000000000               0.000000000              -0.000039054               0.005435603               0.000025543              -0.000694094               0.002043214               0.001349120               0.000000000               0.000000000               0.000000000               0.000000000               0.000551357               0.006273306              -0.002623451              -0.000577405               0.002283548               0.001706143               0.000000000               0.000000000               0.000000000               0.000000000              -0.000908541               0.007365429              -0.002075630              -0.001261379               0.002875578               0.001614198               0.000000000               0.000000000               0.000000000               0.000000000              -0.002039711               0.008570326              -0.001419464              -0.001836178               0.003468806               0.001632628               0.000000000               0.000000000               0.000000000               0.000000000              -0.002071258               0.008629307              -0.001032911              -0.001855381               0.003494867               0.001639486               0.000000000               0.000000000               0.000000000               0.000000000              -0.001824720               0.008402872              -0.000789490              -0.001734625               0.003379137               0.001644513               0.000000000               0.000000000               0.000000000               0.000000000              -0.001510974               0.008103176              -0.000631083              -0.001579509               0.003227534               0.001648026               0.000000000               0.000000000               0.000000000               0.000000000              -0.001210038               0.007764506              -0.000525482              -0.001424324               0.003062918               0.001638593               0.000000000               0.000000000               0.000000000               0.000000000              -0.000940856               0.007402018              -0.000451544              -0.001278070               0.002893338               0.001615268               0.000000000               0.000000000               0.000000000               0.000000000              -0.000712227               0.007027976              -0.000393592              -0.001145579               0.002724495               0.001578916               0.000000000               0.000000000               0.000000000               0.000000000              -0.000519261               0.006664483              -0.000337359              -0.001027780               0.002564065               0.001536285               0.000000000               0.000000000               0.000000000               0.000000000              -0.000364156               0.006335555              -0.000269951              -0.000928501               0.002421331               0.001492830               0.000000000               0.000000000               0.000000000               0.000000000              -0.000254875               0.006052945              -0.000192462              -0.000852194               0.002301693               0.001449499               0.000000000               0.000000000               0.000000000               0.000000000              -0.000186696               0.005812638              -0.000113943              -0.000796589               0.002203056               0.001406467               0.000000000               0.000000000               0.000000000               0.000000000              -0.000144995               0.005602081              -0.000045489              -0.000754631               0.002118885               0.001364254               0.000000000               0.000000000               0.000000000               0.000000000              -0.000114713               0.005418626               0.000001723              -0.000720344               0.002046305               0.001325962               0.000000000               0.000000000               0.000000000               0.000000000              -0.000098471               0.005261412               0.000021435              -0.000694601               0.001985320               0.001290719               0.000000000               0.000000000               0.000000000               0.000000000              -0.000090131               0.005184662               0.000024137              -0.000681880               0.001955497               0.001273617               0.000000000               0.000000000               0.000000000               0.000000000              -0.000377399               0.004490536              -0.001879712              -0.000702841               0.001731110               0.001028269               0.000000000               0.000000000               0.000000000               0.000000000              -0.001380702               0.005961590              -0.001940766              -0.001262960               0.002408163               0.001145203               0.000000000               0.000000000               0.000000000               0.000000000              -0.002283076               0.007531425              -0.001802933              -0.001797578               0.003109642               0.001312064               0.000000000               0.000000000               0.000000000               0.000000000              -0.002233102               0.007920873              -0.001488342              -0.001827518               0.003249437               0.001421919               0.000000000               0.000000000               0.000000000               0.000000000              -0.001940235               0.007928588              -0.001217951              -0.001718658               0.003215722               0.001497064               0.000000000               0.000000000               0.000000000               0.000000000              -0.001598175               0.007782042              -0.001010176              -0.001572067               0.003118010               0.001545943               0.000000000               0.000000000               0.000000000               0.000000000              -0.001274096               0.007544688              -0.000856349              -0.001420869               0.002988494               0.001567625               0.000000000               0.000000000               0.000000000               0.000000000              -0.000986541               0.007258137              -0.000739593              -0.001277217               0.002845093               0.001567877               0.000000000               0.000000000               0.000000000               0.000000000              -0.000743792               0.006936715              -0.000644240              -0.001146008               0.002694218               0.001548210               0.000000000               0.000000000               0.000000000               0.000000000              -0.000544088               0.006605554              -0.000553356              -0.001029725               0.002545071               0.001515346               0.000000000               0.000000000               0.000000000               0.000000000              -0.000385978               0.006284198              -0.000452506              -0.000930264               0.002404800               0.001474536               0.000000000               0.000000000               0.000000000               0.000000000              -0.000272790               0.005993620              -0.000344319              -0.000851497               0.002281685               0.001430189               0.000000000               0.000000000               0.000000000               0.000000000              -0.000205698               0.005738073              -0.000237799              -0.000794394               0.002177470               0.001383076               0.000000000               0.000000000               0.000000000               0.000000000              -0.000177545               0.005520024              -0.000141878              -0.000756580               0.002092183               0.001335603               0.000000000               0.000000000               0.000000000               0.000000000              -0.000174095               0.005331616              -0.000060834              -0.000731736               0.002021099               0.001289364               0.000000000               0.000000000               0.000000000               0.000000000              -0.000189803               0.005158352              -0.000006741              -0.000715969               0.001958090               0.001242121               0.000000000               0.000000000               0.000000000               0.000000000              -0.000198243               0.005076594               0.000009674              -0.000708914               0.001928485               0.001219572               0.000000000               0.000000000               0.000000000               0.000000000              -0.001595054               0.002878730              -0.001133772              -0.000957985               0.001278895               0.000320910               0.000000000               0.000000000               0.000000000               0.000000000              -0.001920318               0.004562755              -0.001739539              -0.001290461               0.001951056               0.000660595               0.000000000               0.000000000               0.000000000               0.000000000              -0.002438555               0.006334178              -0.002099180              -0.001706227               0.002680113               0.000973886               0.000000000               0.000000000               0.000000000               0.000000000              -0.002316654               0.007032576              -0.001914483              -0.001747814               0.002926772               0.001178959               0.000000000               0.000000000               0.000000000               0.000000000              -0.002006911               0.007296894              -0.001652180              -0.001664700               0.002987173               0.001322473               0.000000000               0.000000000               0.000000000               0.000000000              -0.001663414               0.007335147              -0.001414403              -0.001540670               0.002958581               0.001417911               0.000000000               0.000000000               0.000000000               0.000000000              -0.001337318               0.007240504              -0.001221870              -0.001406554               0.002882328               0.001475774               0.000000000               0.000000000               0.000000000               0.000000000              -0.001041724               0.007068014              -0.001064578              -0.001274145               0.002780696               0.001506551               0.000000000               0.000000000               0.000000000               0.000000000              -0.000784675               0.006840848              -0.000930836              -0.001149356               0.002663379               0.001514022               0.000000000               0.000000000               0.000000000               0.000000000              -0.000569016               0.006579911              -0.000808985              -0.001035868               0.002538571               0.001502703               0.000000000               0.000000000               0.000000000               0.000000000              -0.000392421               0.006296040              -0.000686809              -0.000934161               0.002410046               0.001475885               0.000000000               0.000000000               0.000000000               0.000000000              -0.000254270               0.006015654              -0.000561651              -0.000847306               0.002287633               0.001440327               0.000000000               0.000000000               0.000000000               0.000000000              -0.000162393               0.005756937              -0.000432512              -0.000780512               0.002179131               0.001398618               0.000000000               0.000000000               0.000000000               0.000000000              -0.000123700               0.005531348              -0.000304597              -0.000737804               0.002089699               0.001351895               0.000000000               0.000000000               0.000000000               0.000000000              -0.000141986               0.005328859              -0.000181536              -0.000719350               0.002016052               0.001296702               0.000000000               0.000000000               0.000000000               0.000000000              -0.000203336               0.005152440              -0.000075562              -0.000720304               0.001957564               0.001237260               0.000000000               0.000000000               0.000000000               0.000000000              -0.000258790               0.005062069              -0.000022856              -0.000729803               0.001930607               0.001200804               0.000000000               0.000000000               0.000000000               0.000000000              -0.003019561               0.001553648              -0.000441010              -0.001326539               0.000960056              -0.000366483               0.000000000               0.000000000               0.000000000               0.000000000              -0.002575554               0.003249964              -0.001450622              -0.001372075               0.001540668               0.000168593               0.000000000               0.000000000               0.000000000               0.000000000              -0.002548751               0.004997959              -0.002210836              -0.001580523               0.002192810               0.000612286               0.000000000               0.000000000               0.000000000               0.000000000              -0.002282147               0.005915118              -0.002190482              -0.001595192               0.002503416               0.000908224               0.000000000               0.000000000               0.000000000               0.000000000              -0.001945925               0.006411777              -0.001981740              -0.001531191               0.002647634               0.001116443               0.000000000               0.000000000               0.000000000               0.000000000              -0.001607462               0.006647673              -0.001748081              -0.001433754               0.002693787               0.001260032               0.000000000               0.000000000               0.000000000               0.000000000              -0.001293044               0.006719758              -0.001538742              -0.001324859               0.002681516               0.001356658               0.000000000               0.000000000               0.000000000               0.000000000              -0.001008415               0.006682704              -0.001358896              -0.001213491               0.002632042               0.001418551               0.000000000               0.000000000               0.000000000               0.000000000              -0.000753623               0.006572375              -0.001199076              -0.001104153               0.002558821               0.001454667               0.000000000               0.000000000               0.000000000               0.000000000              -0.000529324               0.006412583              -0.001052934              -0.001000067               0.002470862               0.001470794               0.000000000               0.000000000               0.000000000               0.000000000              -0.000333956               0.006209604              -0.000914354              -0.000901432               0.002370325               0.001468892               0.000000000               0.000000000               0.000000000               0.000000000              -0.000168422               0.005982862              -0.000777243              -0.000811014               0.002264605               0.001453591               0.000000000               0.000000000               0.000000000               0.000000000              -0.000041264               0.005754856              -0.000634061              -0.000734829               0.002163209               0.001428380               0.000000000               0.000000000               0.000000000               0.000000000               0.000035742               0.005538727              -0.000481611              -0.000678936               0.002072536               0.001393600               0.000000000               0.000000000               0.000000000               0.000000000               0.000043820               0.005333675              -0.000320255              -0.000650275               0.001994632               0.001344357               0.000000000               0.000000000               0.000000000               0.000000000              -0.000022414               0.005155227              -0.000157351              -0.000652807               0.001935994               0.001283187               0.000000000               0.000000000               0.000000000               0.000000000              -0.000102977               0.005056187              -0.000066872              -0.000670638               0.001908925               0.001238287               0.000000000               0.000000000               0.000000000               0.000000000              -0.004554648               0.000573338               0.000107597              -0.001779658               0.000784327              -0.000995332               0.000000000               0.000000000               0.000000000               0.000000000              -0.003307727               0.002088250              -0.001109667              -0.001501426               0.001196550              -0.000304876               0.000000000               0.000000000               0.000000000               0.000000000              -0.002639048               0.003630061              -0.002114334              -0.001443398               0.001691140               0.000247742               0.000000000               0.000000000               0.000000000               0.000000000              -0.002155598               0.004658381              -0.002245829              -0.001390644               0.002016325               0.000625681               0.000000000               0.000000000               0.000000000               0.000000000              -0.001762660               0.005338216              -0.002114802              -0.001328272               0.002222144               0.000893872               0.000000000               0.000000000               0.000000000               0.000000000              -0.001423849               0.005753977              -0.001917974              -0.001253188               0.002335702               0.001082514               0.000000000               0.000000000               0.000000000               0.000000000              -0.001124669               0.005993906              -0.001719630              -0.001170987               0.002388277               0.001217290               0.000000000               0.000000000               0.000000000               0.000000000              -0.000858672               0.006108193              -0.001537239              -0.001085524               0.002397885               0.001312361               0.000000000               0.000000000               0.000000000               0.000000000              -0.000617918               0.006128326              -0.001371493              -0.000997758               0.002375341               0.001377583               0.000000000               0.000000000               0.000000000               0.000000000              -0.000397244               0.006083324              -0.001220031              -0.000909380               0.002330881               0.001421501               0.000000000               0.000000000               0.000000000               0.000000000              -0.000191625               0.005987410              -0.001078234              -0.000820284               0.002269211               0.001448927               0.000000000               0.000000000               0.000000000               0.000000000              -0.000002133               0.005850625              -0.000937711              -0.000732126               0.002194231               0.001462105               0.000000000               0.000000000               0.000000000               0.000000000               0.000167066               0.005687667              -0.000791520              -0.000648307               0.002111973               0.001463665               0.000000000               0.000000000               0.000000000               0.000000000               0.000303775               0.005510296              -0.000628892              -0.000574870               0.002028370               0.001453500               0.000000000               0.000000000               0.000000000               0.000000000               0.000387181               0.005330079              -0.000442019              -0.000521066               0.001950364               0.001429298               0.000000000               0.000000000               0.000000000               0.000000000               0.000397465               0.005161498              -0.000230069              -0.000496137               0.001885861               0.001389724               0.000000000               0.000000000               0.000000000               0.000000000               0.000363436               0.005069204              -0.000112663              -0.000497361               0.001855505               0.001358144               0.000000000               0.000000000               0.000000000               0.000000000              -0.006044871              -0.000074457               0.000430343              -0.002257518               0.000727682              -0.001529836               0.000000000               0.000000000               0.000000000               0.000000000              -0.004050263               0.001140826              -0.000764194              -0.001661450               0.000934085              -0.000727365               0.000000000               0.000000000               0.000000000               0.000000000              -0.002726271               0.002363666              -0.001806647              -0.001317808               0.001227149              -0.000090659               0.000000000               0.000000000               0.000000000               0.000000000              -0.001987159               0.003399169              -0.002034200              -0.001170079               0.001523070               0.000352991               0.000000000               0.000000000               0.000000000               0.000000000              -0.001503325               0.004193808              -0.001980421              -0.001087971               0.001760578               0.000672607               0.000000000               0.000000000               0.000000000               0.000000000              -0.001147139               0.004756878              -0.001836098              -0.001024785               0.001927204               0.000902419               0.000000000               0.000000000               0.000000000               0.000000000              -0.000859983               0.005141566              -0.001671899              -0.000965188               0.002035567               0.001070379               0.000000000               0.000000000               0.000000000               0.000000000              -0.000611332               0.005394111              -0.001512091              -0.000903512               0.002099189               0.001195677               0.000000000               0.000000000               0.000000000               0.000000000              -0.000381893               0.005548611              -0.001361907              -0.000836785               0.002128446               0.001291662               0.000000000               0.000000000               0.000000000               0.000000000              -0.000164931               0.005620964              -0.001224515              -0.000764468               0.002128459               0.001363990               0.000000000               0.000000000               0.000000000               0.000000000               0.000044211               0.005635023              -0.001095618              -0.000687798               0.002107588               0.001419790               0.000000000               0.000000000               0.000000000               0.000000000               0.000253107               0.005604037              -0.000968968              -0.000605589               0.002069856               0.001464268               0.000000000               0.000000000               0.000000000               0.000000000               0.000462165               0.005528339              -0.000836997              -0.000517730               0.002015338               0.001497608               0.000000000               0.000000000               0.000000000               0.000000000               0.000663418               0.005420366              -0.000682059              -0.000428763               0.001949692               0.001520929               0.000000000               0.000000000               0.000000000               0.000000000               0.000844624               0.005292685              -0.000493811              -0.000344851               0.001879161               0.001534310               0.000000000               0.000000000               0.000000000               0.000000000               0.000991383               0.005151348              -0.000266077              -0.000272149               0.001807815               0.001535666               0.000000000               0.000000000               0.000000000               0.000000000               0.001074168               0.005083481              -0.000144662              -0.000232622               0.001772017               0.001539396               0.000000000               0.000000000               0.000000000               0.000000000              -0.007307001              -0.000445730               0.000487044              -0.002684407               0.000746221              -0.001938187               0.000000000               0.000000000               0.000000000               0.000000000              -0.004704451               0.000451345              -0.000458371              -0.001820585               0.000757305              -0.001063281               0.000000000               0.000000000               0.000000000               0.000000000              -0.002809110               0.001338808              -0.001313079              -0.001220765               0.000853185              -0.000367581               0.000000000               0.000000000               0.000000000               0.000000000              -0.001823963               0.002314224              -0.001547065              -0.000973263               0.001095820               0.000122558               0.000000000               0.000000000               0.000000000               0.000000000              -0.001237679               0.003156891              -0.001547914              -0.000858740               0.001338532               0.000479793               0.000000000               0.000000000               0.000000000               0.000000000              -0.000849623               0.003816585              -0.001460214              -0.000795681               0.001537409               0.000741728               0.000000000               0.000000000               0.000000000               0.000000000              -0.000561332               0.004314862              -0.001344577              -0.000749856               0.001688225               0.000938368               0.000000000               0.000000000               0.000000000               0.000000000              -0.000322767               0.004677523              -0.001227875              -0.000705727               0.001794401               0.001088674               0.000000000               0.000000000               0.000000000               0.000000000              -0.000104926               0.004939517              -0.001114742              -0.000656786               0.001865418               0.001208632               0.000000000               0.000000000               0.000000000               0.000000000               0.000106427               0.005119503              -0.001007603              -0.000600027               0.001906493               0.001306466               0.000000000               0.000000000               0.000000000               0.000000000               0.000318740               0.005232559              -0.000908517              -0.000534541               0.001922349               0.001387808               0.000000000               0.000000000               0.000000000               0.000000000               0.000543895               0.005292558              -0.000814821              -0.000457608               0.001916704               0.001459096               0.000000000               0.000000000               0.000000000               0.000000000               0.000783357               0.005306707              -0.000713498              -0.000369579               0.001892077               0.001522499               0.000000000               0.000000000               0.000000000               0.000000000               0.001040263               0.005282123              -0.000588966              -0.000270166               0.001850746               0.001580579               0.000000000               0.000000000               0.000000000               0.000000000               0.001318774               0.005220718              -0.000433706              -0.000158049               0.001792905               0.001634856               0.000000000               0.000000000               0.000000000               0.000000000               0.001613621               0.005121258              -0.000239070              -0.000035050               0.001718752               0.001683703               0.000000000               0.000000000               0.000000000               0.000000000               0.001830767               0.005085752              -0.000139152               0.000050818               0.001678294               0.001729112               0.000000000               0.000000000               0.000000000               0.000000000              -0.008155000              -0.000624926               0.000311684              -0.002980007               0.000785022              -0.002194985               0.000000000               0.000000000               0.000000000               0.000000000              -0.005157653               0.000032318              -0.000209631              -0.001938158               0.000656821              -0.001281337               0.000000000               0.000000000               0.000000000               0.000000000              -0.002872632               0.000668662              -0.000689911              -0.001160818               0.000609822              -0.000550996               0.000000000               0.000000000               0.000000000               0.000000000              -0.001705204               0.001579930              -0.000835422              -0.000836941               0.000805618              -0.000031324               0.000000000               0.000000000               0.000000000               0.000000000              -0.001036591               0.002435047              -0.000851353              -0.000693101               0.001042708               0.000349606               0.000000000               0.000000000               0.000000000               0.000000000              -0.000618180               0.003138963              -0.000813619              -0.000624187               0.001254372               0.000630186               0.000000000               0.000000000               0.000000000               0.000000000              -0.000322681               0.003698812              -0.000754697              -0.000583356               0.001427377               0.000844021               0.000000000               0.000000000               0.000000000               0.000000000              -0.000088874               0.004134301              -0.000692384              -0.000550114               0.001561458               0.001011344               0.000000000               0.000000000               0.000000000               0.000000000               0.000120491               0.004472129              -0.000630926              -0.000513831               0.001661972               0.001148141               0.000000000               0.000000000               0.000000000               0.000000000               0.000325123               0.004724038              -0.000571863              -0.000468583               0.001730858               0.001262275               0.000000000               0.000000000               0.000000000               0.000000000               0.000539484               0.004907447              -0.000519152              -0.000411124               0.001772840               0.001361717               0.000000000               0.000000000               0.000000000               0.000000000               0.000771049               0.005035226              -0.000469774              -0.000340259               0.001791811               0.001451552               0.000000000               0.000000000               0.000000000               0.000000000               0.001026989               0.005114939              -0.000413546              -0.000254246               0.001789711               0.001535465               0.000000000               0.000000000               0.000000000               0.000000000               0.001322148               0.005152085              -0.000345141              -0.000148205               0.001766746               0.001618541               0.000000000               0.000000000               0.000000000               0.000000000               0.001671212               0.005144836              -0.000257033              -0.000016400               0.001720395               0.001703995               0.000000000               0.000000000               0.000000000               0.000000000               0.002084033               0.005087099              -0.000141086               0.000145623               0.001647142               0.001792765               0.000000000               0.000000000               0.000000000               0.000000000               0.002412125               0.005081215              -0.000082698               0.000269392               0.001603924               0.001873316               0.000000000               0.000000000               0.000000000               0.000000000              -0.008451783              -0.000673986              -0.000000000              -0.003085168               0.000803722              -0.002281446               0.000000000               0.000000000               0.000000000               0.000000000              -0.005318813              -0.000104428              -0.000000000              -0.001981500               0.000625686              -0.001355814               0.000000000               0.000000000               0.000000000               0.000000000              -0.002897534               0.000436721               0.000000000              -0.001141164               0.000525958              -0.000615206               0.000000000               0.000000000               0.000000000               0.000000000              -0.001663416               0.001318859              -0.000000000              -0.000788637               0.000702494              -0.000086143               0.000000000               0.000000000               0.000000000               0.000000000              -0.000962402               0.002176458              -0.000000000              -0.000632957               0.000936464               0.000303508               0.000000000               0.000000000               0.000000000               0.000000000              -0.000532286               0.002890523              -0.000000000              -0.000560921               0.001150472               0.000589550               0.000000000               0.000000000               0.000000000               0.000000000              -0.000232876               0.003467146              -0.000000000              -0.000520721               0.001329277               0.000808557               0.000000000               0.000000000               0.000000000               0.000000000              -0.000000383               0.003927522              -0.000000000              -0.000491083               0.001472855               0.000981773               0.000000000               0.000000000               0.000000000               0.000000000               0.000206176               0.004294459               0.000000000              -0.000459490               0.001584636               0.001125145               0.000000000               0.000000000               0.000000000               0.000000000               0.000409728               0.004574201              -0.000000000              -0.000418126               0.001664094               0.001245968               0.000000000               0.000000000               0.000000000               0.000000000               0.000624270               0.004782540               0.000000000              -0.000363715               0.001715403               0.001351687               0.000000000               0.000000000               0.000000000               0.000000000               0.000854774               0.004935685               0.000000000              -0.000296420               0.001744018               0.001447599               0.000000000               0.000000000               0.000000000               0.000000000               0.001116666               0.005040859              -0.000000000              -0.000211357               0.001750722               0.001539365               0.000000000               0.000000000               0.000000000               0.000000000               0.001426793               0.005101024              -0.000000000              -0.000102580               0.001734518               0.001631937               0.000000000               0.000000000               0.000000000               0.000000000               0.001800801               0.005113828               0.000000000               0.000036072               0.001692568               0.001728640               0.000000000               0.000000000               0.000000000               0.000000000               0.002260976               0.005072844              -0.000000000               0.000213758               0.001619679               0.001833437               0.000000000               0.000000000               0.000000000               0.000000000               0.002636458               0.005079651              -0.000000000               0.000353712               0.001575296               0.001929008               0.000000000               0.000000000               0.000000000               0.000000000               0.000000000               0.000000000               0.000000000               0.000000000               0.000000000               0.000000000               0.000000000               0.000000000               0.000000000               0.000000000               0.000000000               0.000000000               0.000000000               0.000000000               0.000000000               0.000000000               0.000000000               0.000000000               0.000000000               0.000000000               0.000000000               0.000000000               0.000000000               0.000000000               0.000000000               0.000000000               0.000000000               0.000000000               0.000000000               0.000000000               0.000000000               0.000000000               0.000000000               0.000000000               0.000000000               0.000000000               0.000000000               0.000000000               0.000000000               0.000000000               0.000000000               0.000000000               0.000000000               0.000000000               0.000000000               0.000000000               0.000000000               0.000000000               0.000000000               0.000000000               0.000000000               0.000000000               0.000000000               0.000000000               0.000000000               0.000000000               0.000000000               0.000000000               0.000000000               0.000000000               0.000000000               0.000000000               0.000000000               0.000000000               0.000000000               0.000000000               0.000000000               0.000000000               0.000000000               0.000000000               0.000000000               0.000000000               0.000000000               0.000000000               0.000000000               0.000000000               0.000000000               0.000000000               0.000000000               0.000000000               0.000000000               0.000000000               0.000000000               0.000000000               0.000000000               0.000000000               0.000000000               0.000000000               0.000000000               0.000000000               0.000000000               0.000000000               0.000000000               0.000000000               0.000000000               0.000000000               0.000000000               0.000000000               0.000000000               0.000000000               0.000000000               0.000000000               0.000000000               0.000000000               0.000000000               0.000000000               0.000000000               0.000000000               0.000000000               0.000000000               0.000000000               0.000000000               0.000000000               0.000000000               0.000000000               0.000000000               0.000000000               0.000000000               0.000000000               0.000000000               0.000000000               0.000000000               0.000000000               0.000000000               0.000000000               0.000000000               0.000000000               0.000000000               0.000000000               0.000000000               0.000000000               0.000000000               0.000000000               0.000000000               0.000000000               0.000000000               0.000000000               0.000000000               0.000000000               0.000000000               0.000000000               0.000000000               0.000000000               0.000000000               0.000000000               0.000000000               0.000000000               0.000000000               0.000000000               0.000000000               0.000000000               0.000000000               0.000000000               0.000000000               0.000000000               0.000000000               0.000000000               0.000000000               0.000000000               0.000000000               0.000000000               0.000000000               0.000000000               0.000000000               0.000000000               0.000000000               0.000000000               0.000000000               0.000000000               0.000000000               0.001993954               0.020635509               0.001455702              -0.001831702               0.007489001               0.005657300               0.000000000               0.000000000               0.000000000               0.000000000               0.001897550               0.016335311               0.000752106              -0.001330329               0.005888492               0.004558163               0.000000000               0.000000000               0.000000000               0.000000000               0.002407378               0.012903289               0.000052849              -0.000710143               0.004537768               0.003827625               0.000000000               0.000000000               0.000000000               0.000000000               0.002283226               0.010978198              -0.000239009              -0.000516064               0.003831384               0.003315320               0.000000000               0.000000000               0.000000000               0.000000000               0.001984223               0.009773908              -0.000358272              -0.000477654               0.003417155               0.002939501               0.000000000               0.000000000               0.000000000               0.000000000               0.001658334               0.008952658              -0.000403041              -0.000497206               0.003149925               0.002652719               0.000000000               0.000000000               0.000000000               0.000000000               0.001350392               0.008345706              -0.000412047              -0.000536815               0.002960813               0.002423997               0.000000000               0.000000000               0.000000000               0.000000000               0.001075317               0.007861362              -0.000402964              -0.000579425               0.002813570               0.002234144               0.000000000               0.000000000               0.000000000               0.000000000               0.000838990               0.007451766              -0.000387324              -0.000616848               0.002689513               0.002072665               0.000000000               0.000000000               0.000000000               0.000000000               0.000640152               0.007083195              -0.000368577              -0.000645341               0.002576155               0.001930814               0.000000000               0.000000000               0.000000000               0.000000000               0.000474728               0.006736115              -0.000345815              -0.000663990               0.002466679               0.001802689               0.000000000               0.000000000               0.000000000               0.000000000               0.000340849               0.006393548              -0.000319211              -0.000671374               0.002354953               0.001683579               0.000000000               0.000000000               0.000000000               0.000000000               0.000233114               0.006043690              -0.000291943              -0.000668042               0.002237224               0.001569182               0.000000000               0.000000000               0.000000000               0.000000000               0.000142678               0.005679837              -0.000259545              -0.000656474               0.002112085               0.001455611               0.000000000               0.000000000               0.000000000               0.000000000               0.000067750               0.005289944              -0.000205692              -0.000635835               0.001975242               0.001339407               0.000000000               0.000000000               0.000000000               0.000000000               0.000020643               0.004860422              -0.000118344              -0.000599810               0.001820061               0.001220251               0.000000000               0.000000000               0.000000000               0.000000000              -0.000026253               0.004540746              -0.000071974              -0.000577437               0.001706046               0.001128609               0.000000000               0.000000000               0.000000000               0.000000000               0.002176589               0.019417463               0.002709157              -0.001610959               0.007009409               0.005398450               0.000000000               0.000000000               0.000000000               0.000000000               0.001798385               0.015547744               0.001402118              -0.001269071               0.005605553               0.004336482               0.000000000               0.000000000               0.000000000               0.000000000               0.002004940               0.012556748               0.000112134              -0.000817739               0.004458121               0.003640381               0.000000000               0.000000000               0.000000000               0.000000000               0.001772289               0.010860237              -0.000410307              -0.000692920               0.003851016               0.003158096               0.000000000               0.000000000               0.000000000               0.000000000               0.001456060               0.009774406              -0.000616956              -0.000675777               0.003483362               0.002807585               0.000000000               0.000000000               0.000000000               0.000000000               0.001158680               0.009010640              -0.000690031              -0.000691824               0.003234125               0.002542301               0.000000000               0.000000000               0.000000000               0.000000000               0.000899566               0.008426380              -0.000701907              -0.000715959               0.003047418               0.002331459               0.000000000               0.000000000               0.000000000               0.000000000               0.000678903               0.007951040              -0.000686027              -0.000739290               0.002896750               0.002157460               0.000000000               0.000000000               0.000000000               0.000000000               0.000495486               0.007542713              -0.000655806              -0.000757030               0.002766556               0.002009526               0.000000000               0.000000000               0.000000000               0.000000000               0.000347479               0.007171888              -0.000618242              -0.000766180               0.002645998               0.001879819               0.000000000               0.000000000               0.000000000               0.000000000               0.000233866               0.006822968              -0.000577179              -0.000765170               0.002529356               0.001764187               0.000000000               0.000000000               0.000000000               0.000000000               0.000149327               0.006490577              -0.000528648              -0.000755323               0.002415278               0.001659956               0.000000000               0.000000000               0.000000000               0.000000000               0.000087086               0.006169664              -0.000476080              -0.000738549               0.002302717               0.001564168               0.000000000               0.000000000               0.000000000               0.000000000               0.000045036               0.005853448              -0.000411947              -0.000714791               0.002189393               0.001474602               0.000000000               0.000000000               0.000000000               0.000000000               0.000017325               0.005536249              -0.000316652              -0.000685533               0.002073909               0.001388376               0.000000000               0.000000000               0.000000000               0.000000000               0.000002932               0.005226328              -0.000177549              -0.000652190               0.001959489               0.001307299               0.000000000               0.000000000               0.000000000               0.000000000              -0.000018843               0.005022945              -0.000102772              -0.000634933               0.001885942               0.001251010               0.000000000               0.000000000               0.000000000               0.000000000               0.002375741               0.017569442               0.003614681              -0.001305276               0.006291514               0.004986237               0.000000000               0.000000000               0.000000000               0.000000000               0.001601750               0.014368037               0.001882123              -0.001195346               0.005187746               0.003992400               0.000000000               0.000000000               0.000000000               0.000000000               0.001387866               0.012044863               0.000191684              -0.000985156               0.004343299               0.003358144               0.000000000               0.000000000               0.000000000               0.000000000               0.001030721               0.010667774              -0.000462784              -0.000946949               0.003871539               0.002924590               0.000000000               0.000000000               0.000000000               0.000000000               0.000716273               0.009740404              -0.000709557              -0.000948946               0.003563084               0.002614138               0.000000000               0.000000000               0.000000000               0.000000000               0.000472509               0.009050635              -0.000790038              -0.000954136               0.003334894               0.002380757               0.000000000               0.000000000               0.000000000               0.000000000               0.000290073               0.008498036              -0.000797719              -0.000953475               0.003150475               0.002197000               0.000000000               0.000000000               0.000000000               0.000000000               0.000151886               0.008034469              -0.000773206              -0.000947349               0.002993913               0.002046563               0.000000000               0.000000000               0.000000000               0.000000000               0.000049067               0.007625477              -0.000732942              -0.000934783               0.002853394               0.001918612               0.000000000               0.000000000               0.000000000               0.000000000              -0.000015520               0.007256797              -0.000682787              -0.000912918               0.002723214               0.001810297               0.000000000               0.000000000               0.000000000               0.000000000              -0.000050364               0.006917690              -0.000628540              -0.000883596               0.002600405               0.001716810               0.000000000               0.000000000               0.000000000               0.000000000              -0.000066630               0.006607633              -0.000569815              -0.000850938               0.002486168               0.001635230               0.000000000               0.000000000               0.000000000               0.000000000              -0.000067975               0.006327015              -0.000504217              -0.000816366               0.002381106               0.001564740               0.000000000               0.000000000               0.000000000               0.000000000              -0.000059143               0.006072148              -0.000420672              -0.000781195               0.002284427               0.001503232               0.000000000               0.000000000               0.000000000               0.000000000              -0.000042778               0.005846034              -0.000308112              -0.000746794               0.002197590               0.001450796               0.000000000               0.000000000               0.000000000               0.000000000              -0.000023364               0.005662813              -0.000165491              -0.000716611               0.002126456               0.001409845               0.000000000               0.000000000               0.000000000               0.000000000              -0.000019461               0.005568640              -0.000089955              -0.000703376               0.002090653               0.001387277               0.000000000               0.000000000               0.000000000               0.000000000               0.002468730               0.015314703               0.004092444              -0.000988565               0.005434371               0.004445806               0.000000000               0.000000000               0.000000000               0.000000000               0.001279757               0.012951638               0.002165289              -0.001139045               0.004696851               0.003557806               0.000000000               0.000000000               0.000000000               0.000000000               0.000628685               0.011423721               0.000310244              -0.001192205               0.004205271               0.003013065               0.000000000               0.000000000               0.000000000               0.000000000               0.000188104               0.010395911              -0.000371731              -0.001228947               0.003874918               0.002645971               0.000000000               0.000000000               0.000000000               0.000000000              -0.000080069               0.009632446              -0.000615923              -0.001234079               0.003622143               0.002388064               0.000000000               0.000000000               0.000000000               0.000000000              -0.000239234               0.009021831              -0.000686464              -0.001217439               0.003413060               0.002195621               0.000000000               0.000000000               0.000000000               0.000000000              -0.000325039               0.008506357              -0.000689501              -0.001185181               0.003230485               0.002045303               0.000000000               0.000000000               0.000000000               0.000000000              -0.000359311               0.008058383              -0.000665261              -0.001142037               0.003066780               0.001924743               0.000000000               0.000000000               0.000000000               0.000000000              -0.000358581               0.007660015              -0.000624268              -0.001091967               0.002917302               0.001825335               0.000000000               0.000000000               0.000000000               0.000000000              -0.000334774               0.007303003              -0.000573210              -0.001038413               0.002780448               0.001742035               0.000000000               0.000000000               0.000000000               0.000000000              -0.000294000               0.006985855              -0.000516081              -0.000983479               0.002656422               0.001672942               0.000000000               0.000000000               0.000000000               0.000000000              -0.000242784               0.006701653              -0.000455815              -0.000928748               0.002543445               0.001614696               0.000000000               0.000000000               0.000000000               0.000000000              -0.000185024               0.006450814              -0.000392406              -0.000875734               0.002442161               0.001566427               0.000000000               0.000000000               0.000000000               0.000000000              -0.000128765               0.006239259              -0.000316246              -0.000828192               0.002355796               0.001527604               0.000000000               0.000000000               0.000000000               0.000000000              -0.000080359               0.006073816              -0.000219136              -0.000789360               0.002287705               0.001498345               0.000000000               0.000000000               0.000000000               0.000000000              -0.000037742               0.005962900              -0.000110641              -0.000759514               0.002240785               0.001481271               0.000000000               0.000000000               0.000000000               0.000000000              -0.000021290               0.005915350              -0.000058474              -0.000747401               0.002220897               0.001473497               0.000000000               0.000000000               0.000000000               0.000000000               0.002347880               0.012875061               0.004151889              -0.000728930               0.004534620               0.003805690               0.000000000               0.000000000               0.000000000               0.000000000               0.000829813               0.011443367               0.002280134              -0.001119240               0.004187497               0.003068257               0.000000000               0.000000000               0.000000000               0.000000000              -0.000178417               0.010737327               0.000491611              -0.001409069               0.004048763               0.002639694               0.000000000               0.000000000               0.000000000               0.000000000              -0.000622606               0.010040663              -0.000137008              -0.001488556               0.003843040               0.002354483               0.000000000               0.000000000               0.000000000               0.000000000              -0.000795027               0.009427848              -0.000355574              -0.001476612               0.003634789               0.002158176               0.000000000               0.000000000               0.000000000               0.000000000              -0.000834394               0.008891277              -0.000421051              -0.001424304               0.003438497               0.002014194               0.000000000               0.000000000               0.000000000               0.000000000              -0.000802764               0.008417615              -0.000430166              -0.001353235               0.003256922               0.001903687               0.000000000               0.000000000               0.000000000               0.000000000              -0.000734112               0.007995446              -0.000416757              -0.001274720               0.003090028               0.001815309               0.000000000               0.000000000               0.000000000               0.000000000              -0.000642435               0.007619313              -0.000388502              -0.001193324               0.002937520               0.001744196               0.000000000               0.000000000               0.000000000               0.000000000              -0.000541888               0.007279204              -0.000351746              -0.001113106               0.002797412               0.001684307               0.000000000               0.000000000               0.000000000               0.000000000              -0.000441335               0.006970905              -0.000309681              -0.001036861               0.002669232               0.001632371               0.000000000               0.000000000               0.000000000               0.000000000              -0.000341303               0.006694110              -0.000265052              -0.000964750               0.002552931               0.001588181               0.000000000               0.000000000               0.000000000               0.000000000              -0.000247139               0.006455098              -0.000223031              -0.000899562               0.002451532               0.001551970               0.000000000               0.000000000               0.000000000               0.000000000              -0.000168223               0.006257860              -0.000176321              -0.000845314               0.002367704               0.001522390               0.000000000               0.000000000               0.000000000               0.000000000              -0.000103675               0.006106783              -0.000119095              -0.000802224               0.002302982               0.001500758               0.000000000               0.000000000               0.000000000               0.000000000              -0.000047859               0.006000035              -0.000057447              -0.000767950               0.002255975               0.001488025               0.000000000               0.000000000               0.000000000               0.000000000              -0.000033921               0.005938803              -0.000033298              -0.000755069               0.002231271               0.001476202               0.000000000               0.000000000               0.000000000               0.000000000               0.001956493               0.010448918               0.003865566              -0.000572432               0.003673748               0.003101315               0.000000000               0.000000000               0.000000000               0.000000000               0.000283053               0.009960871               0.002274978              -0.001138963               0.003699911               0.002560948               0.000000000               0.000000000               0.000000000               0.000000000              -0.000936673               0.010018619               0.000743751              -0.001603576               0.003874032               0.002270456               0.000000000               0.000000000               0.000000000               0.000000000              -0.001295662               0.009606101               0.000209695              -0.001686632               0.003764212               0.002077580               0.000000000               0.000000000               0.000000000               0.000000000              -0.001329229               0.009123257               0.000007683              -0.001638864               0.003587343               0.001948480               0.000000000               0.000000000               0.000000000               0.000000000              -0.001234707               0.008658151              -0.000070281              -0.001545280               0.003401115               0.001855835               0.000000000               0.000000000               0.000000000               0.000000000              -0.001092328               0.008232877              -0.000100668              -0.001438729               0.003223841               0.001785112               0.000000000               0.000000000               0.000000000               0.000000000              -0.000930413               0.007845924              -0.000112458              -0.001329642               0.003058496               0.001728854               0.000000000               0.000000000               0.000000000               0.000000000              -0.000765714               0.007482276              -0.000110644              -0.001222424               0.002901542               0.001679118               0.000000000               0.000000000               0.000000000               0.000000000              -0.000615647               0.007137811              -0.000098251              -0.001123091               0.002753610               0.001630519               0.000000000               0.000000000               0.000000000               0.000000000              -0.000483213               0.006816556              -0.000083017              -0.001033272               0.002616587               0.001583315               0.000000000               0.000000000               0.000000000               0.000000000              -0.000363647               0.006532178              -0.000070044              -0.000952888               0.002495000               0.001542113               0.000000000               0.000000000               0.000000000               0.000000000              -0.000261024               0.006293156              -0.000064634              -0.000884526               0.002392540               0.001508013               0.000000000               0.000000000               0.000000000               0.000000000              -0.000179523               0.006097718              -0.000060228              -0.000829534               0.002309063               0.001479530               0.000000000               0.000000000               0.000000000               0.000000000              -0.000112651               0.005941240              -0.000048591              -0.000784897               0.002242026               0.001457129               0.000000000               0.000000000               0.000000000               0.000000000              -0.000052701               0.005812594              -0.000027726              -0.000746335               0.002186290               0.001439955               0.000000000               0.000000000               0.000000000               0.000000000              -0.000042443               0.005728632              -0.000025019              -0.000731993               0.002153523               0.001421529               0.000000000               0.000000000               0.000000000               0.000000000               0.001322391               0.008191407               0.003320508              -0.000528031               0.002906451               0.002378420               0.000000000               0.000000000               0.000000000               0.000000000              -0.000326357               0.008591519               0.002191143              -0.001196322               0.003262584               0.002066262               0.000000000               0.000000000               0.000000000               0.000000000              -0.001570476               0.009284468               0.001056726              -0.001749483               0.003677953               0.001928470               0.000000000               0.000000000               0.000000000               0.000000000              -0.001769488               0.009104012               0.000611554              -0.001801555               0.003635159               0.001833603               0.000000000               0.000000000               0.000000000               0.000000000              -0.001648446               0.008738137               0.000399083              -0.001710430               0.003482827               0.001772396               0.000000000               0.000000000               0.000000000               0.000000000              -0.001428331               0.008352620               0.000288675              -0.001579698               0.003310745               0.001731047               0.000000000               0.000000000               0.000000000               0.000000000              -0.001189448               0.007978790               0.000222491              -0.001443388               0.003140700               0.001697311               0.000000000               0.000000000               0.000000000               0.000000000              -0.000965053               0.007605804               0.000179837              -0.001312617               0.002972782               0.001660165               0.000000000               0.000000000               0.000000000               0.000000000              -0.000766884               0.007231608               0.000153423              -0.001191529               0.002807688               0.001616159               0.000000000               0.000000000               0.000000000               0.000000000              -0.000592886               0.006870488               0.000132958              -0.001081140               0.002650520               0.001569379               0.000000000               0.000000000               0.000000000               0.000000000              -0.000446389               0.006538723               0.000108419              -0.000984734               0.002507797               0.001523063               0.000000000               0.000000000               0.000000000               0.000000000              -0.000326926               0.006252898               0.000075206              -0.000904207               0.002385681               0.001481474               0.000000000               0.000000000               0.000000000               0.000000000              -0.000233632               0.006015725               0.000033817              -0.000839575               0.002285080               0.001445505               0.000000000               0.000000000               0.000000000               0.000000000              -0.000161026               0.005819112              -0.000004256              -0.000787772               0.002202275               0.001414503               0.000000000               0.000000000               0.000000000               0.000000000              -0.000100755               0.005654310              -0.000025325              -0.000744570               0.002132941               0.001388371               0.000000000               0.000000000               0.000000000               0.000000000              -0.000049812               0.005517572              -0.000023874              -0.000708374               0.002075297               0.001366923               0.000000000               0.000000000               0.000000000               0.000000000              -0.000039054               0.005435603              -0.000025543              -0.000694094               0.002043214               0.001349120               0.000000000               0.000000000               0.000000000               0.000000000               0.000551357               0.006273306               0.002623451              -0.000577405               0.002283548               0.001706143               0.000000000               0.000000000               0.000000000               0.000000000              -0.000908541               0.007365429               0.002075630              -0.001261379               0.002875578               0.001614198               0.000000000               0.000000000               0.000000000               0.000000000              -0.002039711               0.008570326               0.001419464              -0.001836178               0.003468806               0.001632628               0.000000000               0.000000000               0.000000000               0.000000000              -0.002071258               0.008629307               0.001032911              -0.001855381               0.003494867               0.001639486               0.000000000               0.000000000               0.000000000               0.000000000              -0.001824720               0.008402872               0.000789490              -0.001734625               0.003379137               0.001644513               0.000000000               0.000000000               0.000000000               0.000000000              -0.001510974               0.008103176               0.000631083              -0.001579509               0.003227534               0.001648026               0.000000000               0.000000000               0.000000000               0.000000000              -0.001210038               0.007764506               0.000525482              -0.001424324               0.003062918               0.001638593               0.000000000               0.000000000               0.000000000               0.000000000              -0.000940856               0.007402018               0.000451544              -0.001278070               0.002893338               0.001615268               0.000000000               0.000000000               0.000000000               0.000000000              -0.000712227               0.007027976               0.000393592              -0.001145579               0.002724495               0.001578916               0.000000000               0.000000000               0.000000000               0.000000000              -0.000519261               0.006664483               0.000337359              -0.001027780               0.002564065               0.001536285               0.000000000               0.000000000               0.000000000               0.000000000              -0.000364156               0.006335555               0.000269951              -0.000928501               0.002421331               0.001492830               0.000000000               0.000000000               0.000000000               0.000000000              -0.000254875               0.006052945               0.000192462              -0.000852194               0.002301693               0.001449499               0.000000000               0.000000000               0.000000000               0.000000000              -0.000186696               0.005812638               0.000113943              -0.000796589               0.002203056               0.001406467               0.000000000               0.000000000               0.000000000               0.000000000              -0.000144995               0.005602081               0.000045489              -0.000754631               0.002118885               0.001364254               0.000000000               0.000000000               0.000000000               0.000000000              -0.000114713               0.005418626              -0.000001723              -0.000720344               0.002046305               0.001325962               0.000000000               0.000000000               0.000000000               0.000000000              -0.000098471               0.005261412              -0.000021435              -0.000694601               0.001985320               0.001290719               0.000000000               0.000000000               0.000000000               0.000000000              -0.000090131               0.005184662              -0.000024137              -0.000681880               0.001955497               0.001273617               0.000000000               0.000000000               0.000000000               0.000000000              -0.000377399               0.004490536               0.001879712              -0.000702841               0.001731110               0.001028269               0.000000000               0.000000000               0.000000000               0.000000000              -0.001380702               0.005961590               0.001940766              -0.001262960               0.002408163               0.001145203               0.000000000               0.000000000               0.000000000               0.000000000              -0.002283076               0.007531425               0.001802933              -0.001797578               0.003109642               0.001312064               0.000000000               0.000000000               0.000000000               0.000000000              -0.002233102               0.007920873               0.001488342              -0.001827518               0.003249437               0.001421919               0.000000000               0.000000000               0.000000000               0.000000000              -0.001940235               0.007928588               0.001217951              -0.001718658               0.003215722               0.001497064               0.000000000               0.000000000               0.000000000               0.000000000              -0.001598175               0.007782042               0.001010176              -0.001572067               0.003118010               0.001545943               0.000000000               0.000000000               0.000000000               0.000000000              -0.001274096               0.007544688               0.000856349              -0.001420869               0.002988494               0.001567625               0.000000000               0.000000000               0.000000000               0.000000000              -0.000986541               0.007258137               0.000739593              -0.001277217               0.002845093               0.001567877               0.000000000               0.000000000               0.000000000               0.000000000              -0.000743792               0.006936715               0.000644240              -0.001146008               0.002694218               0.001548210               0.000000000               0.000000000               0.000000000               0.000000000              -0.000544088               0.006605554               0.000553356              -0.001029725               0.002545071               0.001515346               0.000000000               0.000000000               0.000000000               0.000000000              -0.000385978               0.006284198               0.000452506              -0.000930264               0.002404800               0.001474536               0.000000000               0.000000000               0.000000000               0.000000000              -0.000272790               0.005993620               0.000344319              -0.000851497               0.002281685               0.001430189               0.000000000               0.000000000               0.000000000               0.000000000              -0.000205698               0.005738073               0.000237799              -0.000794394               0.002177470               0.001383076               0.000000000               0.000000000               0.000000000               0.000000000              -0.000177545               0.005520024               0.000141878              -0.000756580               0.002092183               0.001335603               0.000000000               0.000000000               0.000000000               0.000000000              -0.000174095               0.005331616               0.000060834              -0.000731736               0.002021099               0.001289364               0.000000000               0.000000000               0.000000000               0.000000000              -0.000189803               0.005158352               0.000006741              -0.000715969               0.001958090               0.001242121               0.000000000               0.000000000               0.000000000               0.000000000              -0.000198243               0.005076594              -0.000009674              -0.000708914               0.001928485               0.001219572               0.000000000               0.000000000               0.000000000               0.000000000              -0.001595054               0.002878730               0.001133772              -0.000957985               0.001278895               0.000320910               0.000000000               0.000000000               0.000000000               0.000000000              -0.001920318               0.004562755               0.001739539              -0.001290461               0.001951056               0.000660595               0.000000000               0.000000000               0.000000000               0.000000000              -0.002438555               0.006334178               0.002099180              -0.001706227               0.002680113               0.000973886               0.000000000               0.000000000               0.000000000               0.000000000              -0.002316654               0.007032576               0.001914483              -0.001747814               0.002926772               0.001178959               0.000000000               0.000000000               0.000000000               0.000000000              -0.002006911               0.007296894               0.001652180              -0.001664700               0.002987173               0.001322473               0.000000000               0.000000000               0.000000000               0.000000000              -0.001663414               0.007335147               0.001414403              -0.001540670               0.002958581               0.001417911               0.000000000               0.000000000               0.000000000               0.000000000              -0.001337318               0.007240504               0.001221870              -0.001406554               0.002882328               0.001475774               0.000000000               0.000000000               0.000000000               0.000000000              -0.001041724               0.007068014               0.001064578              -0.001274145               0.002780696               0.001506551               0.000000000               0.000000000               0.000000000               0.000000000              -0.000784675               0.006840848               0.000930836              -0.001149356               0.002663379               0.001514022               0.000000000               0.000000000               0.000000000               0.000000000              -0.000569016               0.006579911               0.000808985              -0.001035868               0.002538571               0.001502703               0.000000000               0.000000000               0.000000000               0.000000000              -0.000392421               0.006296040               0.000686809              -0.000934161               0.002410046               0.001475885               0.000000000               0.000000000               0.000000000               0.000000000              -0.000254270               0.006015654               0.000561651              -0.000847306               0.002287633               0.001440327               0.000000000               0.000000000               0.000000000               0.000000000              -0.000162393               0.005756937               0.000432512              -0.000780512               0.002179131               0.001398618               0.000000000               0.000000000               0.000000000               0.000000000              -0.000123700               0.005531348               0.000304597              -0.000737804               0.002089699               0.001351895               0.000000000               0.000000000               0.000000000               0.000000000              -0.000141986               0.005328859               0.000181536              -0.000719350               0.002016052               0.001296702               0.000000000               0.000000000               0.000000000               0.000000000              -0.000203336               0.005152440               0.000075562              -0.000720304               0.001957564               0.001237260               0.000000000               0.000000000               0.000000000               0.000000000              -0.000258790               0.005062069               0.000022856              -0.000729803               0.001930607               0.001200804               0.000000000               0.000000000               0.000000000               0.000000000              -0.003019561               0.001553648               0.000441010              -0.001326539               0.000960056              -0.000366483               0.000000000               0.000000000               0.000000000               0.000000000              -0.002575554               0.003249964               0.001450622              -0.001372075               0.001540668               0.000168593               0.000000000               0.000000000               0.000000000               0.000000000              -0.002548751               0.004997959               0.002210836              -0.001580523               0.002192810               0.000612286               0.000000000               0.000000000               0.000000000               0.000000000              -0.002282147               0.005915118               0.002190482              -0.001595192               0.002503416               0.000908224               0.000000000               0.000000000               0.000000000               0.000000000              -0.001945925               0.006411777               0.001981740              -0.001531191               0.002647634               0.001116443               0.000000000               0.000000000               0.000000000               0.000000000              -0.001607462               0.006647673               0.001748081              -0.001433754               0.002693787               0.001260032               0.000000000               0.000000000               0.000000000               0.000000000              -0.001293044               0.006719758               0.001538742              -0.001324859               0.002681516               0.001356658               0.000000000               0.000000000               0.000000000               0.000000000              -0.001008415               0.006682704               0.001358896              -0.001213491               0.002632042               0.001418551               0.000000000               0.000000000               0.000000000               0.000000000              -0.000753623               0.006572375               0.001199076              -0.001104153               0.002558821               0.001454667               0.000000000               0.000000000               0.000000000               0.000000000              -0.000529324               0.006412583               0.001052934              -0.001000067               0.002470862               0.001470794               0.000000000               0.000000000               0.000000000               0.000000000              -0.000333956               0.006209604               0.000914354              -0.000901432               0.002370325               0.001468892               0.000000000               0.000000000               0.000000000               0.000000000              -0.000168422               0.005982862               0.000777243              -0.000811014               0.002264605               0.001453591               0.000000000               0.000000000               0.000000000               0.000000000              -0.000041264               0.005754856               0.000634061              -0.000734829               0.002163209               0.001428380               0.000000000               0.000000000               0.000000000               0.000000000               0.000035742               0.005538727               0.000481611              -0.000678936               0.002072536               0.001393600               0.000000000               0.000000000               0.000000000               0.000000000               0.000043820               0.005333675               0.000320255              -0.000650275               0.001994632               0.001344357               0.000000000               0.000000000               0.000000000               0.000000000              -0.000022414               0.005155227               0.000157351              -0.000652807               0.001935994               0.001283187               0.000000000               0.000000000               0.000000000               0.000000000              -0.000102977               0.005056187               0.000066872              -0.000670638               0.001908925               0.001238287               0.000000000               0.000000000               0.000000000               0.000000000              -0.004554648               0.000573338              -0.000107597              -0.001779658               0.000784327              -0.000995332               0.000000000               0.000000000               0.000000000               0.000000000              -0.003307727               0.002088250               0.001109667              -0.001501426               0.001196550              -0.000304876               0.000000000               0.000000000               0.000000000               0.000000000              -0.002639048               0.003630061               0.002114334              -0.001443398               0.001691140               0.000247742               0.000000000               0.000000000               0.000000000               0.000000000              -0.002155598               0.004658381               0.002245829              -0.001390644               0.002016325               0.000625681               0.000000000               0.000000000               0.000000000               0.000000000              -0.001762660               0.005338216               0.002114802              -0.001328272               0.002222144               0.000893872               0.000000000               0.000000000               0.000000000               0.000000000              -0.001423849               0.005753977               0.001917974              -0.001253188               0.002335702               0.001082514               0.000000000               0.000000000               0.000000000               0.000000000              -0.001124669               0.005993906               0.001719630              -0.001170987               0.002388277               0.001217290               0.000000000               0.000000000               0.000000000               0.000000000              -0.000858672               0.006108193               0.001537239              -0.001085524               0.002397885               0.001312361               0.000000000               0.000000000               0.000000000               0.000000000              -0.000617918               0.006128326               0.001371493              -0.000997758               0.002375341               0.001377583               0.000000000               0.000000000               0.000000000               0.000000000              -0.000397244               0.006083324               0.001220031              -0.000909380               0.002330881               0.001421501               0.000000000               0.000000000               0.000000000               0.000000000              -0.000191625               0.005987410               0.001078234              -0.000820284               0.002269211               0.001448927               0.000000000               0.000000000               0.000000000               0.000000000              -0.000002133               0.005850625               0.000937711              -0.000732126               0.002194231               0.001462105               0.000000000               0.000000000               0.000000000               0.000000000               0.000167066               0.005687667               0.000791520              -0.000648307               0.002111973               0.001463665               0.000000000               0.000000000               0.000000000               0.000000000               0.000303775               0.005510296               0.000628892              -0.000574870               0.002028370               0.001453500               0.000000000               0.000000000               0.000000000               0.000000000               0.000387181               0.005330079               0.000442019              -0.000521066               0.001950364               0.001429298               0.000000000               0.000000000               0.000000000               0.000000000               0.000397465               0.005161498               0.000230069              -0.000496137               0.001885861               0.001389724               0.000000000               0.000000000               0.000000000               0.000000000               0.000363436               0.005069204               0.000112663              -0.000497361               0.001855505               0.001358144               0.000000000               0.000000000               0.000000000               0.000000000              -0.006044871              -0.000074457              -0.000430343              -0.002257518               0.000727682              -0.001529836               0.000000000               0.000000000               0.000000000               0.000000000              -0.004050263               0.001140826               0.000764194              -0.001661450               0.000934085              -0.000727365               0.000000000               0.000000000               0.000000000               0.000000000              -0.002726271               0.002363666               0.001806647              -0.001317808               0.001227149              -0.000090659               0.000000000               0.000000000               0.000000000               0.000000000              -0.001987159               0.003399169               0.002034200              -0.001170079               0.001523070               0.000352991               0.000000000               0.000000000               0.000000000               0.000000000              -0.001503325               0.004193808               0.001980421              -0.001087971               0.001760578               0.000672607               0.000000000               0.000000000               0.000000000               0.000000000              -0.001147139               0.004756878               0.001836098              -0.001024785               0.001927204               0.000902419               0.000000000               0.000000000               0.000000000               0.000000000              -0.000859983               0.005141566               0.001671899              -0.000965188               0.002035567               0.001070379               0.000000000               0.000000000               0.000000000               0.000000000              -0.000611332               0.005394111               0.001512091              -0.000903512               0.002099189               0.001195677               0.000000000               0.000000000               0.000000000               0.000000000              -0.000381893               0.005548611               0.001361907              -0.000836785               0.002128446               0.001291662               0.000000000               0.000000000               0.000000000               0.000000000              -0.000164931               0.005620964               0.001224515              -0.000764468               0.002128459               0.001363990               0.000000000               0.000000000               0.000000000               0.000000000               0.000044211               0.005635023               0.001095618              -0.000687798               0.002107588               0.001419790               0.000000000               0.000000000               0.000000000               0.000000000               0.000253107               0.005604037               0.000968968              -0.000605589               0.002069856               0.001464268               0.000000000               0.000000000               0.000000000               0.000000000               0.000462165               0.005528339               0.000836997              -0.000517730               0.002015338               0.001497608               0.000000000               0.000000000               0.000000000               0.000000000               0.000663418               0.005420366               0.000682059              -0.000428763               0.001949692               0.001520929               0.000000000               0.000000000               0.000000000               0.000000000               0.000844624               0.005292685               0.000493811              -0.000344851               0.001879161               0.001534310               0.000000000               0.000000000               0.000000000               0.000000000               0.000991383               0.005151348               0.000266077              -0.000272149               0.001807815               0.001535666               0.000000000               0.000000000               0.000000000               0.000000000               0.001074168               0.005083481               0.000144662              -0.000232622               0.001772017               0.001539396               0.000000000               0.000000000               0.000000000               0.000000000              -0.007307001              -0.000445730              -0.000487044              -0.002684407               0.000746221              -0.001938187               0.000000000               0.000000000               0.000000000               0.000000000              -0.004704451               0.000451345               0.000458371              -0.001820585               0.000757305              -0.001063281               0.000000000               0.000000000               0.000000000               0.000000000              -0.002809110               0.001338808               0.001313079              -0.001220765               0.000853185              -0.000367581               0.000000000               0.000000000               0.000000000               0.000000000              -0.001823963               0.002314224               0.001547065              -0.000973263               0.001095820               0.000122558               0.000000000               0.000000000               0.000000000               0.000000000              -0.001237679               0.003156891               0.001547914              -0.000858740               0.001338532               0.000479793               0.000000000               0.000000000               0.000000000               0.000000000              -0.000849623               0.003816585               0.001460214              -0.000795681               0.001537409               0.000741728               0.000000000               0.000000000               0.000000000               0.000000000              -0.000561332               0.004314862               0.001344577              -0.000749856               0.001688225               0.000938368               0.000000000               0.000000000               0.000000000               0.000000000              -0.000322767               0.004677523               0.001227875              -0.000705727               0.001794401               0.001088674               0.000000000               0.000000000               0.000000000               0.000000000              -0.000104926               0.004939517               0.001114742              -0.000656786               0.001865418               0.001208632               0.000000000               0.000000000               0.000000000               0.000000000               0.000106427               0.005119503               0.001007603              -0.000600027               0.001906493               0.001306466               0.000000000               0.000000000               0.000000000               0.000000000               0.000318740               0.005232559               0.000908517              -0.000534541               0.001922349               0.001387808               0.000000000               0.000000000               0.000000000               0.000000000               0.000543895               0.005292558               0.000814821              -0.000457608               0.001916704               0.001459096               0.000000000               0.000000000               0.000000000               0.000000000               0.000783357               0.005306707               0.000713498              -0.000369579               0.001892077               0.001522499               0.000000000               0.000000000               0.000000000               0.000000000               0.001040263               0.005282123               0.000588966              -0.000270166               0.001850746               0.001580579               0.000000000               0.000000000               0.000000000               0.000000000               0.001318774               0.005220718               0.000433706              -0.000158049               0.001792905               0.001634856               0.000000000               0.000000000               0.000000000               0.000000000               0.001613621               0.005121258               0.000239070              -0.000035050               0.001718752               0.001683703               0.000000000               0.000000000               0.000000000               0.000000000               0.001830767               0.005085752               0.000139152               0.000050818               0.001678294               0.001729112               0.000000000               0.000000000               0.000000000               0.000000000              -0.008155000              -0.000624926              -0.000311684              -0.002980007               0.000785022              -0.002194985               0.000000000               0.000000000               0.000000000               0.000000000              -0.005157653               0.000032318               0.000209631              -0.001938158               0.000656821              -0.001281337               0.000000000               0.000000000               0.000000000               0.000000000              -0.002872632               0.000668662               0.000689911              -0.001160818               0.000609822              -0.000550996               0.000000000               0.000000000               0.000000000               0.000000000              -0.001705204               0.001579930               0.000835422              -0.000836941               0.000805618              -0.000031324               0.000000000               0.000000000               0.000000000               0.000000000              -0.001036591               0.002435047               0.000851353              -0.000693101               0.001042708               0.000349606               0.000000000               0.000000000               0.000000000               0.000000000              -0.000618180               0.003138963               0.000813619              -0.000624187               0.001254372               0.000630186               0.000000000               0.000000000               0.000000000               0.000000000              -0.000322681               0.003698812               0.000754697              -0.000583356               0.001427377               0.000844021               0.000000000               0.000000000               0.000000000               0.000000000              -0.000088874               0.004134301               0.000692384              -0.000550114               0.001561458               0.001011344               0.000000000               0.000000000               0.000000000               0.000000000               0.000120491               0.004472129               0.000630926              -0.000513831               0.001661972               0.001148141               0.000000000               0.000000000               0.000000000               0.000000000               0.000325123               0.004724038               0.000571863              -0.000468583               0.001730858               0.001262275               0.000000000               0.000000000               0.000000000               0.000000000               0.000539484               0.004907447               0.000519152              -0.000411124               0.001772840               0.001361717               0.000000000               0.000000000               0.000000000               0.000000000               0.000771049               0.005035226               0.000469774              -0.000340259               0.001791811               0.001451552               0.000000000               0.000000000               0.000000000               0.000000000               0.001026989               0.005114939               0.000413546              -0.000254246               0.001789711               0.001535465               0.000000000               0.000000000               0.000000000               0.000000000               0.001322148               0.005152085               0.000345141              -0.000148205               0.001766746               0.001618541               0.000000000               0.000000000               0.000000000               0.000000000               0.001671212               0.005144836               0.000257033              -0.000016400               0.001720395               0.001703995               0.000000000               0.000000000               0.000000000               0.000000000               0.002084033               0.005087099               0.000141086               0.000145623               0.001647142               0.001792765               0.000000000               0.000000000               0.000000000               0.000000000               0.002412125               0.005081215               0.000082698               0.000269392               0.001603924               0.001873316               0.000000000               0.000000000               0.000000000               0.000000000              -0.008451783              -0.000673986               0.000000000              -0.003085168               0.000803722              -0.002281446               0.000000000               0.000000000               0.000000000               0.000000000              -0.005318813              -0.000104428               0.000000000              -0.001981500               0.000625686              -0.001355814               0.000000000               0.000000000               0.000000000               0.000000000              -0.002897534               0.000436721               0.000000000              -0.001141164               0.000525958              -0.000615206               0.000000000               0.000000000               0.000000000               0.000000000              -0.001663416               0.001318859               0.000000000              -0.000788637               0.000702494              -0.000086143               0.000000000               0.000000000               0.000000000               0.000000000              -0.000962402               0.002176458              -0.000000000              -0.000632957               0.000936464               0.000303508               0.000000000               0.000000000               0.000000000               0.000000000              -0.000532286               0.002890523               0.000000000              -0.000560921               0.001150472               0.000589550               0.000000000               0.000000000               0.000000000               0.000000000              -0.000232876               0.003467146               0.000000000              -0.000520721               0.001329277               0.000808557               0.000000000               0.000000000               0.000000000               0.000000000              -0.000000383               0.003927522               0.000000000              -0.000491083               0.001472855               0.000981773               0.000000000               0.000000000               0.000000000               0.000000000               0.000206176               0.004294459               0.000000000              -0.000459490               0.001584636               0.001125145               0.000000000               0.000000000               0.000000000               0.000000000               0.000409728               0.004574201               0.000000000              -0.000418126               0.001664094               0.001245968               0.000000000               0.000000000               0.000000000               0.000000000               0.000624270               0.004782540               0.000000000              -0.000363715               0.001715403               0.001351687               0.000000000               0.000000000               0.000000000               0.000000000               0.000854774               0.004935685               0.000000000              -0.000296420               0.001744018               0.001447599               0.000000000               0.000000000               0.000000000               0.000000000               0.001116666               0.005040859               0.000000000              -0.000211357               0.001750722               0.001539365               0.000000000               0.000000000               0.000000000               0.000000000               0.001426793               0.005101024              -0.000000000              -0.000102580               0.001734518               0.001631937               0.000000000               0.000000000               0.000000000               0.000000000               0.001800801               0.005113828               0.000000000               0.000036072               0.001692568               0.001728640               0.000000000               0.000000000               0.000000000               0.000000000               0.002260976               0.005072844               0.000000000               0.000213758               0.001619679               0.001833437               0.000000000               0.000000000               0.000000000               0.000000000               0.002636458               0.005079651              -0.000000000               0.000353712               0.001575296               0.001929008               0.000000000               0.000000000               0.000000000               0.000000000               0.001920778               0.021060119              -0.000000000              -0.001912218               0.007657376               0.005745157               0.000000000               0.000000000               0.000000000               0.000000000               0.001925182               0.016611966               0.000000000              -0.001354549               0.005988783               0.004634234               0.000000000               0.000000000               0.000000000               0.000000000               0.002546932               0.013027243               0.000000000              -0.000673304               0.004566806               0.003893501               0.000000000               0.000000000               0.000000000               0.000000000               0.002467334               0.011018708               0.000000000              -0.000452087               0.003823562               0.003371474               0.000000000               0.000000000               0.000000000               0.000000000               0.002175362               0.009770695               0.000000000              -0.000405575               0.003392057               0.002986482               0.000000000               0.000000000               0.000000000               0.000000000               0.001840205               0.008925100               0.000000000              -0.000425560               0.003116857               0.002691297               0.000000000               0.000000000               0.000000000               0.000000000               0.001520732               0.008312033               0.000000000              -0.000468729               0.002926893               0.002458164               0.000000000               0.000000000               0.000000000               0.000000000               0.001228167               0.007826052               0.000000000              -0.000517693               0.002781222               0.002263529               0.000000000               0.000000000               0.000000000               0.000000000               0.000968971               0.007412764               0.000000000              -0.000563230               0.002658640               0.002095410               0.000000000               0.000000000               0.000000000               0.000000000               0.000748559               0.007042929               0.000000000              -0.000599655               0.002547505               0.001947849               0.000000000               0.000000000               0.000000000               0.000000000               0.000562924               0.006693416               0.000000000              -0.000625579               0.002439643               0.001814064               0.000000000               0.000000000               0.000000000               0.000000000               0.000411683               0.006346348               0.000000000              -0.000638911               0.002328398               0.001689488               0.000000000               0.000000000               0.000000000               0.000000000               0.000286076               0.005989422               0.000000000              -0.000641398               0.002210253               0.001568856               0.000000000               0.000000000               0.000000000               0.000000000               0.000175094               0.005612952              -0.000000000              -0.000635957               0.002082951               0.001446994               0.000000000               0.000000000               0.000000000               0.000000000               0.000081523               0.005199794              -0.000000000              -0.000619402               0.001939715               0.001320313               0.000000000               0.000000000               0.000000000               0.000000000               0.000022342               0.004722797               0.000000000              -0.000581970               0.001768240               0.001186270               0.000000000               0.000000000               0.000000000               0.000000000              -0.000034164               0.004352460               0.000000000              -0.000556868               0.001636428               0.001079560               0.000000000               0.000000000               0.000000000               0.000000000               0.001993954               0.020635509              -0.001455702              -0.001831702               0.007489001               0.005657300               0.000000000               0.000000000               0.000000000               0.000000000               0.001897550               0.016335311              -0.000752106              -0.001330329               0.005888492               0.004558163               0.000000000               0.000000000               0.000000000               0.000000000               0.002407378               0.012903289              -0.000052849              -0.000710143               0.004537768               0.003827625               0.000000000               0.000000000               0.000000000               0.000000000               0.002283226               0.010978198               0.000239009              -0.000516064               0.003831384               0.003315320               0.000000000               0.000000000               0.000000000               0.000000000               0.001984223               0.009773908               0.000358272              -0.000477654               0.003417155               0.002939501               0.000000000               0.000000000               0.000000000               0.000000000               0.001658334               0.008952658               0.000403041              -0.000497206               0.003149925               0.002652719               0.000000000               0.000000000               0.000000000               0.000000000               0.001350392               0.008345706               0.000412047              -0.000536815               0.002960813               0.002423997               0.000000000               0.000000000               0.000000000               0.000000000               0.001075317               0.007861362               0.000402964              -0.000579425               0.002813570               0.002234144               0.000000000               0.000000000               0.000000000               0.000000000               0.000838990               0.007451766               0.000387324              -0.000616848               0.002689513               0.002072665               0.000000000               0.000000000               0.000000000               0.000000000               0.000640152               0.007083195               0.000368577              -0.000645341               0.002576155               0.001930814               0.000000000               0.000000000               0.000000000               0.000000000               0.000474728               0.006736115               0.000345815              -0.000663990               0.002466679               0.001802689               0.000000000               0.000000000               0.000000000               0.000000000               0.000340849               0.006393548               0.000319211              -0.000671374               0.002354953               0.001683579               0.000000000               0.000000000               0.000000000               0.000000000               0.000233114               0.006043690               0.000291943              -0.000668042               0.002237224               0.001569182               0.000000000               0.000000000               0.000000000               0.000000000               0.000142678               0.005679837               0.000259545              -0.000656474               0.002112085               0.001455611               0.000000000               0.000000000               0.000000000               0.000000000               0.000067750               0.005289944               0.000205692              -0.000635835               0.001975242               0.001339407               0.000000000               0.000000000               0.000000000               0.000000000               0.000020643               0.004860422               0.000118344              -0.000599810               0.001820061               0.001220251               0.000000000               0.000000000               0.000000000               0.000000000              -0.000026253               0.004540746               0.000071974              -0.000577437               0.001706046               0.001128609               0.000000000               0.000000000               0.000000000               0.000000000               0.002176589               0.019417463              -0.002709157              -0.001610959               0.007009409               0.005398450               0.000000000               0.000000000               0.000000000               0.000000000               0.001798385               0.015547744              -0.001402118              -0.001269071               0.005605553               0.004336482               0.000000000               0.000000000               0.000000000               0.000000000               0.002004940               0.012556748              -0.000112134              -0.000817739               0.004458121               0.003640381               0.000000000               0.000000000               0.000000000               0.000000000               0.001772289               0.010860237               0.000410307              -0.000692920               0.003851016               0.003158096               0.000000000               0.000000000               0.000000000               0.000000000               0.001456060               0.009774406               0.000616956              -0.000675777               0.003483362               0.002807585               0.000000000               0.000000000               0.000000000               0.000000000               0.001158680               0.009010640               0.000690031              -0.000691824               0.003234125               0.002542301               0.000000000               0.000000000               0.000000000               0.000000000               0.000899566               0.008426380               0.000701907              -0.000715959               0.003047418               0.002331459               0.000000000               0.000000000               0.000000000               0.000000000               0.000678903               0.007951040               0.000686027              -0.000739290               0.002896750               0.002157460               0.000000000               0.000000000               0.000000000               0.000000000               0.000495486               0.007542713               0.000655806              -0.000757030               0.002766556               0.002009526               0.000000000               0.000000000               0.000000000               0.000000000               0.000347479               0.007171888               0.000618242              -0.000766180               0.002645998               0.001879819               0.000000000               0.000000000               0.000000000               0.000000000               0.000233866               0.006822968               0.000577179              -0.000765170               0.002529356               0.001764187               0.000000000               0.000000000               0.000000000               0.000000000               0.000149327               0.006490577               0.000528648              -0.000755323               0.002415278               0.001659956               0.000000000               0.000000000               0.000000000               0.000000000               0.000087086               0.006169664               0.000476080              -0.000738549               0.002302717               0.001564168               0.000000000               0.000000000               0.000000000               0.000000000               0.000045036               0.005853448               0.000411947              -0.000714791               0.002189393               0.001474602               0.000000000               0.000000000               0.000000000               0.000000000               0.000017325               0.005536249               0.000316652              -0.000685533               0.002073909               0.001388376               0.000000000               0.000000000               0.000000000               0.000000000               0.000002932               0.005226328               0.000177549              -0.000652190               0.001959489               0.001307299               0.000000000               0.000000000               0.000000000               0.000000000              -0.000018843               0.005022945               0.000102772              -0.000634933               0.001885942               0.001251010               0.000000000               0.000000000               0.000000000               0.000000000               0.002375741               0.017569442              -0.003614681              -0.001305276               0.006291514               0.004986237               0.000000000               0.000000000               0.000000000               0.000000000               0.001601750               0.014368037              -0.001882123              -0.001195346               0.005187746               0.003992400               0.000000000               0.000000000               0.000000000               0.000000000               0.001387866               0.012044863              -0.000191684              -0.000985156               0.004343299               0.003358144               0.000000000               0.000000000               0.000000000               0.000000000               0.001030721               0.010667774               0.000462784              -0.000946949               0.003871539               0.002924590               0.000000000               0.000000000               0.000000000               0.000000000               0.000716273               0.009740404               0.000709557              -0.000948946               0.003563084               0.002614138               0.000000000               0.000000000               0.000000000               0.000000000               0.000472509               0.009050635               0.000790038              -0.000954136               0.003334894               0.002380757               0.000000000               0.000000000               0.000000000               0.000000000               0.000290073               0.008498036               0.000797719              -0.000953475               0.003150475               0.002197000               0.000000000               0.000000000               0.000000000               0.000000000               0.000151886               0.008034469               0.000773206              -0.000947349               0.002993913               0.002046563               0.000000000               0.000000000               0.000000000               0.000000000               0.000049067               0.007625477               0.000732942              -0.000934783               0.002853394               0.001918612               0.000000000               0.000000000               0.000000000               0.000000000              -0.000015520               0.007256797               0.000682787              -0.000912918               0.002723214               0.001810297               0.000000000               0.000000000               0.000000000               0.000000000              -0.000050364               0.006917690               0.000628540              -0.000883596               0.002600405               0.001716810               0.000000000               0.000000000               0.000000000               0.000000000              -0.000066630               0.006607633               0.000569815              -0.000850938               0.002486168               0.001635230               0.000000000               0.000000000               0.000000000               0.000000000              -0.000067975               0.006327015               0.000504217              -0.000816366               0.002381106               0.001564740               0.000000000               0.000000000               0.000000000               0.000000000              -0.000059143               0.006072148               0.000420672              -0.000781195               0.002284427               0.001503232               0.000000000               0.000000000               0.000000000               0.000000000              -0.000042778               0.005846034               0.000308112              -0.000746794               0.002197590               0.001450796               0.000000000               0.000000000               0.000000000               0.000000000              -0.000023364               0.005662813               0.000165491              -0.000716611               0.002126456               0.001409845               0.000000000               0.000000000               0.000000000               0.000000000              -0.000019461               0.005568640               0.000089955              -0.000703376               0.002090653               0.001387277               0.000000000               0.000000000               0.000000000               0.000000000               0.002468730               0.015314703              -0.004092444              -0.000988565               0.005434371               0.004445806               0.000000000               0.000000000               0.000000000               0.000000000               0.001279757               0.012951638              -0.002165289              -0.001139045               0.004696851               0.003557806               0.000000000               0.000000000               0.000000000               0.000000000               0.000628685               0.011423721              -0.000310244              -0.001192205               0.004205271               0.003013065               0.000000000               0.000000000               0.000000000               0.000000000               0.000188104               0.010395911               0.000371731              -0.001228947               0.003874918               0.002645971               0.000000000               0.000000000               0.000000000               0.000000000              -0.000080069               0.009632446               0.000615923              -0.001234079               0.003622143               0.002388064               0.000000000               0.000000000               0.000000000               0.000000000              -0.000239234               0.009021831               0.000686464              -0.001217439               0.003413060               0.002195621               0.000000000               0.000000000               0.000000000               0.000000000              -0.000325039               0.008506357               0.000689501              -0.001185181               0.003230485               0.002045303               0.000000000               0.000000000               0.000000000               0.000000000              -0.000359311               0.008058383               0.000665261              -0.001142037               0.003066780               0.001924743               0.000000000               0.000000000               0.000000000               0.000000000              -0.000358581               0.007660015               0.000624268              -0.001091967               0.002917302               0.001825335               0.000000000               0.000000000               0.000000000               0.000000000              -0.000334774               0.007303003               0.000573210              -0.001038413               0.002780448               0.001742035               0.000000000               0.000000000               0.000000000               0.000000000              -0.000294000               0.006985855               0.000516081              -0.000983479               0.002656422               0.001672942               0.000000000               0.000000000               0.000000000               0.000000000              -0.000242784               0.006701653               0.000455815              -0.000928748               0.002543445               0.001614696               0.000000000               0.000000000               0.000000000               0.000000000              -0.000185024               0.006450814               0.000392406              -0.000875734               0.002442161               0.001566427               0.000000000               0.000000000               0.000000000               0.000000000              -0.000128765               0.006239259               0.000316246              -0.000828192               0.002355796               0.001527604               0.000000000               0.000000000               0.000000000               0.000000000              -0.000080359               0.006073816               0.000219136              -0.000789360               0.002287705               0.001498345               0.000000000               0.000000000               0.000000000               0.000000000              -0.000037742               0.005962900               0.000110641              -0.000759514               0.002240785               0.001481271               0.000000000               0.000000000               0.000000000               0.000000000              -0.000021290               0.005915350               0.000058474              -0.000747401               0.002220897               0.001473497               0.000000000               0.000000000               0.000000000               0.000000000               0.002347880               0.012875061              -0.004151889              -0.000728930               0.004534620               0.003805690               0.000000000               0.000000000               0.000000000               0.000000000               0.000829813               0.011443367              -0.002280134              -0.001119240               0.004187497               0.003068257               0.000000000               0.000000000               0.000000000               0.000000000              -0.000178417               0.010737327              -0.000491611              -0.001409069               0.004048763               0.002639694               0.000000000               0.000000000               0.000000000               0.000000000              -0.000622606               0.010040663               0.000137008              -0.001488556               0.003843040               0.002354483               0.000000000               0.000000000               0.000000000               0.000000000              -0.000795027               0.009427848               0.000355574              -0.001476612               0.003634789               0.002158176               0.000000000               0.000000000               0.000000000               0.000000000              -0.000834394               0.008891277               0.000421051              -0.001424304               0.003438497               0.002014194               0.000000000               0.000000000               0.000000000               0.000000000              -0.000802764               0.008417615               0.000430166              -0.001353235               0.003256922               0.001903687               0.000000000               0.000000000               0.000000000               0.000000000              -0.000734112               0.007995446               0.000416757              -0.001274720               0.003090028               0.001815309               0.000000000               0.000000000               0.000000000               0.000000000              -0.000642435               0.007619313               0.000388502              -0.001193324               0.002937520               0.001744196               0.000000000               0.000000000               0.000000000               0.000000000              -0.000541888               0.007279204               0.000351746              -0.001113106               0.002797412               0.001684307               0.000000000               0.000000000               0.000000000               0.000000000              -0.000441335               0.006970905               0.000309681              -0.001036861               0.002669232               0.001632371               0.000000000               0.000000000               0.000000000               0.000000000              -0.000341303               0.006694110               0.000265052              -0.000964750               0.002552931               0.001588181               0.000000000               0.000000000               0.000000000               0.000000000              -0.000247139               0.006455098               0.000223031              -0.000899562               0.002451532               0.001551970               0.000000000               0.000000000               0.000000000               0.000000000              -0.000168223               0.006257860               0.000176321              -0.000845314               0.002367704               0.001522390               0.000000000               0.000000000               0.000000000               0.000000000              -0.000103675               0.006106783               0.000119095              -0.000802224               0.002302982               0.001500758               0.000000000               0.000000000               0.000000000               0.000000000              -0.000047859               0.006000035               0.000057447              -0.000767950               0.002255975               0.001488025               0.000000000               0.000000000               0.000000000               0.000000000              -0.000033921               0.005938803               0.000033298              -0.000755069               0.002231271               0.001476202               0.000000000               0.000000000               0.000000000               0.000000000               0.001956493               0.010448918              -0.003865566              -0.000572432               0.003673748               0.003101315               0.000000000               0.000000000               0.000000000               0.000000000               0.000283053               0.009960871              -0.002274978              -0.001138963               0.003699911               0.002560948               0.000000000               0.000000000               0.000000000               0.000000000              -0.000936673               0.010018619              -0.000743751              -0.001603576               0.003874032               0.002270456               0.000000000               0.000000000               0.000000000               0.000000000              -0.001295662               0.009606101              -0.000209695              -0.001686632               0.003764212               0.002077580               0.000000000               0.000000000               0.000000000               0.000000000              -0.001329229               0.009123257              -0.000007683              -0.001638864               0.003587343               0.001948480               0.000000000               0.000000000               0.000000000               0.000000000              -0.001234707               0.008658151               0.000070281              -0.001545280               0.003401115               0.001855835               0.000000000               0.000000000               0.000000000               0.000000000              -0.001092328               0.008232877               0.000100668              -0.001438729               0.003223841               0.001785112               0.000000000               0.000000000               0.000000000               0.000000000              -0.000930413               0.007845924               0.000112458              -0.001329642               0.003058496               0.001728854               0.000000000               0.000000000               0.000000000               0.000000000              -0.000765714               0.007482276               0.000110644              -0.001222424               0.002901542               0.001679118               0.000000000               0.000000000               0.000000000               0.000000000              -0.000615647               0.007137811               0.000098251              -0.001123091               0.002753610               0.001630519               0.000000000               0.000000000               0.000000000               0.000000000              -0.000483213               0.006816556               0.000083017              -0.001033272               0.002616587               0.001583315               0.000000000               0.000000000               0.000000000               0.000000000              -0.000363647               0.006532178               0.000070044              -0.000952888               0.002495000               0.001542113               0.000000000               0.000000000               0.000000000               0.000000000              -0.000261024               0.006293156               0.000064634              -0.000884526               0.002392540               0.001508013               0.000000000               0.000000000               0.000000000               0.000000000              -0.000179523               0.006097718               0.000060228              -0.000829534               0.002309063               0.001479530               0.000000000               0.000000000               0.000000000               0.000000000              -0.000112651               0.005941240               0.000048591              -0.000784897               0.002242026               0.001457129               0.000000000               0.000000000               0.000000000               0.000000000              -0.000052701               0.005812594               0.000027726              -0.000746335               0.002186290               0.001439955               0.000000000               0.000000000               0.000000000               0.000000000              -0.000042443               0.005728632               0.000025019              -0.000731993               0.002153523               0.001421529               0.000000000               0.000000000               0.000000000               0.000000000               0.001322391               0.008191407              -0.003320508              -0.000528031               0.002906451               0.002378420               0.000000000               0.000000000               0.000000000               0.000000000              -0.000326357               0.008591519              -0.002191143              -0.001196322               0.003262584               0.002066262               0.000000000               0.000000000               0.000000000               0.000000000              -0.001570476               0.009284468              -0.001056726              -0.001749483               0.003677953               0.001928470               0.000000000               0.000000000               0.000000000               0.000000000              -0.001769488               0.009104012              -0.000611554              -0.001801555               0.003635159               0.001833603               0.000000000               0.000000000               0.000000000               0.000000000              -0.001648446               0.008738137              -0.000399083              -0.001710430               0.003482827               0.001772396               0.000000000               0.000000000               0.000000000               0.000000000              -0.001428331               0.008352620              -0.000288675              -0.001579698               0.003310745               0.001731047               0.000000000               0.000000000               0.000000000               0.000000000              -0.001189448               0.007978790              -0.000222491              -0.001443388               0.003140700               0.001697311               0.000000000               0.000000000               0.000000000               0.000000000              -0.000965053               0.007605804              -0.000179837              -0.001312617               0.002972782               0.001660165               0.000000000               0.000000000               0.000000000               0.000000000              -0.000766884               0.007231608              -0.000153423              -0.001191529               0.002807688               0.001616159               0.000000000               0.000000000               0.000000000               0.000000000              -0.000592886               0.006870488              -0.000132958              -0.001081140               0.002650520               0.001569379               0.000000000               0.000000000               0.000000000               0.000000000              -0.000446389               0.006538723              -0.000108419              -0.000984734               0.002507797               0.001523063               0.000000000               0.000000000               0.000000000               0.000000000              -0.000326926               0.006252898              -0.000075206              -0.000904207               0.002385681               0.001481474               0.000000000               0.000000000               0.000000000               0.000000000              -0.000233632               0.006015725              -0.000033817              -0.000839575               0.002285080               0.001445505               0.000000000               0.000000000               0.000000000               0.000000000              -0.000161026               0.005819112               0.000004256              -0.000787772               0.002202275               0.001414503               0.000000000               0.000000000               0.000000000               0.000000000              -0.000100755               0.005654310               0.000025325              -0.000744570               0.002132941               0.001388371               0.000000000               0.000000000               0.000000000               0.000000000              -0.000049812               0.005517572               0.000023874              -0.000708374               0.002075297               0.001366923               0.000000000               0.000000000               0.000000000               0.000000000              -0.000039054               0.005435603               0.000025543              -0.000694094               0.002043214               0.001349120               0.000000000               0.000000000               0.000000000               0.000000000               0.000551357               0.006273306              -0.002623451              -0.000577405               0.002283548               0.001706143               0.000000000               0.000000000               0.000000000               0.000000000              -0.000908541               0.007365429              -0.002075630              -0.001261379               0.002875578               0.001614198               0.000000000               0.000000000               0.000000000               0.000000000              -0.002039711               0.008570326              -0.001419464              -0.001836178               0.003468806               0.001632628               0.000000000               0.000000000               0.000000000               0.000000000              -0.002071258               0.008629307              -0.001032911              -0.001855381               0.003494867               0.001639486               0.000000000               0.000000000               0.000000000               0.000000000              -0.001824720               0.008402872              -0.000789490              -0.001734625               0.003379137               0.001644513               0.000000000               0.000000000               0.000000000               0.000000000              -0.001510974               0.008103176              -0.000631083              -0.001579509               0.003227534               0.001648026               0.000000000               0.000000000               0.000000000               0.000000000              -0.001210038               0.007764506              -0.000525482              -0.001424324               0.003062918               0.001638593               0.000000000               0.000000000               0.000000000               0.000000000              -0.000940856               0.007402018              -0.000451544              -0.001278070               0.002893338               0.001615268               0.000000000               0.000000000               0.000000000               0.000000000              -0.000712227               0.007027976              -0.000393592              -0.001145579               0.002724495               0.001578916               0.000000000               0.000000000               0.000000000               0.000000000              -0.000519261               0.006664483              -0.000337359              -0.001027780               0.002564065               0.001536285               0.000000000               0.000000000               0.000000000               0.000000000              -0.000364156               0.006335555              -0.000269951              -0.000928501               0.002421331               0.001492830               0.000000000               0.000000000               0.000000000               0.000000000              -0.000254875               0.006052945              -0.000192462              -0.000852194               0.002301693               0.001449499               0.000000000               0.000000000               0.000000000               0.000000000              -0.000186696               0.005812638              -0.000113943              -0.000796589               0.002203056               0.001406467               0.000000000               0.000000000               0.000000000               0.000000000              -0.000144995               0.005602081              -0.000045489              -0.000754631               0.002118885               0.001364254               0.000000000               0.000000000               0.000000000               0.000000000              -0.000114713               0.005418626               0.000001723              -0.000720344               0.002046305               0.001325962               0.000000000               0.000000000               0.000000000               0.000000000              -0.000098471               0.005261412               0.000021435              -0.000694601               0.001985320               0.001290719               0.000000000               0.000000000               0.000000000               0.000000000              -0.000090131               0.005184662               0.000024137              -0.000681880               0.001955497               0.001273617               0.000000000               0.000000000               0.000000000               0.000000000              -0.000377399               0.004490536              -0.001879712              -0.000702841               0.001731110               0.001028269               0.000000000               0.000000000               0.000000000               0.000000000              -0.001380702               0.005961590              -0.001940766              -0.001262960               0.002408163               0.001145203               0.000000000               0.000000000               0.000000000               0.000000000              -0.002283076               0.007531425              -0.001802933              -0.001797578               0.003109642               0.001312064               0.000000000               0.000000000               0.000000000               0.000000000              -0.002233102               0.007920873              -0.001488342              -0.001827518               0.003249437               0.001421919               0.000000000               0.000000000               0.000000000               0.000000000              -0.001940235               0.007928588              -0.001217951              -0.001718658               0.003215722               0.001497064               0.000000000               0.000000000               0.000000000               0.000000000              -0.001598175               0.007782042              -0.001010176              -0.001572067               0.003118010               0.001545943               0.000000000               0.000000000               0.000000000               0.000000000              -0.001274096               0.007544688              -0.000856349              -0.001420869               0.002988494               0.001567625               0.000000000               0.000000000               0.000000000               0.000000000              -0.000986541               0.007258137              -0.000739593              -0.001277217               0.002845093               0.001567877               0.000000000               0.000000000               0.000000000               0.000000000              -0.000743792               0.006936715              -0.000644240              -0.001146008               0.002694218               0.001548210               0.000000000               0.000000000               0.000000000               0.000000000              -0.000544088               0.006605554              -0.000553356              -0.001029725               0.002545071               0.001515346               0.000000000               0.000000000               0.000000000               0.000000000              -0.000385978               0.006284198              -0.000452506              -0.000930264               0.002404800               0.001474536               0.000000000               0.000000000               0.000000000               0.000000000              -0.000272790               0.005993620              -0.000344319              -0.000851497               0.002281685               0.001430189               0.000000000               0.000000000               0.000000000               0.000000000              -0.000205698               0.005738073              -0.000237799              -0.000794394               0.002177470               0.001383076               0.000000000               0.000000000               0.000000000               0.000000000              -0.000177545               0.005520024              -0.000141878              -0.000756580               0.002092183               0.001335603               0.000000000               0.000000000               0.000000000               0.000000000              -0.000174095               0.005331616              -0.000060834              -0.000731736               0.002021099               0.001289364               0.000000000               0.000000000               0.000000000               0.000000000              -0.000189803               0.005158352              -0.000006741              -0.000715969               0.001958090               0.001242121               0.000000000               0.000000000               0.000000000               0.000000000              -0.000198243               0.005076594               0.000009674              -0.000708914               0.001928485               0.001219572               0.000000000               0.000000000               0.000000000               0.000000000              -0.001595054               0.002878730              -0.001133772              -0.000957985               0.001278895               0.000320910               0.000000000               0.000000000               0.000000000               0.000000000              -0.001920318               0.004562755              -0.001739539              -0.001290461               0.001951056               0.000660595               0.000000000               0.000000000               0.000000000               0.000000000              -0.002438555               0.006334178              -0.002099180              -0.001706227               0.002680113               0.000973886               0.000000000               0.000000000               0.000000000               0.000000000              -0.002316654               0.007032576              -0.001914483              -0.001747814               0.002926772               0.001178959               0.000000000               0.000000000               0.000000000               0.000000000              -0.002006911               0.007296894              -0.001652180              -0.001664700               0.002987173               0.001322473               0.000000000               0.000000000               0.000000000               0.000000000              -0.001663414               0.007335147              -0.001414403              -0.001540670               0.002958581               0.001417911               0.000000000               0.000000000               0.000000000               0.000000000              -0.001337318               0.007240504              -0.001221870              -0.001406554               0.002882328               0.001475774               0.000000000               0.000000000               0.000000000               0.000000000              -0.001041724               0.007068014              -0.001064578              -0.001274145               0.002780696               0.001506551               0.000000000               0.000000000               0.000000000               0.000000000              -0.000784675               0.006840848              -0.000930836              -0.001149356               0.002663379               0.001514022               0.000000000               0.000000000               0.000000000               0.000000000              -0.000569016               0.006579911              -0.000808985              -0.001035868               0.002538571               0.001502703               0.000000000               0.000000000               0.000000000               0.000000000              -0.000392421               0.006296040              -0.000686809              -0.000934161               0.002410046               0.001475885               0.000000000               0.000000000               0.000000000               0.000000000              -0.000254270               0.006015654              -0.000561651              -0.000847306               0.002287633               0.001440327               0.000000000               0.000000000               0.000000000               0.000000000              -0.000162393               0.005756937              -0.000432512              -0.000780512               0.002179131               0.001398618               0.000000000               0.000000000               0.000000000               0.000000000              -0.000123700               0.005531348              -0.000304597              -0.000737804               0.002089699               0.001351895               0.000000000               0.000000000               0.000000000               0.000000000              -0.000141986               0.005328859              -0.000181536              -0.000719350               0.002016052               0.001296702               0.000000000               0.000000000               0.000000000               0.000000000              -0.000203336               0.005152440              -0.000075562              -0.000720304               0.001957564               0.001237260               0.000000000               0.000000000               0.000000000               0.000000000              -0.000258790               0.005062069              -0.000022856              -0.000729803               0.001930607               0.001200804               0.000000000               0.000000000               0.000000000               0.000000000              -0.003019561               0.001553648              -0.000441010              -0.001326539               0.000960056              -0.000366483               0.000000000               0.000000000               0.000000000               0.000000000              -0.002575554               0.003249964              -0.001450622              -0.001372075               0.001540668               0.000168593               0.000000000               0.000000000               0.000000000               0.000000000              -0.002548751               0.004997959              -0.002210836              -0.001580523               0.002192810               0.000612286               0.000000000               0.000000000               0.000000000               0.000000000              -0.002282147               0.005915118              -0.002190482              -0.001595192               0.002503416               0.000908224               0.000000000               0.000000000               0.000000000               0.000000000              -0.001945925               0.006411777              -0.001981740              -0.001531191               0.002647634               0.001116443               0.000000000               0.000000000               0.000000000               0.000000000              -0.001607462               0.006647673              -0.001748081              -0.001433754               0.002693787               0.001260032               0.000000000               0.000000000               0.000000000               0.000000000              -0.001293044               0.006719758              -0.001538742              -0.001324859               0.002681516               0.001356658               0.000000000               0.000000000               0.000000000               0.000000000              -0.001008415               0.006682704              -0.001358896              -0.001213491               0.002632042               0.001418551               0.000000000               0.000000000               0.000000000               0.000000000              -0.000753623               0.006572375              -0.001199076              -0.001104153               0.002558821               0.001454667               0.000000000               0.000000000               0.000000000               0.000000000              -0.000529324               0.006412583              -0.001052934              -0.001000067               0.002470862               0.001470794               0.000000000               0.000000000               0.000000000               0.000000000              -0.000333956               0.006209604              -0.000914354              -0.000901432               0.002370325               0.001468892               0.000000000               0.000000000               0.000000000               0.000000000              -0.000168422               0.005982862              -0.000777243              -0.000811014               0.002264605               0.001453591               0.000000000               0.000000000               0.000000000               0.000000000              -0.000041264               0.005754856              -0.000634061              -0.000734829               0.002163209               0.001428380               0.000000000               0.000000000               0.000000000               0.000000000               0.000035742               0.005538727              -0.000481611              -0.000678936               0.002072536               0.001393600               0.000000000               0.000000000               0.000000000               0.000000000               0.000043820               0.005333675              -0.000320255              -0.000650275               0.001994632               0.001344357               0.000000000               0.000000000               0.000000000               0.000000000              -0.000022414               0.005155227              -0.000157351              -0.000652807               0.001935994               0.001283187               0.000000000               0.000000000               0.000000000               0.000000000              -0.000102977               0.005056187              -0.000066872              -0.000670638               0.001908925               0.001238287               0.000000000               0.000000000               0.000000000               0.000000000              -0.004554648               0.000573338               0.000107597              -0.001779658               0.000784327              -0.000995332               0.000000000               0.000000000               0.000000000               0.000000000              -0.003307727               0.002088250              -0.001109667              -0.001501426               0.001196550              -0.000304876               0.000000000               0.000000000               0.000000000               0.000000000              -0.002639048               0.003630061              -0.002114334              -0.001443398               0.001691140               0.000247742               0.000000000               0.000000000               0.000000000               0.000000000              -0.002155598               0.004658381              -0.002245829              -0.001390644               0.002016325               0.000625681               0.000000000               0.000000000               0.000000000               0.000000000              -0.001762660               0.005338216              -0.002114802              -0.001328272               0.002222144               0.000893872               0.000000000               0.000000000               0.000000000               0.000000000              -0.001423849               0.005753977              -0.001917974              -0.001253188               0.002335702               0.001082514               0.000000000               0.000000000               0.000000000               0.000000000              -0.001124669               0.005993906              -0.001719630              -0.001170987               0.002388277               0.001217290               0.000000000               0.000000000               0.000000000               0.000000000              -0.000858672               0.006108193              -0.001537239              -0.001085524               0.002397885               0.001312361               0.000000000               0.000000000               0.000000000               0.000000000              -0.000617918               0.006128326              -0.001371493              -0.000997758               0.002375341               0.001377583               0.000000000               0.000000000               0.000000000               0.000000000              -0.000397244               0.006083324              -0.001220031              -0.000909380               0.002330881               0.001421501               0.000000000               0.000000000               0.000000000               0.000000000              -0.000191625               0.005987410              -0.001078234              -0.000820284               0.002269211               0.001448927               0.000000000               0.000000000               0.000000000               0.000000000              -0.000002133               0.005850625              -0.000937711              -0.000732126               0.002194231               0.001462105               0.000000000               0.000000000               0.000000000               0.000000000               0.000167066               0.005687667              -0.000791520              -0.000648307               0.002111973               0.001463665               0.000000000               0.000000000               0.000000000               0.000000000               0.000303775               0.005510296              -0.000628892              -0.000574870               0.002028370               0.001453500               0.000000000               0.000000000               0.000000000               0.000000000               0.000387181               0.005330079              -0.000442019              -0.000521066               0.001950364               0.001429298               0.000000000               0.000000000               0.000000000               0.000000000               0.000397465               0.005161498              -0.000230069              -0.000496137               0.001885861               0.001389724               0.000000000               0.000000000               0.000000000               0.000000000               0.000363436               0.005069204              -0.000112663              -0.000497361               0.001855505               0.001358144               0.000000000               0.000000000               0.000000000               0.000000000              -0.006044871              -0.000074457               0.000430343              -0.002257518               0.000727682              -0.001529836               0.000000000               0.000000000               0.000000000               0.000000000              -0.004050263               0.001140826              -0.000764194              -0.001661450               0.000934085              -0.000727365               0.000000000               0.000000000               0.000000000               0.000000000              -0.002726271               0.002363666              -0.001806647              -0.001317808               0.001227149              -0.000090659               0.000000000               0.000000000               0.000000000               0.000000000              -0.001987159               0.003399169              -0.002034200              -0.001170079               0.001523070               0.000352991               0.000000000               0.000000000               0.000000000               0.000000000              -0.001503325               0.004193808              -0.001980421              -0.001087971               0.001760578               0.000672607               0.000000000               0.000000000               0.000000000               0.000000000              -0.001147139               0.004756878              -0.001836098              -0.001024785               0.001927204               0.000902419               0.000000000               0.000000000               0.000000000               0.000000000              -0.000859983               0.005141566              -0.001671899              -0.000965188               0.002035567               0.001070379               0.000000000               0.000000000               0.000000000               0.000000000              -0.000611332               0.005394111              -0.001512091              -0.000903512               0.002099189               0.001195677               0.000000000               0.000000000               0.000000000               0.000000000              -0.000381893               0.005548611              -0.001361907              -0.000836785               0.002128446               0.001291662               0.000000000               0.000000000               0.000000000               0.000000000              -0.000164931               0.005620964              -0.001224515              -0.000764468               0.002128459               0.001363990               0.000000000               0.000000000               0.000000000               0.000000000               0.000044211               0.005635023              -0.001095618              -0.000687798               0.002107588               0.001419790               0.000000000               0.000000000               0.000000000               0.000000000               0.000253107               0.005604037              -0.000968968              -0.000605589               0.002069856               0.001464268               0.000000000               0.000000000               0.000000000               0.000000000               0.000462165               0.005528339              -0.000836997              -0.000517730               0.002015338               0.001497608               0.000000000               0.000000000               0.000000000               0.000000000               0.000663418               0.005420366              -0.000682059              -0.000428763               0.001949692               0.001520929               0.000000000               0.000000000               0.000000000               0.000000000               0.000844624               0.005292685              -0.000493811              -0.000344851               0.001879161               0.001534310               0.000000000               0.000000000               0.000000000               0.000000000               0.000991383               0.005151348              -0.000266077              -0.000272149               0.001807815               0.001535666               0.000000000               0.000000000               0.000000000               0.000000000               0.001074168               0.005083481              -0.000144662              -0.000232622               0.001772017               0.001539396               0.000000000               0.000000000               0.000000000               0.000000000              -0.007307001              -0.000445730               0.000487044              -0.002684407               0.000746221              -0.001938187               0.000000000               0.000000000               0.000000000               0.000000000              -0.004704451               0.000451345              -0.000458371              -0.001820585               0.000757305              -0.001063281               0.000000000               0.000000000               0.000000000               0.000000000              -0.002809110               0.001338808              -0.001313079              -0.001220765               0.000853185              -0.000367581               0.000000000               0.000000000               0.000000000               0.000000000              -0.001823963               0.002314224              -0.001547065              -0.000973263               0.001095820               0.000122558               0.000000000               0.000000000               0.000000000               0.000000000              -0.001237679               0.003156891              -0.001547914              -0.000858740               0.001338532               0.000479793               0.000000000               0.000000000               0.000000000               0.000000000              -0.000849623               0.003816585              -0.001460214              -0.000795681               0.001537409               0.000741728               0.000000000               0.000000000               0.000000000               0.000000000              -0.000561332               0.004314862              -0.001344577              -0.000749856               0.001688225               0.000938368               0.000000000               0.000000000               0.000000000               0.000000000              -0.000322767               0.004677523              -0.001227875              -0.000705727               0.001794401               0.001088674               0.000000000               0.000000000               0.000000000               0.000000000              -0.000104926               0.004939517              -0.001114742              -0.000656786               0.001865418               0.001208632               0.000000000               0.000000000               0.000000000               0.000000000               0.000106427               0.005119503              -0.001007603              -0.000600027               0.001906493               0.001306466               0.000000000               0.000000000               0.000000000               0.000000000               0.000318740               0.005232559              -0.000908517              -0.000534541               0.001922349               0.001387808               0.000000000               0.000000000               0.000000000               0.000000000               0.000543895               0.005292558              -0.000814821              -0.000457608               0.001916704               0.001459096               0.000000000               0.000000000               0.000000000               0.000000000               0.000783357               0.005306707              -0.000713498              -0.000369579               0.001892077               0.001522499               0.000000000               0.000000000               0.000000000               0.000000000               0.001040263               0.005282123              -0.000588966              -0.000270166               0.001850746               0.001580579               0.000000000               0.000000000               0.000000000               0.000000000               0.001318774               0.005220718              -0.000433706              -0.000158049               0.001792905               0.001634856               0.000000000               0.000000000               0.000000000               0.000000000               0.001613621               0.005121258              -0.000239070              -0.000035050               0.001718752               0.001683703               0.000000000               0.000000000               0.000000000               0.000000000               0.001830767               0.005085752              -0.000139152               0.000050818               0.001678294               0.001729112               0.000000000               0.000000000               0.000000000               0.000000000              -0.008155000              -0.000624926               0.000311684              -0.002980007               0.000785022              -0.002194985               0.000000000               0.000000000               0.000000000               0.000000000              -0.005157653               0.000032318              -0.000209631              -0.001938158               0.000656821              -0.001281337               0.000000000               0.000000000               0.000000000               0.000000000              -0.002872632               0.000668662              -0.000689911              -0.001160818               0.000609822              -0.000550996               0.000000000               0.000000000               0.000000000               0.000000000              -0.001705204               0.001579930              -0.000835422              -0.000836941               0.000805618              -0.000031324               0.000000000               0.000000000               0.000000000               0.000000000              -0.001036591               0.002435047              -0.000851353              -0.000693101               0.001042708               0.000349606               0.000000000               0.000000000               0.000000000               0.000000000              -0.000618180               0.003138963              -0.000813619              -0.000624187               0.001254372               0.000630186               0.000000000               0.000000000               0.000000000               0.000000000              -0.000322681               0.003698812              -0.000754697              -0.000583356               0.001427377               0.000844021               0.000000000               0.000000000               0.000000000               0.000000000              -0.000088874               0.004134301              -0.000692384              -0.000550114               0.001561458               0.001011344               0.000000000               0.000000000               0.000000000               0.000000000               0.000120491               0.004472129              -0.000630926              -0.000513831               0.001661972               0.001148141               0.000000000               0.000000000               0.000000000               0.000000000               0.000325123               0.004724038              -0.000571863              -0.000468583               0.001730858               0.001262275               0.000000000               0.000000000               0.000000000               0.000000000               0.000539484               0.004907447              -0.000519152              -0.000411124               0.001772840               0.001361717               0.000000000               0.000000000               0.000000000               0.000000000               0.000771049               0.005035226              -0.000469774              -0.000340259               0.001791811               0.001451552               0.000000000               0.000000000               0.000000000               0.000000000               0.001026989               0.005114939              -0.000413546              -0.000254246               0.001789711               0.001535465               0.000000000               0.000000000               0.000000000               0.000000000               0.001322148               0.005152085              -0.000345141              -0.000148205               0.001766746               0.001618541               0.000000000               0.000000000               0.000000000               0.000000000               0.001671212               0.005144836              -0.000257033              -0.000016400               0.001720395               0.001703995               0.000000000               0.000000000               0.000000000               0.000000000               0.002084033               0.005087099              -0.000141086               0.000145623               0.001647142               0.001792765               0.000000000               0.000000000               0.000000000               0.000000000               0.002412125               0.005081215              -0.000082698               0.000269392               0.001603924               0.001873316               0.000000000               0.000000000               0.000000000               0.000000000               0.000000000               0.000000000               0.000000000               0.000000000               0.000000000               0.000000000               0.000000000               0.000000000               0.000000000               0.000000000               0.000000000               0.000000000               0.000000000               0.000000000               0.000000000               0.000000000               0.000000000               0.000000000               0.000000000               0.000000000               0.000000000               0.000000000               0.000000000               0.000000000               0.000000000               0.000000000               0.000000000               0.000000000               0.000000000               0.000000000               0.000000000               0.000000000               0.000000000               0.000000000               0.000000000               0.000000000               0.000000000               0.000000000               0.000000000               0.000000000               0.000000000               0.000000000               0.000000000               0.000000000               0.000000000               0.000000000               0.000000000               0.000000000               0.000000000               0.000000000               0.000000000               0.000000000               0.000000000               0.000000000               0.000000000               0.000000000               0.000000000               0.000000000               0.000000000               0.000000000               0.000000000               0.000000000               0.000000000               0.000000000               0.000000000               0.000000000               0.000000000               0.000000000               0.000000000               0.000000000               0.000000000               0.000000000               0.000000000               0.000000000               0.000000000               0.000000000               0.000000000               0.000000000               0.000000000               0.000000000               0.000000000               0.000000000               0.000000000               0.000000000               0.000000000               0.000000000               0.000000000               0.000000000               0.000000000               0.000000000               0.000000000               0.000000000               0.000000000               0.000000000               0.000000000               0.000000000               0.000000000               0.000000000               0.000000000               0.000000000               0.000000000               0.000000000               0.000000000               0.000000000               0.000000000               0.000000000               0.000000000               0.000000000               0.000000000               0.000000000               0.000000000               0.000000000               0.000000000               0.000000000               0.000000000               0.000000000               0.000000000               0.000000000               0.000000000               0.000000000               0.000000000               0.000000000               0.000000000               0.000000000               0.000000000               0.000000000               0.000000000               0.000000000               0.000000000               0.000000000               0.000000000               0.000000000               0.000000000               0.000000000               0.000000000               0.000000000               0.000000000               0.000000000               0.000000000               0.000000000               0.000000000               0.000000000               0.000000000               0.000000000               0.000000000               0.000000000               0.000000000               0.000000000               0.000000000               0.000000000               0.000000000               0.000000000               0.000000000               0.000000000               0.000000000               0.000000000               0.000000000               0.000000000               0.000000000               0.000000000               0.000000000               0.000000000               0.000000000               0.000000000               0.000000000               0.000000000               0.000000000               0.000000000               0.000000000               0.000000000               0.000000000               0.000000000               0.000000000               0.000000000               0.000000000               0.000000000               0.000000000               0.000000000               0.000000000               0.000000000               0.000000000               0.000000000               0.000000000               0.000000000               0.000000000               0.000000000               0.000000000               0.000000000               0.000000000               0.000000000               0.000000000               0.000000000               0.000000000               0.000000000               0.000000000               0.000000000               0.000000000               0.000000000               0.000000000               0.000000000               0.000000000               0.000000000               0.000000000               0.000000000               0.000000000               0.000000000               0.000000000               0.000000000               0.000000000               0.000000000               0.000000000               0.000000000               0.000000000               0.000000000               0.000000000               0.000000000               0.000000000               0.000000000               0.000000000               0.000000000               0.000000000               0.000000000               0.000000000               0.000000000               0.000000000               0.000000000               0.000000000               0.000000000               0.000000000               0.000000000               0.000000000               0.000000000               0.000000000               0.000000000               0.000000000               0.000000000               0.000000000               0.000000000               0.000000000               0.000000000               0.000000000               0.000000000               0.000000000               0.000000000               0.000000000               0.000000000               0.000000000               0.000000000               0.000000000               0.000000000               0.000000000               0.000000000               0.000000000               0.000000000               0.000000000               0.000000000               0.000000000               0.000000000               0.000000000               0.000000000               0.000000000               0.000000000               0.000000000               0.000000000               0.000000000               0.000000000               0.000000000               0.000000000               0.000000000               0.000000000               0.000000000               0.000000000               0.000000000               0.000000000               0.000000000               0.000000000               0.000000000               0.000000000               0.000000000               0.000000000               0.000000000               0.000000000               0.000000000               0.000000000               0.000000000               0.000000000               0.000000000               0.000000000               0.000000000               0.000000000               0.000000000               0.000000000               0.000000000               0.000000000               0.000000000               0.000000000               0.000000000               0.000000000               0.000000000               0.000000000               0.000000000               0.000000000               0.000000000               0.000000000               0.000000000               0.000000000               0.000000000               0.000000000               0.000000000               0.000000000               0.000000000               0.000000000               0.000000000               0.000000000               0.000000000               0.000000000               0.000000000               0.000000000               0.000000000               0.000000000               0.000000000               0.000000000               0.000000000               0.000000000               0.000000000               0.000000000               0.000000000               0.000000000               0.000000000               0.000000000               0.000000000               0.000000000               0.000000000               0.000000000               0.000000000               0.000000000               0.000000000               0.000000000               0.000000000               0.000000000               0.001993954               0.020635509               0.001455702              -0.001831702               0.007489001               0.005657300               0.000000000               0.000000000               0.000000000               0.000000000               0.001897550               0.016335311               0.000752106              -0.001330329               0.005888492               0.004558163               0.000000000               0.000000000               0.000000000               0.000000000               0.002407378               0.012903289               0.000052849              -0.000710143               0.004537768               0.003827625               0.000000000               0.000000000               0.000000000               0.000000000               0.002283226               0.010978198              -0.000239009              -0.000516064               0.003831384               0.003315320               0.000000000               0.000000000               0.000000000               0.000000000               0.001984223               0.009773908              -0.000358272              -0.000477654               0.003417155               0.002939501               0.000000000               0.000000000               0.000000000               0.000000000               0.001658334               0.008952658              -0.000403041              -0.000497206               0.003149925               0.002652719               0.000000000               0.000000000               0.000000000               0.000000000               0.001350392               0.008345706              -0.000412047              -0.000536815               0.002960813               0.002423997               0.000000000               0.000000000               0.000000000               0.000000000               0.001075317               0.007861362              -0.000402964              -0.000579425               0.002813570               0.002234144               0.000000000               0.000000000               0.000000000               0.000000000               0.000838990               0.007451766              -0.000387324              -0.000616848               0.002689513               0.002072665               0.000000000               0.000000000               0.000000000               0.000000000               0.000640152               0.007083195              -0.000368577              -0.000645341               0.002576155               0.001930814               0.000000000               0.000000000               0.000000000               0.000000000               0.000474728               0.006736115              -0.000345815              -0.000663990               0.002466679               0.001802689               0.000000000               0.000000000               0.000000000               0.000000000               0.000340849               0.006393548              -0.000319211              -0.000671374               0.002354953               0.001683579               0.000000000               0.000000000               0.000000000               0.000000000               0.000233114               0.006043690              -0.000291943              -0.000668042               0.002237224               0.001569182               0.000000000               0.000000000               0.000000000               0.000000000               0.000142678               0.005679837              -0.000259545              -0.000656474               0.002112085               0.001455611               0.000000000               0.000000000               0.000000000               0.000000000               0.000067750               0.005289944              -0.000205692              -0.000635835               0.001975242               0.001339407               0.000000000               0.000000000               0.000000000               0.000000000               0.000020643               0.004860422              -0.000118344              -0.000599810               0.001820061               0.001220251               0.000000000               0.000000000               0.000000000               0.000000000              -0.000026253               0.004540746              -0.000071974              -0.000577437               0.001706046               0.001128609               0.000000000               0.000000000               0.000000000               0.000000000               0.002176589               0.019417463               0.002709157              -0.001610959               0.007009409               0.005398450               0.000000000               0.000000000               0.000000000               0.000000000               0.001798385               0.015547744               0.001402118              -0.001269071               0.005605553               0.004336482               0.000000000               0.000000000               0.000000000               0.000000000               0.002004940               0.012556748               0.000112134              -0.000817739               0.004458121               0.003640381               0.000000000               0.000000000               0.000000000               0.000000000               0.001772289               0.010860237              -0.000410307              -0.000692920               0.003851016               0.003158096               0.000000000               0.000000000               0.000000000               0.000000000               0.001456060               0.009774406              -0.000616956              -0.000675777               0.003483362               0.002807585               0.000000000               0.000000000               0.000000000               0.000000000               0.001158680               0.009010640              -0.000690031              -0.000691824               0.003234125               0.002542301               0.000000000               0.000000000               0.000000000               0.000000000               0.000899566               0.008426380              -0.000701907              -0.000715959               0.003047418               0.002331459               0.000000000               0.000000000               0.000000000               0.000000000               0.000678903               0.007951040              -0.000686027              -0.000739290               0.002896750               0.002157460               0.000000000               0.000000000               0.000000000               0.000000000               0.000495486               0.007542713              -0.000655806              -0.000757030               0.002766556               0.002009526               0.000000000               0.000000000               0.000000000               0.000000000               0.000347479               0.007171888              -0.000618242              -0.000766180               0.002645998               0.001879819               0.000000000               0.000000000               0.000000000               0.000000000               0.000233866               0.006822968              -0.000577179              -0.000765170               0.002529356               0.001764187               0.000000000               0.000000000               0.000000000               0.000000000               0.000149327               0.006490577              -0.000528648              -0.000755323               0.002415278               0.001659956               0.000000000               0.000000000               0.000000000               0.000000000               0.000087086               0.006169664              -0.000476080              -0.000738549               0.002302717               0.001564168               0.000000000               0.000000000               0.000000000               0.000000000               0.000045036               0.005853448              -0.000411947              -0.000714791               0.002189393               0.001474602               0.000000000               0.000000000               0.000000000               0.000000000               0.000017325               0.005536249              -0.000316652              -0.000685533               0.002073909               0.001388376               0.000000000               0.000000000               0.000000000               0.000000000               0.000002932               0.005226328              -0.000177549              -0.000652190               0.001959489               0.001307299               0.000000000               0.000000000               0.000000000               0.000000000              -0.000018843               0.005022945              -0.000102772              -0.000634933               0.001885942               0.001251010               0.000000000               0.000000000               0.000000000               0.000000000               0.002375741               0.017569442               0.003614681              -0.001305276               0.006291514               0.004986237               0.000000000               0.000000000               0.000000000               0.000000000               0.001601750               0.014368037               0.001882123              -0.001195346               0.005187746               0.003992400               0.000000000               0.000000000               0.000000000               0.000000000               0.001387866               0.012044863               0.000191684              -0.000985156               0.004343299               0.003358144               0.000000000               0.000000000               0.000000000               0.000000000               0.001030721               0.010667774              -0.000462784              -0.000946949               0.003871539               0.002924590               0.000000000               0.000000000               0.000000000               0.000000000               0.000716273               0.009740404              -0.000709557              -0.000948946               0.003563084               0.002614138               0.000000000               0.000000000               0.000000000               0.000000000               0.000472509               0.009050635              -0.000790038              -0.000954136               0.003334894               0.002380757               0.000000000               0.000000000               0.000000000               0.000000000               0.000290073               0.008498036              -0.000797719              -0.000953475               0.003150475               0.002197000               0.000000000               0.000000000               0.000000000               0.000000000               0.000151886               0.008034469              -0.000773206              -0.000947349               0.002993913               0.002046563               0.000000000               0.000000000               0.000000000               0.000000000               0.000049067               0.007625477              -0.000732942              -0.000934783               0.002853394               0.001918612               0.000000000               0.000000000               0.000000000               0.000000000              -0.000015520               0.007256797              -0.000682787              -0.000912918               0.002723214               0.001810297               0.000000000               0.000000000               0.000000000               0.000000000              -0.000050364               0.006917690              -0.000628540              -0.000883596               0.002600405               0.001716810               0.000000000               0.000000000               0.000000000               0.000000000              -0.000066630               0.006607633              -0.000569815              -0.000850938               0.002486168               0.001635230               0.000000000               0.000000000               0.000000000               0.000000000              -0.000067975               0.006327015              -0.000504217              -0.000816366               0.002381106               0.001564740               0.000000000               0.000000000               0.000000000               0.000000000              -0.000059143               0.006072148              -0.000420672              -0.000781195               0.002284427               0.001503232               0.000000000               0.000000000               0.000000000               0.000000000              -0.000042778               0.005846034              -0.000308112              -0.000746794               0.002197590               0.001450796               0.000000000               0.000000000               0.000000000               0.000000000              -0.000023364               0.005662813              -0.000165491              -0.000716611               0.002126456               0.001409845               0.000000000               0.000000000               0.000000000               0.000000000              -0.000019461               0.005568640              -0.000089955              -0.000703376               0.002090653               0.001387277               0.000000000               0.000000000               0.000000000               0.000000000               0.002468730               0.015314703               0.004092444              -0.000988565               0.005434371               0.004445806               0.000000000               0.000000000               0.000000000               0.000000000               0.001279757               0.012951638               0.002165289              -0.001139045               0.004696851               0.003557806               0.000000000               0.000000000               0.000000000               0.000000000               0.000628685               0.011423721               0.000310244              -0.001192205               0.004205271               0.003013065               0.000000000               0.000000000               0.000000000               0.000000000               0.000188104               0.010395911              -0.000371731              -0.001228947               0.003874918               0.002645971               0.000000000               0.000000000               0.000000000               0.000000000              -0.000080069               0.009632446              -0.000615923              -0.001234079               0.003622143               0.002388064               0.000000000               0.000000000               0.000000000               0.000000000              -0.000239234               0.009021831              -0.000686464              -0.001217439               0.003413060               0.002195621               0.000000000               0.000000000               0.000000000               0.000000000              -0.000325039               0.008506357              -0.000689501              -0.001185181               0.003230485               0.002045303               0.000000000               0.000000000               0.000000000               0.000000000              -0.000359311               0.008058383              -0.000665261              -0.001142037               0.003066780               0.001924743               0.000000000               0.000000000               0.000000000               0.000000000              -0.000358581               0.007660015              -0.000624268              -0.001091967               0.002917302               0.001825335               0.000000000               0.000000000               0.000000000               0.000000000              -0.000334774               0.007303003              -0.000573210              -0.001038413               0.002780448               0.001742035               0.000000000               0.000000000               0.000000000               0.000000000              -0.000294000               0.006985855              -0.000516081              -0.000983479               0.002656422               0.001672942               0.000000000               0.000000000               0.000000000               0.000000000              -0.000242784               0.006701653              -0.000455815              -0.000928748               0.002543445               0.001614696               0.000000000               0.000000000               0.000000000               0.000000000              -0.000185024               0.006450814              -0.000392406              -0.000875734               0.002442161               0.001566427               0.000000000               0.000000000               0.000000000               0.000000000              -0.000128765               0.006239259              -0.000316246              -0.000828192               0.002355796               0.001527604               0.000000000               0.000000000               0.000000000               0.000000000              -0.000080359               0.006073816              -0.000219136              -0.000789360               0.002287705               0.001498345               0.000000000               0.000000000               0.000000000               0.000000000              -0.000037742               0.005962900              -0.000110641              -0.000759514               0.002240785               0.001481271               0.000000000               0.000000000               0.000000000               0.000000000              -0.000021290               0.005915350              -0.000058474              -0.000747401               0.002220897               0.001473497               0.000000000               0.000000000               0.000000000               0.000000000               0.002347880               0.012875061               0.004151889              -0.000728930               0.004534620               0.003805690               0.000000000               0.000000000               0.000000000               0.000000000               0.000829813               0.011443367               0.002280134              -0.001119240               0.004187497               0.003068257               0.000000000               0.000000000               0.000000000               0.000000000              -0.000178417               0.010737327               0.000491611              -0.001409069               0.004048763               0.002639694               0.000000000               0.000000000               0.000000000               0.000000000              -0.000622606               0.010040663              -0.000137008              -0.001488556               0.003843040               0.002354483               0.000000000               0.000000000               0.000000000               0.000000000              -0.000795027               0.009427848              -0.000355574              -0.001476612               0.003634789               0.002158176               0.000000000               0.000000000               0.000000000               0.000000000              -0.000834394               0.008891277              -0.000421051              -0.001424304               0.003438497               0.002014194               0.000000000               0.000000000               0.000000000               0.000000000              -0.000802764               0.008417615              -0.000430166              -0.001353235               0.003256922               0.001903687               0.000000000               0.000000000               0.000000000               0.000000000              -0.000734112               0.007995446              -0.000416757              -0.001274720               0.003090028               0.001815309               0.000000000               0.000000000               0.000000000               0.000000000              -0.000642435               0.007619313              -0.000388502              -0.001193324               0.002937520               0.001744196               0.000000000               0.000000000               0.000000000               0.000000000              -0.000541888               0.007279204              -0.000351746              -0.001113106               0.002797412               0.001684307               0.000000000               0.000000000               0.000000000               0.000000000              -0.000441335               0.006970905              -0.000309681              -0.001036861               0.002669232               0.001632371               0.000000000               0.000000000               0.000000000               0.000000000              -0.000341303               0.006694110              -0.000265052              -0.000964750               0.002552931               0.001588181               0.000000000               0.000000000               0.000000000               0.000000000              -0.000247139               0.006455098              -0.000223031              -0.000899562               0.002451532               0.001551970               0.000000000               0.000000000               0.000000000               0.000000000              -0.000168223               0.006257860              -0.000176321              -0.000845314               0.002367704               0.001522390               0.000000000               0.000000000               0.000000000               0.000000000              -0.000103675               0.006106783              -0.000119095              -0.000802224               0.002302982               0.001500758               0.000000000               0.000000000               0.000000000               0.000000000              -0.000047859               0.006000035              -0.000057447              -0.000767950               0.002255975               0.001488025               0.000000000               0.000000000               0.000000000               0.000000000              -0.000033921               0.005938803              -0.000033298              -0.000755069               0.002231271               0.001476202               0.000000000               0.000000000               0.000000000               0.000000000               0.001956493               0.010448918               0.003865566              -0.000572432               0.003673748               0.003101315               0.000000000               0.000000000               0.000000000               0.000000000               0.000283053               0.009960871               0.002274978              -0.001138963               0.003699911               0.002560948               0.000000000               0.000000000               0.000000000               0.000000000              -0.000936673               0.010018619               0.000743751              -0.001603576               0.003874032               0.002270456               0.000000000               0.000000000               0.000000000               0.000000000              -0.001295662               0.009606101               0.000209695              -0.001686632               0.003764212               0.002077580               0.000000000               0.000000000               0.000000000               0.000000000              -0.001329229               0.009123257               0.000007683              -0.001638864               0.003587343               0.001948480               0.000000000               0.000000000               0.000000000               0.000000000              -0.001234707               0.008658151              -0.000070281              -0.001545280               0.003401115               0.001855835               0.000000000               0.000000000               0.000000000               0.000000000              -0.001092328               0.008232877              -0.000100668              -0.001438729               0.003223841               0.001785112               0.000000000               0.000000000               0.000000000               0.000000000              -0.000930413               0.007845924              -0.000112458              -0.001329642               0.003058496               0.001728854               0.000000000               0.000000000               0.000000000               0.000000000              -0.000765714               0.007482276              -0.000110644              -0.001222424               0.002901542               0.001679118               0.000000000               0.000000000               0.000000000               0.000000000              -0.000615647               0.007137811              -0.000098251              -0.001123091               0.002753610               0.001630519               0.000000000               0.000000000               0.000000000               0.000000000              -0.000483213               0.006816556              -0.000083017              -0.001033272               0.002616587               0.001583315               0.000000000               0.000000000               0.000000000               0.000000000              -0.000363647               0.006532178              -0.000070044              -0.000952888               0.002495000               0.001542113               0.000000000               0.000000000               0.000000000               0.000000000              -0.000261024               0.006293156              -0.000064634              -0.000884526               0.002392540               0.001508013               0.000000000               0.000000000               0.000000000               0.000000000              -0.000179523               0.006097718              -0.000060228              -0.000829534               0.002309063               0.001479530               0.000000000               0.000000000               0.000000000               0.000000000              -0.000112651               0.005941240              -0.000048591              -0.000784897               0.002242026               0.001457129               0.000000000               0.000000000               0.000000000               0.000000000              -0.000052701               0.005812594              -0.000027726              -0.000746335               0.002186290               0.001439955               0.000000000               0.000000000               0.000000000               0.000000000              -0.000042443               0.005728632              -0.000025019              -0.000731993               0.002153523               0.001421529               0.000000000               0.000000000               0.000000000               0.000000000               0.001322391               0.008191407               0.003320508              -0.000528031               0.002906451               0.002378420               0.000000000               0.000000000               0.000000000               0.000000000              -0.000326357               0.008591519               0.002191143              -0.001196322               0.003262584               0.002066262               0.000000000               0.000000000               0.000000000               0.000000000              -0.001570476               0.009284468               0.001056726              -0.001749483               0.003677953               0.001928470               0.000000000               0.000000000               0.000000000               0.000000000              -0.001769488               0.009104012               0.000611554              -0.001801555               0.003635159               0.001833603               0.000000000               0.000000000               0.000000000               0.000000000              -0.001648446               0.008738137               0.000399083              -0.001710430               0.003482827               0.001772396               0.000000000               0.000000000               0.000000000               0.000000000              -0.001428331               0.008352620               0.000288675              -0.001579698               0.003310745               0.001731047               0.000000000               0.000000000               0.000000000               0.000000000              -0.001189448               0.007978790               0.000222491              -0.001443388               0.003140700               0.001697311               0.000000000               0.000000000               0.000000000               0.000000000              -0.000965053               0.007605804               0.000179837              -0.001312617               0.002972782               0.001660165               0.000000000               0.000000000               0.000000000               0.000000000              -0.000766884               0.007231608               0.000153423              -0.001191529               0.002807688               0.001616159               0.000000000               0.000000000               0.000000000               0.000000000              -0.000592886               0.006870488               0.000132958              -0.001081140               0.002650520               0.001569379               0.000000000               0.000000000               0.000000000               0.000000000              -0.000446389               0.006538723               0.000108419              -0.000984734               0.002507797               0.001523063               0.000000000               0.000000000               0.000000000               0.000000000              -0.000326926               0.006252898               0.000075206              -0.000904207               0.002385681               0.001481474               0.000000000               0.000000000               0.000000000               0.000000000              -0.000233632               0.006015725               0.000033817              -0.000839575               0.002285080               0.001445505               0.000000000               0.000000000               0.000000000               0.000000000              -0.000161026               0.005819112              -0.000004256              -0.000787772               0.002202275               0.001414503               0.000000000               0.000000000               0.000000000               0.000000000              -0.000100755               0.005654310              -0.000025325              -0.000744570               0.002132941               0.001388371               0.000000000               0.000000000               0.000000000               0.000000000              -0.000049812               0.005517572              -0.000023874              -0.000708374               0.002075297               0.001366923               0.000000000               0.000000000               0.000000000               0.000000000              -0.000039054               0.005435603              -0.000025543              -0.000694094               0.002043214               0.001349120               0.000000000               0.000000000               0.000000000               0.000000000               0.000551357               0.006273306               0.002623451              -0.000577405               0.002283548               0.001706143               0.000000000               0.000000000               0.000000000               0.000000000              -0.000908541               0.007365429               0.002075630              -0.001261379               0.002875578               0.001614198               0.000000000               0.000000000               0.000000000               0.000000000              -0.002039711               0.008570326               0.001419464              -0.001836178               0.003468806               0.001632628               0.000000000               0.000000000               0.000000000               0.000000000              -0.002071258               0.008629307               0.001032911              -0.001855381               0.003494867               0.001639486               0.000000000               0.000000000               0.000000000               0.000000000              -0.001824720               0.008402872               0.000789490              -0.001734625               0.003379137               0.001644513               0.000000000               0.000000000               0.000000000               0.000000000              -0.001510974               0.008103176               0.000631083              -0.001579509               0.003227534               0.001648026               0.000000000               0.000000000               0.000000000               0.000000000              -0.001210038               0.007764506               0.000525482              -0.001424324               0.003062918               0.001638593               0.000000000               0.000000000               0.000000000               0.000000000              -0.000940856               0.007402018               0.000451544              -0.001278070               0.002893338               0.001615268               0.000000000               0.000000000               0.000000000               0.000000000              -0.000712227               0.007027976               0.000393592              -0.001145579               0.002724495               0.001578916               0.000000000               0.000000000               0.000000000               0.000000000              -0.000519261               0.006664483               0.000337359              -0.001027780               0.002564065               0.001536285               0.000000000               0.000000000               0.000000000               0.000000000              -0.000364156               0.006335555               0.000269951              -0.000928501               0.002421331               0.001492830               0.000000000               0.000000000               0.000000000               0.000000000              -0.000254875               0.006052945               0.000192462              -0.000852194               0.002301693               0.001449499               0.000000000               0.000000000               0.000000000               0.000000000              -0.000186696               0.005812638               0.000113943              -0.000796589               0.002203056               0.001406467               0.000000000               0.000000000               0.000000000               0.000000000              -0.000144995               0.005602081               0.000045489              -0.000754631               0.002118885               0.001364254               0.000000000               0.000000000               0.000000000               0.000000000              -0.000114713               0.005418626              -0.000001723              -0.000720344               0.002046305               0.001325962               0.000000000               0.000000000               0.000000000               0.000000000              -0.000098471               0.005261412              -0.000021435              -0.000694601               0.001985320               0.001290719               0.000000000               0.000000000               0.000000000               0.000000000              -0.000090131               0.005184662              -0.000024137              -0.000681880               0.001955497               0.001273617               0.000000000               0.000000000               0.000000000               0.000000000              -0.000377399               0.004490536               0.001879712              -0.000702841               0.001731110               0.001028269               0.000000000               0.000000000               0.000000000               0.000000000              -0.001380702               0.005961590               0.001940766              -0.001262960               0.002408163               0.001145203               0.000000000               0.000000000               0.000000000               0.000000000              -0.002283076               0.007531425               0.001802933              -0.001797578               0.003109642               0.001312064               0.000000000               0.000000000               0.000000000               0.000000000              -0.002233102               0.007920873               0.001488342              -0.001827518               0.003249437               0.001421919               0.000000000               0.000000000               0.000000000               0.000000000              -0.001940235               0.007928588               0.001217951              -0.001718658               0.003215722               0.001497064               0.000000000               0.000000000               0.000000000               0.000000000              -0.001598175               0.007782042               0.001010176              -0.001572067               0.003118010               0.001545943               0.000000000               0.000000000               0.000000000               0.000000000              -0.001274096               0.007544688               0.000856349              -0.001420869               0.002988494               0.001567625               0.000000000               0.000000000               0.000000000               0.000000000              -0.000986541               0.007258137               0.000739593              -0.001277217               0.002845093               0.001567877               0.000000000               0.000000000               0.000000000               0.000000000              -0.000743792               0.006936715               0.000644240              -0.001146008               0.002694218               0.001548210               0.000000000               0.000000000               0.000000000               0.000000000              -0.000544088               0.006605554               0.000553356              -0.001029725               0.002545071               0.001515346               0.000000000               0.000000000               0.000000000               0.000000000              -0.000385978               0.006284198               0.000452506              -0.000930264               0.002404800               0.001474536               0.000000000               0.000000000               0.000000000               0.000000000              -0.000272790               0.005993620               0.000344319              -0.000851497               0.002281685               0.001430189               0.000000000               0.000000000               0.000000000               0.000000000              -0.000205698               0.005738073               0.000237799              -0.000794394               0.002177470               0.001383076               0.000000000               0.000000000               0.000000000               0.000000000              -0.000177545               0.005520024               0.000141878              -0.000756580               0.002092183               0.001335603               0.000000000               0.000000000               0.000000000               0.000000000              -0.000174095               0.005331616               0.000060834              -0.000731736               0.002021099               0.001289364               0.000000000               0.000000000               0.000000000               0.000000000              -0.000189803               0.005158352               0.000006741              -0.000715969               0.001958090               0.001242121               0.000000000               0.000000000               0.000000000               0.000000000              -0.000198243               0.005076594              -0.000009674              -0.000708914               0.001928485               0.001219572               0.000000000               0.000000000               0.000000000               0.000000000              -0.001595054               0.002878730               0.001133772              -0.000957985               0.001278895               0.000320910               0.000000000               0.000000000               0.000000000               0.000000000              -0.001920318               0.004562755               0.001739539              -0.001290461               0.001951056               0.000660595               0.000000000               0.000000000               0.000000000               0.000000000              -0.002438555               0.006334178               0.002099180              -0.001706227               0.002680113               0.000973886               0.000000000               0.000000000               0.000000000               0.000000000              -0.002316654               0.007032576               0.001914483              -0.001747814               0.002926772               0.001178959               0.000000000               0.000000000               0.000000000               0.000000000              -0.002006911               0.007296894               0.001652180              -0.001664700               0.002987173               0.001322473               0.000000000               0.000000000               0.000000000               0.000000000              -0.001663414               0.007335147               0.001414403              -0.001540670               0.002958581               0.001417911               0.000000000               0.000000000               0.000000000               0.000000000              -0.001337318               0.007240504               0.001221870              -0.001406554               0.002882328               0.001475774               0.000000000               0.000000000               0.000000000               0.000000000              -0.001041724               0.007068014               0.001064578              -0.001274145               0.002780696               0.001506551               0.000000000               0.000000000               0.000000000               0.000000000              -0.000784675               0.006840848               0.000930836              -0.001149356               0.002663379               0.001514022               0.000000000               0.000000000               0.000000000               0.000000000              -0.000569016               0.006579911               0.000808985              -0.001035868               0.002538571               0.001502703               0.000000000               0.000000000               0.000000000               0.000000000              -0.000392421               0.006296040               0.000686809              -0.000934161               0.002410046               0.001475885               0.000000000               0.000000000               0.000000000               0.000000000              -0.000254270               0.006015654               0.000561651              -0.000847306               0.002287633               0.001440327               0.000000000               0.000000000               0.000000000               0.000000000              -0.000162393               0.005756937               0.000432512              -0.000780512               0.002179131               0.001398618               0.000000000               0.000000000               0.000000000               0.000000000              -0.000123700               0.005531348               0.000304597              -0.000737804               0.002089699               0.001351895               0.000000000               0.000000000               0.000000000               0.000000000              -0.000141986               0.005328859               0.000181536              -0.000719350               0.002016052               0.001296702               0.000000000               0.000000000               0.000000000               0.000000000              -0.000203336               0.005152440               0.000075562              -0.000720304               0.001957564               0.001237260               0.000000000               0.000000000               0.000000000               0.000000000              -0.000258790               0.005062069               0.000022856              -0.000729803               0.001930607               0.001200804               0.000000000               0.000000000               0.000000000               0.000000000              -0.003019561               0.001553648               0.000441010              -0.001326539               0.000960056              -0.000366483               0.000000000               0.000000000               0.000000000               0.000000000              -0.002575554               0.003249964               0.001450622              -0.001372075               0.001540668               0.000168593               0.000000000               0.000000000               0.000000000               0.000000000              -0.002548751               0.004997959               0.002210836              -0.001580523               0.002192810               0.000612286               0.000000000               0.000000000               0.000000000               0.000000000              -0.002282147               0.005915118               0.002190482              -0.001595192               0.002503416               0.000908224               0.000000000               0.000000000               0.000000000               0.000000000              -0.001945925               0.006411777               0.001981740              -0.001531191               0.002647634               0.001116443               0.000000000               0.000000000               0.000000000               0.000000000              -0.001607462               0.006647673               0.001748081              -0.001433754               0.002693787               0.001260032               0.000000000               0.000000000               0.000000000               0.000000000              -0.001293044               0.006719758               0.001538742              -0.001324859               0.002681516               0.001356658               0.000000000               0.000000000               0.000000000               0.000000000              -0.001008415               0.006682704               0.001358896              -0.001213491               0.002632042               0.001418551               0.000000000               0.000000000               0.000000000               0.000000000              -0.000753623               0.006572375               0.001199076              -0.001104153               0.002558821               0.001454667               0.000000000               0.000000000               0.000000000               0.000000000              -0.000529324               0.006412583               0.001052934              -0.001000067               0.002470862               0.001470794               0.000000000               0.000000000               0.000000000               0.000000000              -0.000333956               0.006209604               0.000914354              -0.000901432               0.002370325               0.001468892               0.000000000               0.000000000               0.000000000               0.000000000              -0.000168422               0.005982862               0.000777243              -0.000811014               0.002264605               0.001453591               0.000000000               0.000000000               0.000000000               0.000000000              -0.000041264               0.005754856               0.000634061              -0.000734829               0.002163209               0.001428380               0.000000000               0.000000000               0.000000000               0.000000000               0.000035742               0.005538727               0.000481611              -0.000678936               0.002072536               0.001393600               0.000000000               0.000000000               0.000000000               0.000000000               0.000043820               0.005333675               0.000320255              -0.000650275               0.001994632               0.001344357               0.000000000               0.000000000               0.000000000               0.000000000              -0.000022414               0.005155227               0.000157351              -0.000652807               0.001935994               0.001283187               0.000000000               0.000000000               0.000000000               0.000000000              -0.000102977               0.005056187               0.000066872              -0.000670638               0.001908925               0.001238287               0.000000000               0.000000000               0.000000000               0.000000000              -0.004554648               0.000573338              -0.000107597              -0.001779658               0.000784327              -0.000995332               0.000000000               0.000000000               0.000000000               0.000000000              -0.003307727               0.002088250               0.001109667              -0.001501426               0.001196550              -0.000304876               0.000000000               0.000000000               0.000000000               0.000000000              -0.002639048               0.003630061               0.002114334              -0.001443398               0.001691140               0.000247742               0.000000000               0.000000000               0.000000000               0.000000000              -0.002155598               0.004658381               0.002245829              -0.001390644               0.002016325               0.000625681               0.000000000               0.000000000               0.000000000               0.000000000              -0.001762660               0.005338216               0.002114802              -0.001328272               0.002222144               0.000893872               0.000000000               0.000000000               0.000000000               0.000000000              -0.001423849               0.005753977               0.001917974              -0.001253188               0.002335702               0.001082514               0.000000000               0.000000000               0.000000000               0.000000000              -0.001124669               0.005993906               0.001719630              -0.001170987               0.002388277               0.001217290               0.000000000               0.000000000               0.000000000               0.000000000              -0.000858672               0.006108193               0.001537239              -0.001085524               0.002397885               0.001312361               0.000000000               0.000000000               0.000000000               0.000000000              -0.000617918               0.006128326               0.001371493              -0.000997758               0.002375341               0.001377583               0.000000000               0.000000000               0.000000000               0.000000000              -0.000397244               0.006083324               0.001220031              -0.000909380               0.002330881               0.001421501               0.000000000               0.000000000               0.000000000               0.000000000              -0.000191625               0.005987410               0.001078234              -0.000820284               0.002269211               0.001448927               0.000000000               0.000000000               0.000000000               0.000000000              -0.000002133               0.005850625               0.000937711              -0.000732126               0.002194231               0.001462105               0.000000000               0.000000000               0.000000000               0.000000000               0.000167066               0.005687667               0.000791520              -0.000648307               0.002111973               0.001463665               0.000000000               0.000000000               0.000000000               0.000000000               0.000303775               0.005510296               0.000628892              -0.000574870               0.002028370               0.001453500               0.000000000               0.000000000               0.000000000               0.000000000               0.000387181               0.005330079               0.000442019              -0.000521066               0.001950364               0.001429298               0.000000000               0.000000000               0.000000000               0.000000000               0.000397465               0.005161498               0.000230069              -0.000496137               0.001885861               0.001389724               0.000000000               0.000000000               0.000000000               0.000000000               0.000363436               0.005069204               0.000112663              -0.000497361               0.001855505               0.001358144               0.000000000               0.000000000               0.000000000               0.000000000              -0.006044871              -0.000074457              -0.000430343              -0.002257518               0.000727682              -0.001529836               0.000000000               0.000000000               0.000000000               0.000000000              -0.004050263               0.001140826               0.000764194              -0.001661450               0.000934085              -0.000727365               0.000000000               0.000000000               0.000000000               0.000000000              -0.002726271               0.002363666               0.001806647              -0.001317808               0.001227149              -0.000090659               0.000000000               0.000000000               0.000000000               0.000000000              -0.001987159               0.003399169               0.002034200              -0.001170079               0.001523070               0.000352991               0.000000000               0.000000000               0.000000000               0.000000000              -0.001503325               0.004193808               0.001980421              -0.001087971               0.001760578               0.000672607               0.000000000               0.000000000               0.000000000               0.000000000              -0.001147139               0.004756878               0.001836098              -0.001024785               0.001927204               0.000902419               0.000000000               0.000000000               0.000000000               0.000000000              -0.000859983               0.005141566               0.001671899              -0.000965188               0.002035567               0.001070379               0.000000000               0.000000000               0.000000000               0.000000000              -0.000611332               0.005394111               0.001512091              -0.000903512               0.002099189               0.001195677               0.000000000               0.000000000               0.000000000               0.000000000              -0.000381893               0.005548611               0.001361907              -0.000836785               0.002128446               0.001291662               0.000000000               0.000000000               0.000000000               0.000000000              -0.000164931               0.005620964               0.001224515              -0.000764468               0.002128459               0.001363990               0.000000000               0.000000000               0.000000000               0.000000000               0.000044211               0.005635023               0.001095618              -0.000687798               0.002107588               0.001419790               0.000000000               0.000000000               0.000000000               0.000000000               0.000253107               0.005604037               0.000968968              -0.000605589               0.002069856               0.001464268               0.000000000               0.000000000               0.000000000               0.000000000               0.000462165               0.005528339               0.000836997              -0.000517730               0.002015338               0.001497608               0.000000000               0.000000000               0.000000000               0.000000000               0.000663418               0.005420366               0.000682059              -0.000428763               0.001949692               0.001520929               0.000000000               0.000000000               0.000000000               0.000000000               0.000844624               0.005292685               0.000493811              -0.000344851               0.001879161               0.001534310               0.000000000               0.000000000               0.000000000               0.000000000               0.000991383               0.005151348               0.000266077              -0.000272149               0.001807815               0.001535666               0.000000000               0.000000000               0.000000000               0.000000000               0.001074168               0.005083481               0.000144662              -0.000232622               0.001772017               0.001539396               0.000000000               0.000000000               0.000000000               0.000000000              -0.007307001              -0.000445730              -0.000487044              -0.002684407               0.000746221              -0.001938187               0.000000000               0.000000000               0.000000000               0.000000000              -0.004704451               0.000451345               0.000458371              -0.001820585               0.000757305              -0.001063281               0.000000000               0.000000000               0.000000000               0.000000000              -0.002809110               0.001338808               0.001313079              -0.001220765               0.000853185              -0.000367581               0.000000000               0.000000000               0.000000000               0.000000000              -0.001823963               0.002314224               0.001547065              -0.000973263               0.001095820               0.000122558               0.000000000               0.000000000               0.000000000               0.000000000              -0.001237679               0.003156891               0.001547914              -0.000858740               0.001338532               0.000479793               0.000000000               0.000000000               0.000000000               0.000000000              -0.000849623               0.003816585               0.001460214              -0.000795681               0.001537409               0.000741728               0.000000000               0.000000000               0.000000000               0.000000000              -0.000561332               0.004314862               0.001344577              -0.000749856               0.001688225               0.000938368               0.000000000               0.000000000               0.000000000               0.000000000              -0.000322767               0.004677523               0.001227875              -0.000705727               0.001794401               0.001088674               0.000000000               0.000000000               0.000000000               0.000000000              -0.000104926               0.004939517               0.001114742              -0.000656786               0.001865418               0.001208632               0.000000000               0.000000000               0.000000000               0.000000000               0.000106427               0.005119503               0.001007603              -0.000600027               0.001906493               0.001306466               0.000000000               0.000000000               0.000000000               0.000000000               0.000318740               0.005232559               0.000908517              -0.000534541               0.001922349               0.001387808               0.000000000               0.000000000               0.000000000               0.000000000               0.000543895               0.005292558               0.000814821              -0.000457608               0.001916704               0.001459096               0.000000000               0.000000000               0.000000000               0.000000000               0.000783357               0.005306707               0.000713498              -0.000369579               0.001892077               0.001522499               0.000000000               0.000000000               0.000000000               0.000000000               0.001040263               0.005282123               0.000588966              -0.000270166               0.001850746               0.001580579               0.000000000               0.000000000               0.000000000               0.000000000               0.001318774               0.005220718               0.000433706              -0.000158049               0.001792905               0.001634856               0.000000000               0.000000000               0.000000000               0.000000000               0.001613621               0.005121258               0.000239070              -0.000035050               0.001718752               0.001683703               0.000000000               0.000000000               0.000000000               0.000000000               0.001830767               0.005085752               0.000139152               0.000050818               0.001678294               0.001729112               0.000000000               0.000000000               0.000000000               0.000000000              -0.008155000              -0.000624926              -0.000311684              -0.002980007               0.000785022              -0.002194985               0.000000000               0.000000000               0.000000000               0.000000000              -0.005157653               0.000032318               0.000209631              -0.001938158               0.000656821              -0.001281337               0.000000000               0.000000000               0.000000000               0.000000000              -0.002872632               0.000668662               0.000689911              -0.001160818               0.000609822              -0.000550996               0.000000000               0.000000000               0.000000000               0.000000000              -0.001705204               0.001579930               0.000835422              -0.000836941               0.000805618              -0.000031324               0.000000000               0.000000000               0.000000000               0.000000000              -0.001036591               0.002435047               0.000851353              -0.000693101               0.001042708               0.000349606               0.000000000               0.000000000               0.000000000               0.000000000              -0.000618180               0.003138963               0.000813619              -0.000624187               0.001254372               0.000630186               0.000000000               0.000000000               0.000000000               0.000000000              -0.000322681               0.003698812               0.000754697              -0.000583356               0.001427377               0.000844021               0.000000000               0.000000000               0.000000000               0.000000000              -0.000088874               0.004134301               0.000692384              -0.000550114               0.001561458               0.001011344               0.000000000               0.000000000               0.000000000               0.000000000               0.000120491               0.004472129               0.000630926              -0.000513831               0.001661972               0.001148141               0.000000000               0.000000000               0.000000000               0.000000000               0.000325123               0.004724038               0.000571863              -0.000468583               0.001730858               0.001262275               0.000000000               0.000000000               0.000000000               0.000000000               0.000539484               0.004907447               0.000519152              -0.000411124               0.001772840               0.001361717               0.000000000               0.000000000               0.000000000               0.000000000               0.000771049               0.005035226               0.000469774              -0.000340259               0.001791811               0.001451552               0.000000000               0.000000000               0.000000000               0.000000000               0.001026989               0.005114939               0.000413546              -0.000254246               0.001789711               0.001535465               0.000000000               0.000000000               0.000000000               0.000000000               0.001322148               0.005152085               0.000345141              -0.000148205               0.001766746               0.001618541               0.000000000               0.000000000               0.000000000               0.000000000               0.001671212               0.005144836               0.000257033              -0.000016400               0.001720395               0.001703995               0.000000000               0.000000000               0.000000000               0.000000000               0.002084033               0.005087099               0.000141086               0.000145623               0.001647142               0.001792765               0.000000000               0.000000000               0.000000000               0.000000000               0.002412125               0.005081215               0.000082698               0.000269392               0.001603924               0.001873316               0.000000000               0.000000000               0.000000000               0.000000000               0.000000000               0.000000000               0.000000000               0.000000000               0.000000000               0.000000000               0.000000000               0.000000000               0.000000000               0.000000000               0.000000000               0.000000000               0.000000000               0.000000000               0.000000000               0.000000000               0.000000000               0.000000000               0.000000000               0.000000000               0.000000000               0.000000000               0.000000000               0.000000000               0.000000000               0.000000000               0.000000000               0.000000000               0.000000000               0.000000000               0.000000000               0.000000000               0.000000000               0.000000000               0.000000000               0.000000000               0.000000000               0.000000000               0.000000000               0.000000000               0.000000000               0.000000000               0.000000000               0.000000000               0.000000000               0.000000000               0.000000000               0.000000000               0.000000000               0.000000000               0.000000000               0.000000000               0.000000000               0.000000000               0.000000000               0.000000000               0.000000000               0.000000000               0.000000000               0.000000000               0.000000000               0.000000000               0.000000000               0.000000000               0.000000000               0.000000000               0.000000000               0.000000000               0.000000000               0.000000000               0.000000000               0.000000000               0.000000000               0.000000000               0.000000000               0.000000000               0.000000000               0.000000000               0.000000000               0.000000000               0.000000000               0.000000000               0.000000000               0.000000000               0.000000000               0.000000000               0.000000000               0.000000000               0.000000000               0.000000000               0.000000000               0.000000000               0.000000000               0.000000000               0.000000000               0.000000000               0.000000000               0.000000000               0.000000000               0.000000000               0.000000000               0.000000000               0.000000000               0.000000000               0.000000000               0.000000000               0.000000000               0.000000000               0.000000000               0.000000000               0.000000000               0.000000000               0.000000000               0.000000000               0.000000000               0.000000000               0.000000000               0.000000000               0.000000000               0.000000000               0.000000000               0.000000000               0.000000000               0.000000000               0.000000000               0.000000000               0.000000000               0.000000000               0.000000000               0.000000000               0.000000000               0.000000000               0.000000000               0.000000000               0.000000000               0.000000000               0.000000000               0.000000000               0.000000000               0.000000000               0.000000000               0.000000000               0.000000000               0.000000000               0.000000000               0.000000000               0.000000000               0.000000000               0.000000000               0.000000000               0.000000000               0.000000000               0.000000000               0.000000000               0.000000000               0.000000000               0.000000000               0.000000000               0.000000000               0.000000000               0.000000000               0.000000000               0.000000000               0.000000000               0.000000000               0.000000000               0.000000000               0.000000000               0.000000000               0.000000000 </DataArray>
</PointData>
</Piece>
</UnstructuredGrid> </VTKFile>
