<?xml version="1.0"?>
<VTKFile type="UnstructuredGrid" version="0.1">
<UnstructuredGrid>
<Piece NumberOfPoints="      1156" NumberOfCells="      1024">
<Points>
<DataArray type="Float64"                                    Name="coordinates"                                                      NumberOfComponents=" 3" format="ascii">
              0.133000000               0.000000000               0.000000000               0.155937500               0.000000000               0.000000000               0.178875000               0.000000000               0.000000000               0.201812500               0.000000000               0.000000000               0.224750000               0.000000000               0.000000000               0.247687500               0.000000000               0.000000000               0.270625000               0.000000000               0.000000000               0.293562500               0.000000000               0.000000000               0.316500000               0.000000000               0.000000000               0.339437500               0.000000000               0.000000000               0.362375000               0.000000000               0.000000000               0.385312500               0.000000000               0.000000000               0.408250000               0.000000000               0.000000000               0.431187500               0.000000000               0.000000000               0.454125000               0.000000000               0.000000000               0.477062500               0.000000000               0.000000000               0.500000000               0.000000000               0.000000000               0.132359569               0.013036280               0.000000000               0.155337096               0.016127762               0.000000000               0.178314623               0.019219245               0.000000000               0.201292150               0.022310727               0.000000000               0.224269676               0.025402210               0.000000000               0.247247203               0.028493692               0.000000000               0.270224730               0.031585175               0.000000000               0.293202257               0.034676657               0.000000000               0.316179784               0.037768140               0.000000000               0.339157311               0.040859622               0.000000000               0.362134838               0.043951105               0.000000000               0.385112365               0.047042587               0.000000000               0.408089892               0.050134070               0.000000000               0.431067419               0.053225552               0.000000000               0.454044946               0.056317035               0.000000000               0.477022473               0.059408517               0.000000000               0.500000000               0.062500000               0.000000000               0.130444442               0.025947013               0.000000000               0.153541665               0.032137825               0.000000000               0.176638887               0.038328636               0.000000000               0.199736109               0.044519448               0.000000000               0.222833332               0.050710260               0.000000000               0.245930554               0.056901071               0.000000000               0.269027776               0.063091883               0.000000000               0.292124999               0.069282695               0.000000000               0.315222221               0.075473506               0.000000000               0.338319444               0.081664318               0.000000000               0.361416666               0.087855130               0.000000000               0.384513888               0.094045942               0.000000000               0.407611111               0.100236753               0.000000000               0.430708333               0.106427565               0.000000000               0.453805555               0.112618377               0.000000000               0.476902778               0.118809188               0.000000000               0.500000000               0.125000000               0.000000000               0.127273065               0.038607862               0.000000000               0.150568498               0.047913621               0.000000000               0.173863932               0.057219379               0.000000000               0.197159365               0.066525138               0.000000000               0.220454798               0.075830897               0.000000000               0.243750232               0.085136655               0.000000000               0.267045665               0.094442414               0.000000000               0.290341099               0.103748172               0.000000000               0.313636532               0.113053931               0.000000000               0.336931966               0.122359690               0.000000000               0.360227399               0.131665448               0.000000000               0.383522833               0.140971207               0.000000000               0.406818266               0.150276966               0.000000000               0.430113700               0.159582724               0.000000000               0.453409133               0.168888483               0.000000000               0.476704567               0.178194241               0.000000000               0.500000000               0.187500000               0.000000000               0.122875978               0.050896897               0.000000000               0.146446229               0.063340840               0.000000000               0.170016481               0.075784784               0.000000000               0.193586732               0.088228728               0.000000000               0.217156983               0.100672672               0.000000000               0.240727235               0.113116616               0.000000000               0.264297486               0.125560560               0.000000000               0.287867738               0.138004504               0.000000000               0.311437989               0.150448448               0.000000000               0.335008240               0.162892392               0.000000000               0.358578492               0.175336336               0.000000000               0.382148743               0.187780280               0.000000000               0.405718994               0.200224224               0.000000000               0.429289246               0.212668168               0.000000000               0.452859497               0.225112112               0.000000000               0.476429749               0.237556056               0.000000000               0.500000000               0.250000000               0.000000000               0.117295528               0.062695766               0.000000000               0.141214558               0.078308531               0.000000000               0.165133587               0.093921295               0.000000000               0.189052617               0.109534060               0.000000000               0.212971646               0.125146824               0.000000000               0.236890676               0.140759589               0.000000000               0.260809705               0.156372354               0.000000000               0.284728735               0.171985118               0.000000000               0.308647764               0.187597883               0.000000000               0.332566794               0.203210648               0.000000000               0.356485823               0.218823412               0.000000000               0.380404853               0.234436177               0.000000000               0.404323882               0.250048941               0.000000000               0.428242912               0.265661706               0.000000000               0.452161941               0.281274471               0.000000000               0.476080971               0.296887235               0.000000000               0.500000000               0.312500000               0.000000000               0.110585458               0.073890841               0.000000000               0.134923867               0.092710163               0.000000000               0.159262276               0.111529486               0.000000000               0.183600685               0.130348808               0.000000000               0.207939094               0.149168131               0.000000000               0.232277503               0.167987453               0.000000000               0.256615912               0.186806776               0.000000000               0.280954320               0.205626098               0.000000000               0.305292729               0.224445420               0.000000000               0.329631138               0.243264743               0.000000000               0.353969547               0.262084065               0.000000000               0.378307956               0.280903388               0.000000000               0.402646365               0.299722710               0.000000000               0.426984773               0.318542033               0.000000000               0.451323182               0.337361355               0.000000000               0.475661591               0.356180678               0.000000000               0.500000000               0.375000000               0.000000000               0.102810390               0.084374307               0.000000000               0.127634741               0.106444663               0.000000000               0.152459092               0.128515018               0.000000000               0.177283442               0.150585374               0.000000000               0.202107793               0.172655730               0.000000000               0.226932143               0.194726086               0.000000000               0.251756494               0.216796442               0.000000000               0.276580845               0.238866798               0.000000000               0.301405195               0.260937153               0.000000000               0.326229546               0.283007509               0.000000000               0.351053896               0.305077865               0.000000000               0.375878247               0.327148221               0.000000000               0.400702598               0.349218577               0.000000000               0.425526948               0.371288933               0.000000000               0.450351299               0.393359288               0.000000000               0.475175649               0.415429644               0.000000000               0.500000000               0.437500000               0.000000000               0.094045202               0.094045202               0.000000000               0.119417377               0.119417377               0.000000000               0.144789552               0.144789552               0.000000000               0.170161727               0.170161727               0.000000000               0.195533901               0.195533901               0.000000000               0.220906076               0.220906076               0.000000000               0.246278251               0.246278251               0.000000000               0.271650426               0.271650426               0.000000000               0.297022601               0.297022601               0.000000000               0.322394776               0.322394776               0.000000000               0.347766951               0.347766951               0.000000000               0.373139126               0.373139126               0.000000000               0.398511300               0.398511300               0.000000000               0.423883475               0.423883475               0.000000000               0.449255650               0.449255650               0.000000000               0.474627825               0.474627825               0.000000000               0.500000000               0.500000000               0.000000000               0.084374307               0.102810390               0.000000000               0.106444663               0.127634741               0.000000000               0.128515018               0.152459092               0.000000000               0.150585374               0.177283442               0.000000000               0.172655730               0.202107793               0.000000000               0.194726086               0.226932143               0.000000000               0.216796442               0.251756494               0.000000000               0.238866798               0.276580845               0.000000000               0.260937153               0.301405195               0.000000000               0.283007509               0.326229546               0.000000000               0.305077865               0.351053896               0.000000000               0.327148221               0.375878247               0.000000000               0.349218577               0.400702598               0.000000000               0.371288933               0.425526948               0.000000000               0.393359288               0.450351299               0.000000000               0.415429644               0.475175649               0.000000000               0.437500000               0.500000000               0.000000000               0.073890841               0.110585458               0.000000000               0.092710163               0.134923867               0.000000000               0.111529486               0.159262276               0.000000000               0.130348808               0.183600685               0.000000000               0.149168131               0.207939094               0.000000000               0.167987453               0.232277503               0.000000000               0.186806776               0.256615912               0.000000000               0.205626098               0.280954320               0.000000000               0.224445420               0.305292729               0.000000000               0.243264743               0.329631138               0.000000000               0.262084065               0.353969547               0.000000000               0.280903388               0.378307956               0.000000000               0.299722710               0.402646365               0.000000000               0.318542033               0.426984773               0.000000000               0.337361355               0.451323182               0.000000000               0.356180678               0.475661591               0.000000000               0.375000000               0.500000000               0.000000000               0.062695766               0.117295528               0.000000000               0.078308531               0.141214558               0.000000000               0.093921295               0.165133587               0.000000000               0.109534060               0.189052617               0.000000000               0.125146824               0.212971646               0.000000000               0.140759589               0.236890676               0.000000000               0.156372354               0.260809705               0.000000000               0.171985118               0.284728735               0.000000000               0.187597883               0.308647764               0.000000000               0.203210648               0.332566794               0.000000000               0.218823412               0.356485823               0.000000000               0.234436177               0.380404853               0.000000000               0.250048941               0.404323882               0.000000000               0.265661706               0.428242912               0.000000000               0.281274471               0.452161941               0.000000000               0.296887235               0.476080971               0.000000000               0.312500000               0.500000000               0.000000000               0.050896897               0.122875978               0.000000000               0.063340840               0.146446229               0.000000000               0.075784784               0.170016481               0.000000000               0.088228728               0.193586732               0.000000000               0.100672672               0.217156983               0.000000000               0.113116616               0.240727235               0.000000000               0.125560560               0.264297486               0.000000000               0.138004504               0.287867738               0.000000000               0.150448448               0.311437989               0.000000000               0.162892392               0.335008240               0.000000000               0.175336336               0.358578492               0.000000000               0.187780280               0.382148743               0.000000000               0.200224224               0.405718994               0.000000000               0.212668168               0.429289246               0.000000000               0.225112112               0.452859497               0.000000000               0.237556056               0.476429749               0.000000000               0.250000000               0.500000000               0.000000000               0.038607862               0.127273065               0.000000000               0.047913621               0.150568498               0.000000000               0.057219379               0.173863932               0.000000000               0.066525138               0.197159365               0.000000000               0.075830897               0.220454798               0.000000000               0.085136655               0.243750232               0.000000000               0.094442414               0.267045665               0.000000000               0.103748172               0.290341099               0.000000000               0.113053931               0.313636532               0.000000000               0.122359690               0.336931966               0.000000000               0.131665448               0.360227399               0.000000000               0.140971207               0.383522833               0.000000000               0.150276966               0.406818266               0.000000000               0.159582724               0.430113700               0.000000000               0.168888483               0.453409133               0.000000000               0.178194241               0.476704567               0.000000000               0.187500000               0.500000000               0.000000000               0.025947013               0.130444442               0.000000000               0.032137825               0.153541665               0.000000000               0.038328636               0.176638887               0.000000000               0.044519448               0.199736109               0.000000000               0.050710260               0.222833332               0.000000000               0.056901071               0.245930554               0.000000000               0.063091883               0.269027776               0.000000000               0.069282695               0.292124999               0.000000000               0.075473506               0.315222221               0.000000000               0.081664318               0.338319444               0.000000000               0.087855130               0.361416666               0.000000000               0.094045942               0.384513888               0.000000000               0.100236753               0.407611111               0.000000000               0.106427565               0.430708333               0.000000000               0.112618377               0.453805555               0.000000000               0.118809188               0.476902778               0.000000000               0.125000000               0.500000000               0.000000000               0.013036280               0.132359569               0.000000000               0.016127762               0.155337096               0.000000000               0.019219245               0.178314623               0.000000000               0.022310727               0.201292150               0.000000000               0.025402210               0.224269676               0.000000000               0.028493692               0.247247203               0.000000000               0.031585175               0.270224730               0.000000000               0.034676657               0.293202257               0.000000000               0.037768140               0.316179784               0.000000000               0.040859622               0.339157311               0.000000000               0.043951105               0.362134838               0.000000000               0.047042587               0.385112365               0.000000000               0.050134070               0.408089892               0.000000000               0.053225552               0.431067419               0.000000000               0.056317035               0.454044946               0.000000000               0.059408517               0.477022473               0.000000000               0.062500000               0.500000000               0.000000000               0.000000000               0.133000000               0.000000000               0.000000000               0.155937500               0.000000000               0.000000000               0.178875000               0.000000000               0.000000000               0.201812500               0.000000000               0.000000000               0.224750000               0.000000000               0.000000000               0.247687500               0.000000000               0.000000000               0.270625000               0.000000000               0.000000000               0.293562500               0.000000000               0.000000000               0.316500000               0.000000000               0.000000000               0.339437500               0.000000000               0.000000000               0.362375000               0.000000000               0.000000000               0.385312500               0.000000000               0.000000000               0.408250000               0.000000000               0.000000000               0.431187500               0.000000000               0.000000000               0.454125000               0.000000000               0.000000000               0.477062500               0.000000000               0.000000000               0.500000000               0.000000000               0.133000000               0.000000000               0.000000000               0.155937500               0.000000000               0.000000000               0.178875000               0.000000000               0.000000000               0.201812500               0.000000000               0.000000000               0.224750000               0.000000000               0.000000000               0.247687500               0.000000000               0.000000000               0.270625000               0.000000000               0.000000000               0.293562500               0.000000000               0.000000000               0.316500000               0.000000000               0.000000000               0.339437500               0.000000000               0.000000000               0.362375000               0.000000000               0.000000000               0.385312500               0.000000000               0.000000000               0.408250000               0.000000000               0.000000000               0.431187500               0.000000000               0.000000000               0.454125000               0.000000000               0.000000000               0.477062500               0.000000000               0.000000000               0.500000000               0.000000000               0.000000000               0.132359569              -0.013036280               0.000000000               0.155337096              -0.016127762               0.000000000               0.178314623              -0.019219245               0.000000000               0.201292150              -0.022310727               0.000000000               0.224269676              -0.025402210               0.000000000               0.247247203              -0.028493692               0.000000000               0.270224730              -0.031585175               0.000000000               0.293202257              -0.034676657               0.000000000               0.316179784              -0.037768140               0.000000000               0.339157311              -0.040859622               0.000000000               0.362134838              -0.043951105               0.000000000               0.385112365              -0.047042587               0.000000000               0.408089892              -0.050134070               0.000000000               0.431067419              -0.053225552               0.000000000               0.454044946              -0.056317035               0.000000000               0.477022473              -0.059408517               0.000000000               0.500000000              -0.062500000               0.000000000               0.130444442              -0.025947013               0.000000000               0.153541665              -0.032137825               0.000000000               0.176638887              -0.038328636               0.000000000               0.199736109              -0.044519448               0.000000000               0.222833332              -0.050710260               0.000000000               0.245930554              -0.056901071               0.000000000               0.269027776              -0.063091883               0.000000000               0.292124999              -0.069282695               0.000000000               0.315222221              -0.075473506               0.000000000               0.338319444              -0.081664318               0.000000000               0.361416666              -0.087855130               0.000000000               0.384513888              -0.094045942               0.000000000               0.407611111              -0.100236753               0.000000000               0.430708333              -0.106427565               0.000000000               0.453805555              -0.112618377               0.000000000               0.476902778              -0.118809188               0.000000000               0.500000000              -0.125000000               0.000000000               0.127273065              -0.038607862               0.000000000               0.150568498              -0.047913621               0.000000000               0.173863932              -0.057219379               0.000000000               0.197159365              -0.066525138               0.000000000               0.220454798              -0.075830897               0.000000000               0.243750232              -0.085136655               0.000000000               0.267045665              -0.094442414               0.000000000               0.290341099              -0.103748172               0.000000000               0.313636532              -0.113053931               0.000000000               0.336931966              -0.122359690               0.000000000               0.360227399              -0.131665448               0.000000000               0.383522833              -0.140971207               0.000000000               0.406818266              -0.150276966               0.000000000               0.430113700              -0.159582724               0.000000000               0.453409133              -0.168888483               0.000000000               0.476704567              -0.178194241               0.000000000               0.500000000              -0.187500000               0.000000000               0.122875978              -0.050896897               0.000000000               0.146446229              -0.063340840               0.000000000               0.170016481              -0.075784784               0.000000000               0.193586732              -0.088228728               0.000000000               0.217156983              -0.100672672               0.000000000               0.240727235              -0.113116616               0.000000000               0.264297486              -0.125560560               0.000000000               0.287867738              -0.138004504               0.000000000               0.311437989              -0.150448448               0.000000000               0.335008240              -0.162892392               0.000000000               0.358578492              -0.175336336               0.000000000               0.382148743              -0.187780280               0.000000000               0.405718994              -0.200224224               0.000000000               0.429289246              -0.212668168               0.000000000               0.452859497              -0.225112112               0.000000000               0.476429749              -0.237556056               0.000000000               0.500000000              -0.250000000               0.000000000               0.117295528              -0.062695766               0.000000000               0.141214558              -0.078308531               0.000000000               0.165133587              -0.093921295               0.000000000               0.189052617              -0.109534060               0.000000000               0.212971646              -0.125146824               0.000000000               0.236890676              -0.140759589               0.000000000               0.260809705              -0.156372354               0.000000000               0.284728735              -0.171985118               0.000000000               0.308647764              -0.187597883               0.000000000               0.332566794              -0.203210648               0.000000000               0.356485823              -0.218823412               0.000000000               0.380404853              -0.234436177               0.000000000               0.404323882              -0.250048941               0.000000000               0.428242912              -0.265661706               0.000000000               0.452161941              -0.281274471               0.000000000               0.476080971              -0.296887235               0.000000000               0.500000000              -0.312500000               0.000000000               0.110585458              -0.073890841               0.000000000               0.134923867              -0.092710163               0.000000000               0.159262276              -0.111529486               0.000000000               0.183600685              -0.130348808               0.000000000               0.207939094              -0.149168131               0.000000000               0.232277503              -0.167987453               0.000000000               0.256615912              -0.186806776               0.000000000               0.280954320              -0.205626098               0.000000000               0.305292729              -0.224445420               0.000000000               0.329631138              -0.243264743               0.000000000               0.353969547              -0.262084065               0.000000000               0.378307956              -0.280903388               0.000000000               0.402646365              -0.299722710               0.000000000               0.426984773              -0.318542033               0.000000000               0.451323182              -0.337361355               0.000000000               0.475661591              -0.356180678               0.000000000               0.500000000              -0.375000000               0.000000000               0.102810390              -0.084374307               0.000000000               0.127634741              -0.106444663               0.000000000               0.152459092              -0.128515018               0.000000000               0.177283442              -0.150585374               0.000000000               0.202107793              -0.172655730               0.000000000               0.226932143              -0.194726086               0.000000000               0.251756494              -0.216796442               0.000000000               0.276580845              -0.238866798               0.000000000               0.301405195              -0.260937153               0.000000000               0.326229546              -0.283007509               0.000000000               0.351053896              -0.305077865               0.000000000               0.375878247              -0.327148221               0.000000000               0.400702598              -0.349218577               0.000000000               0.425526948              -0.371288933               0.000000000               0.450351299              -0.393359288               0.000000000               0.475175649              -0.415429644               0.000000000               0.500000000              -0.437500000               0.000000000               0.094045202              -0.094045202               0.000000000               0.119417377              -0.119417377               0.000000000               0.144789552              -0.144789552               0.000000000               0.170161727              -0.170161727               0.000000000               0.195533901              -0.195533901               0.000000000               0.220906076              -0.220906076               0.000000000               0.246278251              -0.246278251               0.000000000               0.271650426              -0.271650426               0.000000000               0.297022601              -0.297022601               0.000000000               0.322394776              -0.322394776               0.000000000               0.347766951              -0.347766951               0.000000000               0.373139126              -0.373139126               0.000000000               0.398511300              -0.398511300               0.000000000               0.423883475              -0.423883475               0.000000000               0.449255650              -0.449255650               0.000000000               0.474627825              -0.474627825               0.000000000               0.500000000              -0.500000000               0.000000000               0.084374307              -0.102810390               0.000000000               0.106444663              -0.127634741               0.000000000               0.128515018              -0.152459092               0.000000000               0.150585374              -0.177283442               0.000000000               0.172655730              -0.202107793               0.000000000               0.194726086              -0.226932143               0.000000000               0.216796442              -0.251756494               0.000000000               0.238866798              -0.276580845               0.000000000               0.260937153              -0.301405195               0.000000000               0.283007509              -0.326229546               0.000000000               0.305077865              -0.351053896               0.000000000               0.327148221              -0.375878247               0.000000000               0.349218577              -0.400702598               0.000000000               0.371288933              -0.425526948               0.000000000               0.393359288              -0.450351299               0.000000000               0.415429644              -0.475175649               0.000000000               0.437500000              -0.500000000               0.000000000               0.073890841              -0.110585458               0.000000000               0.092710163              -0.134923867               0.000000000               0.111529486              -0.159262276               0.000000000               0.130348808              -0.183600685               0.000000000               0.149168131              -0.207939094               0.000000000               0.167987453              -0.232277503               0.000000000               0.186806776              -0.256615912               0.000000000               0.205626098              -0.280954320               0.000000000               0.224445420              -0.305292729               0.000000000               0.243264743              -0.329631138               0.000000000               0.262084065              -0.353969547               0.000000000               0.280903388              -0.378307956               0.000000000               0.299722710              -0.402646365               0.000000000               0.318542033              -0.426984773               0.000000000               0.337361355              -0.451323182               0.000000000               0.356180678              -0.475661591               0.000000000               0.375000000              -0.500000000               0.000000000               0.062695766              -0.117295528               0.000000000               0.078308531              -0.141214558               0.000000000               0.093921295              -0.165133587               0.000000000               0.109534060              -0.189052617               0.000000000               0.125146824              -0.212971646               0.000000000               0.140759589              -0.236890676               0.000000000               0.156372354              -0.260809705               0.000000000               0.171985118              -0.284728735               0.000000000               0.187597883              -0.308647764               0.000000000               0.203210648              -0.332566794               0.000000000               0.218823412              -0.356485823               0.000000000               0.234436177              -0.380404853               0.000000000               0.250048941              -0.404323882               0.000000000               0.265661706              -0.428242912               0.000000000               0.281274471              -0.452161941               0.000000000               0.296887235              -0.476080971               0.000000000               0.312500000              -0.500000000               0.000000000               0.050896897              -0.122875978               0.000000000               0.063340840              -0.146446229               0.000000000               0.075784784              -0.170016481               0.000000000               0.088228728              -0.193586732               0.000000000               0.100672672              -0.217156983               0.000000000               0.113116616              -0.240727235               0.000000000               0.125560560              -0.264297486               0.000000000               0.138004504              -0.287867738               0.000000000               0.150448448              -0.311437989               0.000000000               0.162892392              -0.335008240               0.000000000               0.175336336              -0.358578492               0.000000000               0.187780280              -0.382148743               0.000000000               0.200224224              -0.405718994               0.000000000               0.212668168              -0.429289246               0.000000000               0.225112112              -0.452859497               0.000000000               0.237556056              -0.476429749               0.000000000               0.250000000              -0.500000000               0.000000000               0.038607862              -0.127273065               0.000000000               0.047913621              -0.150568498               0.000000000               0.057219379              -0.173863932               0.000000000               0.066525138              -0.197159365               0.000000000               0.075830897              -0.220454798               0.000000000               0.085136655              -0.243750232               0.000000000               0.094442414              -0.267045665               0.000000000               0.103748172              -0.290341099               0.000000000               0.113053931              -0.313636532               0.000000000               0.122359690              -0.336931966               0.000000000               0.131665448              -0.360227399               0.000000000               0.140971207              -0.383522833               0.000000000               0.150276966              -0.406818266               0.000000000               0.159582724              -0.430113700               0.000000000               0.168888483              -0.453409133               0.000000000               0.178194241              -0.476704567               0.000000000               0.187500000              -0.500000000               0.000000000               0.025947013              -0.130444442               0.000000000               0.032137825              -0.153541665               0.000000000               0.038328636              -0.176638887               0.000000000               0.044519448              -0.199736109               0.000000000               0.050710260              -0.222833332               0.000000000               0.056901071              -0.245930554               0.000000000               0.063091883              -0.269027776               0.000000000               0.069282695              -0.292124999               0.000000000               0.075473506              -0.315222221               0.000000000               0.081664318              -0.338319444               0.000000000               0.087855130              -0.361416666               0.000000000               0.094045942              -0.384513888               0.000000000               0.100236753              -0.407611111               0.000000000               0.106427565              -0.430708333               0.000000000               0.112618377              -0.453805555               0.000000000               0.118809188              -0.476902778               0.000000000               0.125000000              -0.500000000               0.000000000               0.013036280              -0.132359569               0.000000000               0.016127762              -0.155337096               0.000000000               0.019219245              -0.178314623               0.000000000               0.022310727              -0.201292150               0.000000000               0.025402210              -0.224269676               0.000000000               0.028493692              -0.247247203               0.000000000               0.031585175              -0.270224730               0.000000000               0.034676657              -0.293202257               0.000000000               0.037768140              -0.316179784               0.000000000               0.040859622              -0.339157311               0.000000000               0.043951105              -0.362134838               0.000000000               0.047042587              -0.385112365               0.000000000               0.050134070              -0.408089892               0.000000000               0.053225552              -0.431067419               0.000000000               0.056317035              -0.454044946               0.000000000               0.059408517              -0.477022473               0.000000000               0.062500000              -0.500000000               0.000000000               0.000000000              -0.133000000               0.000000000               0.000000000              -0.155937500               0.000000000               0.000000000              -0.178875000               0.000000000               0.000000000              -0.201812500               0.000000000               0.000000000              -0.224750000               0.000000000               0.000000000              -0.247687500               0.000000000               0.000000000              -0.270625000               0.000000000               0.000000000              -0.293562500               0.000000000               0.000000000              -0.316500000               0.000000000               0.000000000              -0.339437500               0.000000000               0.000000000              -0.362375000               0.000000000               0.000000000              -0.385312500               0.000000000               0.000000000              -0.408250000               0.000000000               0.000000000              -0.431187500               0.000000000               0.000000000              -0.454125000               0.000000000               0.000000000              -0.477062500               0.000000000               0.000000000              -0.500000000               0.000000000              -0.133000000               0.000000000               0.000000000              -0.155937500               0.000000000               0.000000000              -0.178875000               0.000000000               0.000000000              -0.201812500               0.000000000               0.000000000              -0.224750000               0.000000000               0.000000000              -0.247687500               0.000000000               0.000000000              -0.270625000               0.000000000               0.000000000              -0.293562500               0.000000000               0.000000000              -0.316500000               0.000000000               0.000000000              -0.339437500               0.000000000               0.000000000              -0.362375000               0.000000000               0.000000000              -0.385312500               0.000000000               0.000000000              -0.408250000               0.000000000               0.000000000              -0.431187500               0.000000000               0.000000000              -0.454125000               0.000000000               0.000000000              -0.477062500               0.000000000               0.000000000              -0.500000000               0.000000000               0.000000000              -0.132359569              -0.013036280               0.000000000              -0.155337096              -0.016127762               0.000000000              -0.178314623              -0.019219245               0.000000000              -0.201292150              -0.022310727               0.000000000              -0.224269676              -0.025402210               0.000000000              -0.247247203              -0.028493692               0.000000000              -0.270224730              -0.031585175               0.000000000              -0.293202257              -0.034676657               0.000000000              -0.316179784              -0.037768140               0.000000000              -0.339157311              -0.040859622               0.000000000              -0.362134838              -0.043951105               0.000000000              -0.385112365              -0.047042587               0.000000000              -0.408089892              -0.050134070               0.000000000              -0.431067419              -0.053225552               0.000000000              -0.454044946              -0.056317035               0.000000000              -0.477022473              -0.059408517               0.000000000              -0.500000000              -0.062500000               0.000000000              -0.130444442              -0.025947013               0.000000000              -0.153541665              -0.032137825               0.000000000              -0.176638887              -0.038328636               0.000000000              -0.199736109              -0.044519448               0.000000000              -0.222833332              -0.050710260               0.000000000              -0.245930554              -0.056901071               0.000000000              -0.269027776              -0.063091883               0.000000000              -0.292124999              -0.069282695               0.000000000              -0.315222221              -0.075473506               0.000000000              -0.338319444              -0.081664318               0.000000000              -0.361416666              -0.087855130               0.000000000              -0.384513888              -0.094045942               0.000000000              -0.407611111              -0.100236753               0.000000000              -0.430708333              -0.106427565               0.000000000              -0.453805555              -0.112618377               0.000000000              -0.476902778              -0.118809188               0.000000000              -0.500000000              -0.125000000               0.000000000              -0.127273065              -0.038607862               0.000000000              -0.150568498              -0.047913621               0.000000000              -0.173863932              -0.057219379               0.000000000              -0.197159365              -0.066525138               0.000000000              -0.220454798              -0.075830897               0.000000000              -0.243750232              -0.085136655               0.000000000              -0.267045665              -0.094442414               0.000000000              -0.290341099              -0.103748172               0.000000000              -0.313636532              -0.113053931               0.000000000              -0.336931966              -0.122359690               0.000000000              -0.360227399              -0.131665448               0.000000000              -0.383522833              -0.140971207               0.000000000              -0.406818266              -0.150276966               0.000000000              -0.430113700              -0.159582724               0.000000000              -0.453409133              -0.168888483               0.000000000              -0.476704567              -0.178194241               0.000000000              -0.500000000              -0.187500000               0.000000000              -0.122875978              -0.050896897               0.000000000              -0.146446229              -0.063340840               0.000000000              -0.170016481              -0.075784784               0.000000000              -0.193586732              -0.088228728               0.000000000              -0.217156983              -0.100672672               0.000000000              -0.240727235              -0.113116616               0.000000000              -0.264297486              -0.125560560               0.000000000              -0.287867738              -0.138004504               0.000000000              -0.311437989              -0.150448448               0.000000000              -0.335008240              -0.162892392               0.000000000              -0.358578492              -0.175336336               0.000000000              -0.382148743              -0.187780280               0.000000000              -0.405718994              -0.200224224               0.000000000              -0.429289246              -0.212668168               0.000000000              -0.452859497              -0.225112112               0.000000000              -0.476429749              -0.237556056               0.000000000              -0.500000000              -0.250000000               0.000000000              -0.117295528              -0.062695766               0.000000000              -0.141214558              -0.078308531               0.000000000              -0.165133587              -0.093921295               0.000000000              -0.189052617              -0.109534060               0.000000000              -0.212971646              -0.125146824               0.000000000              -0.236890676              -0.140759589               0.000000000              -0.260809705              -0.156372354               0.000000000              -0.284728735              -0.171985118               0.000000000              -0.308647764              -0.187597883               0.000000000              -0.332566794              -0.203210648               0.000000000              -0.356485823              -0.218823412               0.000000000              -0.380404853              -0.234436177               0.000000000              -0.404323882              -0.250048941               0.000000000              -0.428242912              -0.265661706               0.000000000              -0.452161941              -0.281274471               0.000000000              -0.476080971              -0.296887235               0.000000000              -0.500000000              -0.312500000               0.000000000              -0.110585458              -0.073890841               0.000000000              -0.134923867              -0.092710163               0.000000000              -0.159262276              -0.111529486               0.000000000              -0.183600685              -0.130348808               0.000000000              -0.207939094              -0.149168131               0.000000000              -0.232277503              -0.167987453               0.000000000              -0.256615912              -0.186806776               0.000000000              -0.280954320              -0.205626098               0.000000000              -0.305292729              -0.224445420               0.000000000              -0.329631138              -0.243264743               0.000000000              -0.353969547              -0.262084065               0.000000000              -0.378307956              -0.280903388               0.000000000              -0.402646365              -0.299722710               0.000000000              -0.426984773              -0.318542033               0.000000000              -0.451323182              -0.337361355               0.000000000              -0.475661591              -0.356180678               0.000000000              -0.500000000              -0.375000000               0.000000000              -0.102810390              -0.084374307               0.000000000              -0.127634741              -0.106444663               0.000000000              -0.152459092              -0.128515018               0.000000000              -0.177283442              -0.150585374               0.000000000              -0.202107793              -0.172655730               0.000000000              -0.226932143              -0.194726086               0.000000000              -0.251756494              -0.216796442               0.000000000              -0.276580845              -0.238866798               0.000000000              -0.301405195              -0.260937153               0.000000000              -0.326229546              -0.283007509               0.000000000              -0.351053896              -0.305077865               0.000000000              -0.375878247              -0.327148221               0.000000000              -0.400702598              -0.349218577               0.000000000              -0.425526948              -0.371288933               0.000000000              -0.450351299              -0.393359288               0.000000000              -0.475175649              -0.415429644               0.000000000              -0.500000000              -0.437500000               0.000000000              -0.094045202              -0.094045202               0.000000000              -0.119417377              -0.119417377               0.000000000              -0.144789552              -0.144789552               0.000000000              -0.170161727              -0.170161727               0.000000000              -0.195533901              -0.195533901               0.000000000              -0.220906076              -0.220906076               0.000000000              -0.246278251              -0.246278251               0.000000000              -0.271650426              -0.271650426               0.000000000              -0.297022601              -0.297022601               0.000000000              -0.322394776              -0.322394776               0.000000000              -0.347766951              -0.347766951               0.000000000              -0.373139126              -0.373139126               0.000000000              -0.398511300              -0.398511300               0.000000000              -0.423883475              -0.423883475               0.000000000              -0.449255650              -0.449255650               0.000000000              -0.474627825              -0.474627825               0.000000000              -0.500000000              -0.500000000               0.000000000              -0.084374307              -0.102810390               0.000000000              -0.106444663              -0.127634741               0.000000000              -0.128515018              -0.152459092               0.000000000              -0.150585374              -0.177283442               0.000000000              -0.172655730              -0.202107793               0.000000000              -0.194726086              -0.226932143               0.000000000              -0.216796442              -0.251756494               0.000000000              -0.238866798              -0.276580845               0.000000000              -0.260937153              -0.301405195               0.000000000              -0.283007509              -0.326229546               0.000000000              -0.305077865              -0.351053896               0.000000000              -0.327148221              -0.375878247               0.000000000              -0.349218577              -0.400702598               0.000000000              -0.371288933              -0.425526948               0.000000000              -0.393359288              -0.450351299               0.000000000              -0.415429644              -0.475175649               0.000000000              -0.437500000              -0.500000000               0.000000000              -0.073890841              -0.110585458               0.000000000              -0.092710163              -0.134923867               0.000000000              -0.111529486              -0.159262276               0.000000000              -0.130348808              -0.183600685               0.000000000              -0.149168131              -0.207939094               0.000000000              -0.167987453              -0.232277503               0.000000000              -0.186806776              -0.256615912               0.000000000              -0.205626098              -0.280954320               0.000000000              -0.224445420              -0.305292729               0.000000000              -0.243264743              -0.329631138               0.000000000              -0.262084065              -0.353969547               0.000000000              -0.280903388              -0.378307956               0.000000000              -0.299722710              -0.402646365               0.000000000              -0.318542033              -0.426984773               0.000000000              -0.337361355              -0.451323182               0.000000000              -0.356180678              -0.475661591               0.000000000              -0.375000000              -0.500000000               0.000000000              -0.062695766              -0.117295528               0.000000000              -0.078308531              -0.141214558               0.000000000              -0.093921295              -0.165133587               0.000000000              -0.109534060              -0.189052617               0.000000000              -0.125146824              -0.212971646               0.000000000              -0.140759589              -0.236890676               0.000000000              -0.156372354              -0.260809705               0.000000000              -0.171985118              -0.284728735               0.000000000              -0.187597883              -0.308647764               0.000000000              -0.203210648              -0.332566794               0.000000000              -0.218823412              -0.356485823               0.000000000              -0.234436177              -0.380404853               0.000000000              -0.250048941              -0.404323882               0.000000000              -0.265661706              -0.428242912               0.000000000              -0.281274471              -0.452161941               0.000000000              -0.296887235              -0.476080971               0.000000000              -0.312500000              -0.500000000               0.000000000              -0.050896897              -0.122875978               0.000000000              -0.063340840              -0.146446229               0.000000000              -0.075784784              -0.170016481               0.000000000              -0.088228728              -0.193586732               0.000000000              -0.100672672              -0.217156983               0.000000000              -0.113116616              -0.240727235               0.000000000              -0.125560560              -0.264297486               0.000000000              -0.138004504              -0.287867738               0.000000000              -0.150448448              -0.311437989               0.000000000              -0.162892392              -0.335008240               0.000000000              -0.175336336              -0.358578492               0.000000000              -0.187780280              -0.382148743               0.000000000              -0.200224224              -0.405718994               0.000000000              -0.212668168              -0.429289246               0.000000000              -0.225112112              -0.452859497               0.000000000              -0.237556056              -0.476429749               0.000000000              -0.250000000              -0.500000000               0.000000000              -0.038607862              -0.127273065               0.000000000              -0.047913621              -0.150568498               0.000000000              -0.057219379              -0.173863932               0.000000000              -0.066525138              -0.197159365               0.000000000              -0.075830897              -0.220454798               0.000000000              -0.085136655              -0.243750232               0.000000000              -0.094442414              -0.267045665               0.000000000              -0.103748172              -0.290341099               0.000000000              -0.113053931              -0.313636532               0.000000000              -0.122359690              -0.336931966               0.000000000              -0.131665448              -0.360227399               0.000000000              -0.140971207              -0.383522833               0.000000000              -0.150276966              -0.406818266               0.000000000              -0.159582724              -0.430113700               0.000000000              -0.168888483              -0.453409133               0.000000000              -0.178194241              -0.476704567               0.000000000              -0.187500000              -0.500000000               0.000000000              -0.025947013              -0.130444442               0.000000000              -0.032137825              -0.153541665               0.000000000              -0.038328636              -0.176638887               0.000000000              -0.044519448              -0.199736109               0.000000000              -0.050710260              -0.222833332               0.000000000              -0.056901071              -0.245930554               0.000000000              -0.063091883              -0.269027776               0.000000000              -0.069282695              -0.292124999               0.000000000              -0.075473506              -0.315222221               0.000000000              -0.081664318              -0.338319444               0.000000000              -0.087855130              -0.361416666               0.000000000              -0.094045942              -0.384513888               0.000000000              -0.100236753              -0.407611111               0.000000000              -0.106427565              -0.430708333               0.000000000              -0.112618377              -0.453805555               0.000000000              -0.118809188              -0.476902778               0.000000000              -0.125000000              -0.500000000               0.000000000              -0.013036280              -0.132359569               0.000000000              -0.016127762              -0.155337096               0.000000000              -0.019219245              -0.178314623               0.000000000              -0.022310727              -0.201292150               0.000000000              -0.025402210              -0.224269676               0.000000000              -0.028493692              -0.247247203               0.000000000              -0.031585175              -0.270224730               0.000000000              -0.034676657              -0.293202257               0.000000000              -0.037768140              -0.316179784               0.000000000              -0.040859622              -0.339157311               0.000000000              -0.043951105              -0.362134838               0.000000000              -0.047042587              -0.385112365               0.000000000              -0.050134070              -0.408089892               0.000000000              -0.053225552              -0.431067419               0.000000000              -0.056317035              -0.454044946               0.000000000              -0.059408517              -0.477022473               0.000000000              -0.062500000              -0.500000000               0.000000000               0.000000000              -0.133000000               0.000000000               0.000000000              -0.155937500               0.000000000               0.000000000              -0.178875000               0.000000000               0.000000000              -0.201812500               0.000000000               0.000000000              -0.224750000               0.000000000               0.000000000              -0.247687500               0.000000000               0.000000000              -0.270625000               0.000000000               0.000000000              -0.293562500               0.000000000               0.000000000              -0.316500000               0.000000000               0.000000000              -0.339437500               0.000000000               0.000000000              -0.362375000               0.000000000               0.000000000              -0.385312500               0.000000000               0.000000000              -0.408250000               0.000000000               0.000000000              -0.431187500               0.000000000               0.000000000              -0.454125000               0.000000000               0.000000000              -0.477062500               0.000000000               0.000000000              -0.500000000               0.000000000              -0.133000000               0.000000000               0.000000000              -0.155937500               0.000000000               0.000000000              -0.178875000               0.000000000               0.000000000              -0.201812500               0.000000000               0.000000000              -0.224750000               0.000000000               0.000000000              -0.247687500               0.000000000               0.000000000              -0.270625000               0.000000000               0.000000000              -0.293562500               0.000000000               0.000000000              -0.316500000               0.000000000               0.000000000              -0.339437500               0.000000000               0.000000000              -0.362375000               0.000000000               0.000000000              -0.385312500               0.000000000               0.000000000              -0.408250000               0.000000000               0.000000000              -0.431187500               0.000000000               0.000000000              -0.454125000               0.000000000               0.000000000              -0.477062500               0.000000000               0.000000000              -0.500000000               0.000000000               0.000000000              -0.132359569               0.013036280               0.000000000              -0.155337096               0.016127762               0.000000000              -0.178314623               0.019219245               0.000000000              -0.201292150               0.022310727               0.000000000              -0.224269676               0.025402210               0.000000000              -0.247247203               0.028493692               0.000000000              -0.270224730               0.031585175               0.000000000              -0.293202257               0.034676657               0.000000000              -0.316179784               0.037768140               0.000000000              -0.339157311               0.040859622               0.000000000              -0.362134838               0.043951105               0.000000000              -0.385112365               0.047042587               0.000000000              -0.408089892               0.050134070               0.000000000              -0.431067419               0.053225552               0.000000000              -0.454044946               0.056317035               0.000000000              -0.477022473               0.059408517               0.000000000              -0.500000000               0.062500000               0.000000000              -0.130444442               0.025947013               0.000000000              -0.153541665               0.032137825               0.000000000              -0.176638887               0.038328636               0.000000000              -0.199736109               0.044519448               0.000000000              -0.222833332               0.050710260               0.000000000              -0.245930554               0.056901071               0.000000000              -0.269027776               0.063091883               0.000000000              -0.292124999               0.069282695               0.000000000              -0.315222221               0.075473506               0.000000000              -0.338319444               0.081664318               0.000000000              -0.361416666               0.087855130               0.000000000              -0.384513888               0.094045942               0.000000000              -0.407611111               0.100236753               0.000000000              -0.430708333               0.106427565               0.000000000              -0.453805555               0.112618377               0.000000000              -0.476902778               0.118809188               0.000000000              -0.500000000               0.125000000               0.000000000              -0.127273065               0.038607862               0.000000000              -0.150568498               0.047913621               0.000000000              -0.173863932               0.057219379               0.000000000              -0.197159365               0.066525138               0.000000000              -0.220454798               0.075830897               0.000000000              -0.243750232               0.085136655               0.000000000              -0.267045665               0.094442414               0.000000000              -0.290341099               0.103748172               0.000000000              -0.313636532               0.113053931               0.000000000              -0.336931966               0.122359690               0.000000000              -0.360227399               0.131665448               0.000000000              -0.383522833               0.140971207               0.000000000              -0.406818266               0.150276966               0.000000000              -0.430113700               0.159582724               0.000000000              -0.453409133               0.168888483               0.000000000              -0.476704567               0.178194241               0.000000000              -0.500000000               0.187500000               0.000000000              -0.122875978               0.050896897               0.000000000              -0.146446229               0.063340840               0.000000000              -0.170016481               0.075784784               0.000000000              -0.193586732               0.088228728               0.000000000              -0.217156983               0.100672672               0.000000000              -0.240727235               0.113116616               0.000000000              -0.264297486               0.125560560               0.000000000              -0.287867738               0.138004504               0.000000000              -0.311437989               0.150448448               0.000000000              -0.335008240               0.162892392               0.000000000              -0.358578492               0.175336336               0.000000000              -0.382148743               0.187780280               0.000000000              -0.405718994               0.200224224               0.000000000              -0.429289246               0.212668168               0.000000000              -0.452859497               0.225112112               0.000000000              -0.476429749               0.237556056               0.000000000              -0.500000000               0.250000000               0.000000000              -0.117295528               0.062695766               0.000000000              -0.141214558               0.078308531               0.000000000              -0.165133587               0.093921295               0.000000000              -0.189052617               0.109534060               0.000000000              -0.212971646               0.125146824               0.000000000              -0.236890676               0.140759589               0.000000000              -0.260809705               0.156372354               0.000000000              -0.284728735               0.171985118               0.000000000              -0.308647764               0.187597883               0.000000000              -0.332566794               0.203210648               0.000000000              -0.356485823               0.218823412               0.000000000              -0.380404853               0.234436177               0.000000000              -0.404323882               0.250048941               0.000000000              -0.428242912               0.265661706               0.000000000              -0.452161941               0.281274471               0.000000000              -0.476080971               0.296887235               0.000000000              -0.500000000               0.312500000               0.000000000              -0.110585458               0.073890841               0.000000000              -0.134923867               0.092710163               0.000000000              -0.159262276               0.111529486               0.000000000              -0.183600685               0.130348808               0.000000000              -0.207939094               0.149168131               0.000000000              -0.232277503               0.167987453               0.000000000              -0.256615912               0.186806776               0.000000000              -0.280954320               0.205626098               0.000000000              -0.305292729               0.224445420               0.000000000              -0.329631138               0.243264743               0.000000000              -0.353969547               0.262084065               0.000000000              -0.378307956               0.280903388               0.000000000              -0.402646365               0.299722710               0.000000000              -0.426984773               0.318542033               0.000000000              -0.451323182               0.337361355               0.000000000              -0.475661591               0.356180678               0.000000000              -0.500000000               0.375000000               0.000000000              -0.102810390               0.084374307               0.000000000              -0.127634741               0.106444663               0.000000000              -0.152459092               0.128515018               0.000000000              -0.177283442               0.150585374               0.000000000              -0.202107793               0.172655730               0.000000000              -0.226932143               0.194726086               0.000000000              -0.251756494               0.216796442               0.000000000              -0.276580845               0.238866798               0.000000000              -0.301405195               0.260937153               0.000000000              -0.326229546               0.283007509               0.000000000              -0.351053896               0.305077865               0.000000000              -0.375878247               0.327148221               0.000000000              -0.400702598               0.349218577               0.000000000              -0.425526948               0.371288933               0.000000000              -0.450351299               0.393359288               0.000000000              -0.475175649               0.415429644               0.000000000              -0.500000000               0.437500000               0.000000000              -0.094045202               0.094045202               0.000000000              -0.119417377               0.119417377               0.000000000              -0.144789552               0.144789552               0.000000000              -0.170161727               0.170161727               0.000000000              -0.195533901               0.195533901               0.000000000              -0.220906076               0.220906076               0.000000000              -0.246278251               0.246278251               0.000000000              -0.271650426               0.271650426               0.000000000              -0.297022601               0.297022601               0.000000000              -0.322394776               0.322394776               0.000000000              -0.347766951               0.347766951               0.000000000              -0.373139126               0.373139126               0.000000000              -0.398511300               0.398511300               0.000000000              -0.423883475               0.423883475               0.000000000              -0.449255650               0.449255650               0.000000000              -0.474627825               0.474627825               0.000000000              -0.500000000               0.500000000               0.000000000              -0.084374307               0.102810390               0.000000000              -0.106444663               0.127634741               0.000000000              -0.128515018               0.152459092               0.000000000              -0.150585374               0.177283442               0.000000000              -0.172655730               0.202107793               0.000000000              -0.194726086               0.226932143               0.000000000              -0.216796442               0.251756494               0.000000000              -0.238866798               0.276580845               0.000000000              -0.260937153               0.301405195               0.000000000              -0.283007509               0.326229546               0.000000000              -0.305077865               0.351053896               0.000000000              -0.327148221               0.375878247               0.000000000              -0.349218577               0.400702598               0.000000000              -0.371288933               0.425526948               0.000000000              -0.393359288               0.450351299               0.000000000              -0.415429644               0.475175649               0.000000000              -0.437500000               0.500000000               0.000000000              -0.073890841               0.110585458               0.000000000              -0.092710163               0.134923867               0.000000000              -0.111529486               0.159262276               0.000000000              -0.130348808               0.183600685               0.000000000              -0.149168131               0.207939094               0.000000000              -0.167987453               0.232277503               0.000000000              -0.186806776               0.256615912               0.000000000              -0.205626098               0.280954320               0.000000000              -0.224445420               0.305292729               0.000000000              -0.243264743               0.329631138               0.000000000              -0.262084065               0.353969547               0.000000000              -0.280903388               0.378307956               0.000000000              -0.299722710               0.402646365               0.000000000              -0.318542033               0.426984773               0.000000000              -0.337361355               0.451323182               0.000000000              -0.356180678               0.475661591               0.000000000              -0.375000000               0.500000000               0.000000000              -0.062695766               0.117295528               0.000000000              -0.078308531               0.141214558               0.000000000              -0.093921295               0.165133587               0.000000000              -0.109534060               0.189052617               0.000000000              -0.125146824               0.212971646               0.000000000              -0.140759589               0.236890676               0.000000000              -0.156372354               0.260809705               0.000000000              -0.171985118               0.284728735               0.000000000              -0.187597883               0.308647764               0.000000000              -0.203210648               0.332566794               0.000000000              -0.218823412               0.356485823               0.000000000              -0.234436177               0.380404853               0.000000000              -0.250048941               0.404323882               0.000000000              -0.265661706               0.428242912               0.000000000              -0.281274471               0.452161941               0.000000000              -0.296887235               0.476080971               0.000000000              -0.312500000               0.500000000               0.000000000              -0.050896897               0.122875978               0.000000000              -0.063340840               0.146446229               0.000000000              -0.075784784               0.170016481               0.000000000              -0.088228728               0.193586732               0.000000000              -0.100672672               0.217156983               0.000000000              -0.113116616               0.240727235               0.000000000              -0.125560560               0.264297486               0.000000000              -0.138004504               0.287867738               0.000000000              -0.150448448               0.311437989               0.000000000              -0.162892392               0.335008240               0.000000000              -0.175336336               0.358578492               0.000000000              -0.187780280               0.382148743               0.000000000              -0.200224224               0.405718994               0.000000000              -0.212668168               0.429289246               0.000000000              -0.225112112               0.452859497               0.000000000              -0.237556056               0.476429749               0.000000000              -0.250000000               0.500000000               0.000000000              -0.038607862               0.127273065               0.000000000              -0.047913621               0.150568498               0.000000000              -0.057219379               0.173863932               0.000000000              -0.066525138               0.197159365               0.000000000              -0.075830897               0.220454798               0.000000000              -0.085136655               0.243750232               0.000000000              -0.094442414               0.267045665               0.000000000              -0.103748172               0.290341099               0.000000000              -0.113053931               0.313636532               0.000000000              -0.122359690               0.336931966               0.000000000              -0.131665448               0.360227399               0.000000000              -0.140971207               0.383522833               0.000000000              -0.150276966               0.406818266               0.000000000              -0.159582724               0.430113700               0.000000000              -0.168888483               0.453409133               0.000000000              -0.178194241               0.476704567               0.000000000              -0.187500000               0.500000000               0.000000000              -0.025947013               0.130444442               0.000000000              -0.032137825               0.153541665               0.000000000              -0.038328636               0.176638887               0.000000000              -0.044519448               0.199736109               0.000000000              -0.050710260               0.222833332               0.000000000              -0.056901071               0.245930554               0.000000000              -0.063091883               0.269027776               0.000000000              -0.069282695               0.292124999               0.000000000              -0.075473506               0.315222221               0.000000000              -0.081664318               0.338319444               0.000000000              -0.087855130               0.361416666               0.000000000              -0.094045942               0.384513888               0.000000000              -0.100236753               0.407611111               0.000000000              -0.106427565               0.430708333               0.000000000              -0.112618377               0.453805555               0.000000000              -0.118809188               0.476902778               0.000000000              -0.125000000               0.500000000               0.000000000              -0.013036280               0.132359569               0.000000000              -0.016127762               0.155337096               0.000000000              -0.019219245               0.178314623               0.000000000              -0.022310727               0.201292150               0.000000000              -0.025402210               0.224269676               0.000000000              -0.028493692               0.247247203               0.000000000              -0.031585175               0.270224730               0.000000000              -0.034676657               0.293202257               0.000000000              -0.037768140               0.316179784               0.000000000              -0.040859622               0.339157311               0.000000000              -0.043951105               0.362134838               0.000000000              -0.047042587               0.385112365               0.000000000              -0.050134070               0.408089892               0.000000000              -0.053225552               0.431067419               0.000000000              -0.056317035               0.454044946               0.000000000              -0.059408517               0.477022473               0.000000000              -0.062500000               0.500000000               0.000000000               0.000000000               0.133000000               0.000000000               0.000000000               0.155937500               0.000000000               0.000000000               0.178875000               0.000000000               0.000000000               0.201812500               0.000000000               0.000000000               0.224750000               0.000000000               0.000000000               0.247687500               0.000000000               0.000000000               0.270625000               0.000000000               0.000000000               0.293562500               0.000000000               0.000000000               0.316500000               0.000000000               0.000000000               0.339437500               0.000000000               0.000000000               0.362375000               0.000000000               0.000000000               0.385312500               0.000000000               0.000000000               0.408250000               0.000000000               0.000000000               0.431187500               0.000000000               0.000000000               0.454125000               0.000000000               0.000000000               0.477062500               0.000000000               0.000000000               0.500000000               0.000000000 </DataArray>
</Points>
<Cells>
<DataArray type="Int32"                                    Name="connectivity"                                                      NumberOfComponents=" 1" format="ascii">
         0          1         18         17          1          2         19         18          2          3         20         19          3          4         21         20          4          5         22         21          5          6         23         22          6          7         24         23          7          8         25         24          8          9         26         25          9         10         27         26         10         11         28         27         11         12         29         28         12         13         30         29         13         14         31         30         14         15         32         31         15         16         33         32         17         18         35         34         18         19         36         35         19         20         37         36         20         21         38         37         21         22         39         38         22         23         40         39         23         24         41         40         24         25         42         41         25         26         43         42         26         27         44         43         27         28         45         44         28         29         46         45         29         30         47         46         30         31         48         47         31         32         49         48         32         33         50         49         34         35         52         51         35         36         53         52         36         37         54         53         37         38         55         54         38         39         56         55         39         40         57         56         40         41         58         57         41         42         59         58         42         43         60         59         43         44         61         60         44         45         62         61         45         46         63         62         46         47         64         63         47         48         65         64         48         49         66         65         49         50         67         66         51         52         69         68         52         53         70         69         53         54         71         70         54         55         72         71         55         56         73         72         56         57         74         73         57         58         75         74         58         59         76         75         59         60         77         76         60         61         78         77         61         62         79         78         62         63         80         79         63         64         81         80         64         65         82         81         65         66         83         82         66         67         84         83         68         69         86         85         69         70         87         86         70         71         88         87         71         72         89         88         72         73         90         89         73         74         91         90         74         75         92         91         75         76         93         92         76         77         94         93         77         78         95         94         78         79         96         95         79         80         97         96         80         81         98         97         81         82         99         98         82         83        100         99         83         84        101        100         85         86        103        102         86         87        104        103         87         88        105        104         88         89        106        105         89         90        107        106         90         91        108        107         91         92        109        108         92         93        110        109         93         94        111        110         94         95        112        111         95         96        113        112         96         97        114        113         97         98        115        114         98         99        116        115         99        100        117        116        100        101        118        117        102        103        120        119        103        104        121        120        104        105        122        121        105        106        123        122        106        107        124        123        107        108        125        124        108        109        126        125        109        110        127        126        110        111        128        127        111        112        129        128        112        113        130        129        113        114        131        130        114        115        132        131        115        116        133        132        116        117        134        133        117        118        135        134        119        120        137        136        120        121        138        137        121        122        139        138        122        123        140        139        123        124        141        140        124        125        142        141        125        126        143        142        126        127        144        143        127        128        145        144        128        129        146        145        129        130        147        146        130        131        148        147        131        132        149        148        132        133        150        149        133        134        151        150        134        135        152        151        136        137        154        153        137        138        155        154        138        139        156        155        139        140        157        156        140        141        158        157        141        142        159        158        142        143        160        159        143        144        161        160        144        145        162        161        145        146        163        162        146        147        164        163        147        148        165        164        148        149        166        165        149        150        167        166        150        151        168        167        151        152        169        168        153        154        171        170        154        155        172        171        155        156        173        172        156        157        174        173        157        158        175        174        158        159        176        175        159        160        177        176        160        161        178        177        161        162        179        178        162        163        180        179        163        164        181        180        164        165        182        181        165        166        183        182        166        167        184        183        167        168        185        184        168        169        186        185        170        171        188        187        171        172        189        188        172        173        190        189        173        174        191        190        174        175        192        191        175        176        193        192        176        177        194        193        177        178        195        194        178        179        196        195        179        180        197        196        180        181        198        197        181        182        199        198        182        183        200        199        183        184        201        200        184        185        202        201        185        186        203        202        187        188        205        204        188        189        206        205        189        190        207        206        190        191        208        207        191        192        209        208        192        193        210        209        193        194        211        210        194        195        212        211        195        196        213        212        196        197        214        213        197        198        215        214        198        199        216        215        199        200        217        216        200        201        218        217        201        202        219        218        202        203        220        219        204        205        222        221        205        206        223        222        206        207        224        223        207        208        225        224        208        209        226        225        209        210        227        226        210        211        228        227        211        212        229        228        212        213        230        229        213        214        231        230        214        215        232        231        215        216        233        232        216        217        234        233        217        218        235        234        218        219        236        235        219        220        237        236        221        222        239        238        222        223        240        239        223        224        241        240        224        225        242        241        225        226        243        242        226        227        244        243        227        228        245        244        228        229        246        245        229        230        247        246        230        231        248        247        231        232        249        248        232        233        250        249        233        234        251        250        234        235        252        251        235        236        253        252        236        237        254        253        238        239        256        255        239        240        257        256        240        241        258        257        241        242        259        258        242        243        260        259        243        244        261        260        244        245        262        261        245        246        263        262        246        247        264        263        247        248        265        264        248        249        266        265        249        250        267        266        250        251        268        267        251        252        269        268        252        253        270        269        253        254        271        270        255        256        273        272        256        257        274        273        257        258        275        274        258        259        276        275        259        260        277        276        260        261        278        277        261        262        279        278        262        263        280        279        263        264        281        280        264        265        282        281        265        266        283        282        266        267        284        283        267        268        285        284        268        269        286        285        269        270        287        286        270        271        288        287        306        307          1          0        307        308          2          1        308        309          3          2        309        310          4          3        310        311          5          4        311        312          6          5        312        313          7          6        313        314          8          7        314        315          9          8        315        316         10          9        316        317         11         10        317        318         12         11        318        319         13         12        319        320         14         13        320        321         15         14        321        322         16         15        323        324        307        306        324        325        308        307        325        326        309        308        326        327        310        309        327        328        311        310        328        329        312        311        329        330        313        312        330        331        314        313        331        332        315        314        332        333        316        315        333        334        317        316        334        335        318        317        335        336        319        318        336        337        320        319        337        338        321        320        338        339        322        321        340        341        324        323        341        342        325        324        342        343        326        325        343        344        327        326        344        345        328        327        345        346        329        328        346        347        330        329        347        348        331        330        348        349        332        331        349        350        333        332        350        351        334        333        351        352        335        334        352        353        336        335        353        354        337        336        354        355        338        337        355        356        339        338        357        358        341        340        358        359        342        341        359        360        343        342        360        361        344        343        361        362        345        344        362        363        346        345        363        364        347        346        364        365        348        347        365        366        349        348        366        367        350        349        367        368        351        350        368        369        352        351        369        370        353        352        370        371        354        353        371        372        355        354        372        373        356        355        374        375        358        357        375        376        359        358        376        377        360        359        377        378        361        360        378        379        362        361        379        380        363        362        380        381        364        363        381        382        365        364        382        383        366        365        383        384        367        366        384        385        368        367        385        386        369        368        386        387        370        369        387        388        371        370        388        389        372        371        389        390        373        372        391        392        375        374        392        393        376        375        393        394        377        376        394        395        378        377        395        396        379        378        396        397        380        379        397        398        381        380        398        399        382        381        399        400        383        382        400        401        384        383        401        402        385        384        402        403        386        385        403        404        387        386        404        405        388        387        405        406        389        388        406        407        390        389        408        409        392        391        409        410        393        392        410        411        394        393        411        412        395        394        412        413        396        395        413        414        397        396        414        415        398        397        415        416        399        398        416        417        400        399        417        418        401        400        418        419        402        401        419        420        403        402        420        421        404        403        421        422        405        404        422        423        406        405        423        424        407        406        425        426        409        408        426        427        410        409        427        428        411        410        428        429        412        411        429        430        413        412        430        431        414        413        431        432        415        414        432        433        416        415        433        434        417        416        434        435        418        417        435        436        419        418        436        437        420        419        437        438        421        420        438        439        422        421        439        440        423        422        440        441        424        423        442        443        426        425        443        444        427        426        444        445        428        427        445        446        429        428        446        447        430        429        447        448        431        430        448        449        432        431        449        450        433        432        450        451        434        433        451        452        435        434        452        453        436        435        453        454        437        436        454        455        438        437        455        456        439        438        456        457        440        439        457        458        441        440        459        460        443        442        460        461        444        443        461        462        445        444        462        463        446        445        463        464        447        446        464        465        448        447        465        466        449        448        466        467        450        449        467        468        451        450        468        469        452        451        469        470        453        452        470        471        454        453        471        472        455        454        472        473        456        455        473        474        457        456        474        475        458        457        476        477        460        459        477        478        461        460        478        479        462        461        479        480        463        462        480        481        464        463        481        482        465        464        482        483        466        465        483        484        467        466        484        485        468        467        485        486        469        468        486        487        470        469        487        488        471        470        488        489        472        471        489        490        473        472        490        491        474        473        491        492        475        474        493        494        477        476        494        495        478        477        495        496        479        478        496        497        480        479        497        498        481        480        498        499        482        481        499        500        483        482        500        501        484        483        501        502        485        484        502        503        486        485        503        504        487        486        504        505        488        487        505        506        489        488        506        507        490        489        507        508        491        490        508        509        492        491        510        511        494        493        511        512        495        494        512        513        496        495        513        514        497        496        514        515        498        497        515        516        499        498        516        517        500        499        517        518        501        500        518        519        502        501        519        520        503        502        520        521        504        503        521        522        505        504        522        523        506        505        523        524        507        506        524        525        508        507        525        526        509        508        527        528        511        510        528        529        512        511        529        530        513        512        530        531        514        513        531        532        515        514        532        533        516        515        533        534        517        516        534        535        518        517        535        536        519        518        536        537        520        519        537        538        521        520        538        539        522        521        539        540        523        522        540        541        524        523        541        542        525        524        542        543        526        525        544        545        528        527        545        546        529        528        546        547        530        529        547        548        531        530        548        549        532        531        549        550        533        532        550        551        534        533        551        552        535        534        552        553        536        535        553        554        537        536        554        555        538        537        555        556        539        538        556        557        540        539        557        558        541        540        558        559        542        541        559        560        543        542        561        562        545        544        562        563        546        545        563        564        547        546        564        565        548        547        565        566        549        548        566        567        550        549        567        568        551        550        568        569        552        551        569        570        553        552        570        571        554        553        571        572        555        554        572        573        556        555        573        574        557        556        574        575        558        557        575        576        559        558        576        577        560        559        578        579        596        595        579        580        597        596        580        581        598        597        581        582        599        598        582        583        600        599        583        584        601        600        584        585        602        601        585        586        603        602        586        587        604        603        587        588        605        604        588        589        606        605        589        590        607        606        590        591        608        607        591        592        609        608        592        593        610        609        593        594        611        610        595        596        613        612        596        597        614        613        597        598        615        614        598        599        616        615        599        600        617        616        600        601        618        617        601        602        619        618        602        603        620        619        603        604        621        620        604        605        622        621        605        606        623        622        606        607        624        623        607        608        625        624        608        609        626        625        609        610        627        626        610        611        628        627        612        613        630        629        613        614        631        630        614        615        632        631        615        616        633        632        616        617        634        633        617        618        635        634        618        619        636        635        619        620        637        636        620        621        638        637        621        622        639        638        622        623        640        639        623        624        641        640        624        625        642        641        625        626        643        642        626        627        644        643        627        628        645        644        629        630        647        646        630        631        648        647        631        632        649        648        632        633        650        649        633        634        651        650        634        635        652        651        635        636        653        652        636        637        654        653        637        638        655        654        638        639        656        655        639        640        657        656        640        641        658        657        641        642        659        658        642        643        660        659        643        644        661        660        644        645        662        661        646        647        664        663        647        648        665        664        648        649        666        665        649        650        667        666        650        651        668        667        651        652        669        668        652        653        670        669        653        654        671        670        654        655        672        671        655        656        673        672        656        657        674        673        657        658        675        674        658        659        676        675        659        660        677        676        660        661        678        677        661        662        679        678        663        664        681        680        664        665        682        681        665        666        683        682        666        667        684        683        667        668        685        684        668        669        686        685        669        670        687        686        670        671        688        687        671        672        689        688        672        673        690        689        673        674        691        690        674        675        692        691        675        676        693        692        676        677        694        693        677        678        695        694        678        679        696        695        680        681        698        697        681        682        699        698        682        683        700        699        683        684        701        700        684        685        702        701        685        686        703        702        686        687        704        703        687        688        705        704        688        689        706        705        689        690        707        706        690        691        708        707        691        692        709        708        692        693        710        709        693        694        711        710        694        695        712        711        695        696        713        712        697        698        715        714        698        699        716        715        699        700        717        716        700        701        718        717        701        702        719        718        702        703        720        719        703        704        721        720        704        705        722        721        705        706        723        722        706        707        724        723        707        708        725        724        708        709        726        725        709        710        727        726        710        711        728        727        711        712        729        728        712        713        730        729        714        715        732        731        715        716        733        732        716        717        734        733        717        718        735        734        718        719        736        735        719        720        737        736        720        721        738        737        721        722        739        738        722        723        740        739        723        724        741        740        724        725        742        741        725        726        743        742        726        727        744        743        727        728        745        744        728        729        746        745        729        730        747        746        731        732        749        748        732        733        750        749        733        734        751        750        734        735        752        751        735        736        753        752        736        737        754        753        737        738        755        754        738        739        756        755        739        740        757        756        740        741        758        757        741        742        759        758        742        743        760        759        743        744        761        760        744        745        762        761        745        746        763        762        746        747        764        763        748        749        766        765        749        750        767        766        750        751        768        767        751        752        769        768        752        753        770        769        753        754        771        770        754        755        772        771        755        756        773        772        756        757        774        773        757        758        775        774        758        759        776        775        759        760        777        776        760        761        778        777        761        762        779        778        762        763        780        779        763        764        781        780        765        766        783        782        766        767        784        783        767        768        785        784        768        769        786        785        769        770        787        786        770        771        788        787        771        772        789        788        772        773        790        789        773        774        791        790        774        775        792        791        775        776        793        792        776        777        794        793        777        778        795        794        778        779        796        795        779        780        797        796        780        781        798        797        782        783        800        799        783        784        801        800        784        785        802        801        785        786        803        802        786        787        804        803        787        788        805        804        788        789        806        805        789        790        807        806        790        791        808        807        791        792        809        808        792        793        810        809        793        794        811        810        794        795        812        811        795        796        813        812        796        797        814        813        797        798        815        814        799        800        817        816        800        801        818        817        801        802        819        818        802        803        820        819        803        804        821        820        804        805        822        821        805        806        823        822        806        807        824        823        807        808        825        824        808        809        826        825        809        810        827        826        810        811        828        827        811        812        829        828        812        813        830        829        813        814        831        830        814        815        832        831        816        817        834        833        817        818        835        834        818        819        836        835        819        820        837        836        820        821        838        837        821        822        839        838        822        823        840        839        823        824        841        840        824        825        842        841        825        826        843        842        826        827        844        843        827        828        845        844        828        829        846        845        829        830        847        846        830        831        848        847        831        832        849        848        833        834        562        561        834        835        563        562        835        836        564        563        836        837        565        564        837        838        566        565        838        839        567        566        839        840        568        567        840        841        569        568        841        842        570        569        842        843        571        570        843        844        572        571        844        845        573        572        845        846        574        573        846        847        575        574        847        848        576        575        848        849        577        576        884        885        579        578        885        886        580        579        886        887        581        580        887        888        582        581        888        889        583        582        889        890        584        583        890        891        585        584        891        892        586        585        892        893        587        586        893        894        588        587        894        895        589        588        895        896        590        589        896        897        591        590        897        898        592        591        898        899        593        592        899        900        594        593        901        902        885        884        902        903        886        885        903        904        887        886        904        905        888        887        905        906        889        888        906        907        890        889        907        908        891        890        908        909        892        891        909        910        893        892        910        911        894        893        911        912        895        894        912        913        896        895        913        914        897        896        914        915        898        897        915        916        899        898        916        917        900        899        918        919        902        901        919        920        903        902        920        921        904        903        921        922        905        904        922        923        906        905        923        924        907        906        924        925        908        907        925        926        909        908        926        927        910        909        927        928        911        910        928        929        912        911        929        930        913        912        930        931        914        913        931        932        915        914        932        933        916        915        933        934        917        916        935        936        919        918        936        937        920        919        937        938        921        920        938        939        922        921        939        940        923        922        940        941        924        923        941        942        925        924        942        943        926        925        943        944        927        926        944        945        928        927        945        946        929        928        946        947        930        929        947        948        931        930        948        949        932        931        949        950        933        932        950        951        934        933        952        953        936        935        953        954        937        936        954        955        938        937        955        956        939        938        956        957        940        939        957        958        941        940        958        959        942        941        959        960        943        942        960        961        944        943        961        962        945        944        962        963        946        945        963        964        947        946        964        965        948        947        965        966        949        948        966        967        950        949        967        968        951        950        969        970        953        952        970        971        954        953        971        972        955        954        972        973        956        955        973        974        957        956        974        975        958        957        975        976        959        958        976        977        960        959        977        978        961        960        978        979        962        961        979        980        963        962        980        981        964        963        981        982        965        964        982        983        966        965        983        984        967        966        984        985        968        967        986        987        970        969        987        988        971        970        988        989        972        971        989        990        973        972        990        991        974        973        991        992        975        974        992        993        976        975        993        994        977        976        994        995        978        977        995        996        979        978        996        997        980        979        997        998        981        980        998        999        982        981        999       1000        983        982       1000       1001        984        983       1001       1002        985        984       1003       1004        987        986       1004       1005        988        987       1005       1006        989        988       1006       1007        990        989       1007       1008        991        990       1008       1009        992        991       1009       1010        993        992       1010       1011        994        993       1011       1012        995        994       1012       1013        996        995       1013       1014        997        996       1014       1015        998        997       1015       1016        999        998       1016       1017       1000        999       1017       1018       1001       1000       1018       1019       1002       1001       1020       1021       1004       1003       1021       1022       1005       1004       1022       1023       1006       1005       1023       1024       1007       1006       1024       1025       1008       1007       1025       1026       1009       1008       1026       1027       1010       1009       1027       1028       1011       1010       1028       1029       1012       1011       1029       1030       1013       1012       1030       1031       1014       1013       1031       1032       1015       1014       1032       1033       1016       1015       1033       1034       1017       1016       1034       1035       1018       1017       1035       1036       1019       1018       1037       1038       1021       1020       1038       1039       1022       1021       1039       1040       1023       1022       1040       1041       1024       1023       1041       1042       1025       1024       1042       1043       1026       1025       1043       1044       1027       1026       1044       1045       1028       1027       1045       1046       1029       1028       1046       1047       1030       1029       1047       1048       1031       1030       1048       1049       1032       1031       1049       1050       1033       1032       1050       1051       1034       1033       1051       1052       1035       1034       1052       1053       1036       1035       1054       1055       1038       1037       1055       1056       1039       1038       1056       1057       1040       1039       1057       1058       1041       1040       1058       1059       1042       1041       1059       1060       1043       1042       1060       1061       1044       1043       1061       1062       1045       1044       1062       1063       1046       1045       1063       1064       1047       1046       1064       1065       1048       1047       1065       1066       1049       1048       1066       1067       1050       1049       1067       1068       1051       1050       1068       1069       1052       1051       1069       1070       1053       1052       1071       1072       1055       1054       1072       1073       1056       1055       1073       1074       1057       1056       1074       1075       1058       1057       1075       1076       1059       1058       1076       1077       1060       1059       1077       1078       1061       1060       1078       1079       1062       1061       1079       1080       1063       1062       1080       1081       1064       1063       1081       1082       1065       1064       1082       1083       1066       1065       1083       1084       1067       1066       1084       1085       1068       1067       1085       1086       1069       1068       1086       1087       1070       1069       1088       1089       1072       1071       1089       1090       1073       1072       1090       1091       1074       1073       1091       1092       1075       1074       1092       1093       1076       1075       1093       1094       1077       1076       1094       1095       1078       1077       1095       1096       1079       1078       1096       1097       1080       1079       1097       1098       1081       1080       1098       1099       1082       1081       1099       1100       1083       1082       1100       1101       1084       1083       1101       1102       1085       1084       1102       1103       1086       1085       1103       1104       1087       1086       1105       1106       1089       1088       1106       1107       1090       1089       1107       1108       1091       1090       1108       1109       1092       1091       1109       1110       1093       1092       1110       1111       1094       1093       1111       1112       1095       1094       1112       1113       1096       1095       1113       1114       1097       1096       1114       1115       1098       1097       1115       1116       1099       1098       1116       1117       1100       1099       1117       1118       1101       1100       1118       1119       1102       1101       1119       1120       1103       1102       1120       1121       1104       1103       1122       1123       1106       1105       1123       1124       1107       1106       1124       1125       1108       1107       1125       1126       1109       1108       1126       1127       1110       1109       1127       1128       1111       1110       1128       1129       1112       1111       1129       1130       1113       1112       1130       1131       1114       1113       1131       1132       1115       1114       1132       1133       1116       1115       1133       1134       1117       1116       1134       1135       1118       1117       1135       1136       1119       1118       1136       1137       1120       1119       1137       1138       1121       1120        272        273       1123       1122        273        274       1124       1123        274        275       1125       1124        275        276       1126       1125        276        277       1127       1126        277        278       1128       1127        278        279       1129       1128        279        280       1130       1129        280        281       1131       1130        281        282       1132       1131        282        283       1133       1132        283        284       1134       1133        284        285       1135       1134        285        286       1136       1135        286        287       1137       1136        287        288       1138       1137 </DataArray>
<DataArray type="Int32"                                    Name="offsets"                                                      NumberOfComponents=" 1" format="ascii">
         4          8         12         16         20         24         28         32         36         40         44         48         52         56         60         64         68         72         76         80         84         88         92         96        100        104        108        112        116        120        124        128        132        136        140        144        148        152        156        160        164        168        172        176        180        184        188        192        196        200        204        208        212        216        220        224        228        232        236        240        244        248        252        256        260        264        268        272        276        280        284        288        292        296        300        304        308        312        316        320        324        328        332        336        340        344        348        352        356        360        364        368        372        376        380        384        388        392        396        400        404        408        412        416        420        424        428        432        436        440        444        448        452        456        460        464        468        472        476        480        484        488        492        496        500        504        508        512        516        520        524        528        532        536        540        544        548        552        556        560        564        568        572        576        580        584        588        592        596        600        604        608        612        616        620        624        628        632        636        640        644        648        652        656        660        664        668        672        676        680        684        688        692        696        700        704        708        712        716        720        724        728        732        736        740        744        748        752        756        760        764        768        772        776        780        784        788        792        796        800        804        808        812        816        820        824        828        832        836        840        844        848        852        856        860        864        868        872        876        880        884        888        892        896        900        904        908        912        916        920        924        928        932        936        940        944        948        952        956        960        964        968        972        976        980        984        988        992        996       1000       1004       1008       1012       1016       1020       1024       1028       1032       1036       1040       1044       1048       1052       1056       1060       1064       1068       1072       1076       1080       1084       1088       1092       1096       1100       1104       1108       1112       1116       1120       1124       1128       1132       1136       1140       1144       1148       1152       1156       1160       1164       1168       1172       1176       1180       1184       1188       1192       1196       1200       1204       1208       1212       1216       1220       1224       1228       1232       1236       1240       1244       1248       1252       1256       1260       1264       1268       1272       1276       1280       1284       1288       1292       1296       1300       1304       1308       1312       1316       1320       1324       1328       1332       1336       1340       1344       1348       1352       1356       1360       1364       1368       1372       1376       1380       1384       1388       1392       1396       1400       1404       1408       1412       1416       1420       1424       1428       1432       1436       1440       1444       1448       1452       1456       1460       1464       1468       1472       1476       1480       1484       1488       1492       1496       1500       1504       1508       1512       1516       1520       1524       1528       1532       1536       1540       1544       1548       1552       1556       1560       1564       1568       1572       1576       1580       1584       1588       1592       1596       1600       1604       1608       1612       1616       1620       1624       1628       1632       1636       1640       1644       1648       1652       1656       1660       1664       1668       1672       1676       1680       1684       1688       1692       1696       1700       1704       1708       1712       1716       1720       1724       1728       1732       1736       1740       1744       1748       1752       1756       1760       1764       1768       1772       1776       1780       1784       1788       1792       1796       1800       1804       1808       1812       1816       1820       1824       1828       1832       1836       1840       1844       1848       1852       1856       1860       1864       1868       1872       1876       1880       1884       1888       1892       1896       1900       1904       1908       1912       1916       1920       1924       1928       1932       1936       1940       1944       1948       1952       1956       1960       1964       1968       1972       1976       1980       1984       1988       1992       1996       2000       2004       2008       2012       2016       2020       2024       2028       2032       2036       2040       2044       2048       2052       2056       2060       2064       2068       2072       2076       2080       2084       2088       2092       2096       2100       2104       2108       2112       2116       2120       2124       2128       2132       2136       2140       2144       2148       2152       2156       2160       2164       2168       2172       2176       2180       2184       2188       2192       2196       2200       2204       2208       2212       2216       2220       2224       2228       2232       2236       2240       2244       2248       2252       2256       2260       2264       2268       2272       2276       2280       2284       2288       2292       2296       2300       2304       2308       2312       2316       2320       2324       2328       2332       2336       2340       2344       2348       2352       2356       2360       2364       2368       2372       2376       2380       2384       2388       2392       2396       2400       2404       2408       2412       2416       2420       2424       2428       2432       2436       2440       2444       2448       2452       2456       2460       2464       2468       2472       2476       2480       2484       2488       2492       2496       2500       2504       2508       2512       2516       2520       2524       2528       2532       2536       2540       2544       2548       2552       2556       2560       2564       2568       2572       2576       2580       2584       2588       2592       2596       2600       2604       2608       2612       2616       2620       2624       2628       2632       2636       2640       2644       2648       2652       2656       2660       2664       2668       2672       2676       2680       2684       2688       2692       2696       2700       2704       2708       2712       2716       2720       2724       2728       2732       2736       2740       2744       2748       2752       2756       2760       2764       2768       2772       2776       2780       2784       2788       2792       2796       2800       2804       2808       2812       2816       2820       2824       2828       2832       2836       2840       2844       2848       2852       2856       2860       2864       2868       2872       2876       2880       2884       2888       2892       2896       2900       2904       2908       2912       2916       2920       2924       2928       2932       2936       2940       2944       2948       2952       2956       2960       2964       2968       2972       2976       2980       2984       2988       2992       2996       3000       3004       3008       3012       3016       3020       3024       3028       3032       3036       3040       3044       3048       3052       3056       3060       3064       3068       3072       3076       3080       3084       3088       3092       3096       3100       3104       3108       3112       3116       3120       3124       3128       3132       3136       3140       3144       3148       3152       3156       3160       3164       3168       3172       3176       3180       3184       3188       3192       3196       3200       3204       3208       3212       3216       3220       3224       3228       3232       3236       3240       3244       3248       3252       3256       3260       3264       3268       3272       3276       3280       3284       3288       3292       3296       3300       3304       3308       3312       3316       3320       3324       3328       3332       3336       3340       3344       3348       3352       3356       3360       3364       3368       3372       3376       3380       3384       3388       3392       3396       3400       3404       3408       3412       3416       3420       3424       3428       3432       3436       3440       3444       3448       3452       3456       3460       3464       3468       3472       3476       3480       3484       3488       3492       3496       3500       3504       3508       3512       3516       3520       3524       3528       3532       3536       3540       3544       3548       3552       3556       3560       3564       3568       3572       3576       3580       3584       3588       3592       3596       3600       3604       3608       3612       3616       3620       3624       3628       3632       3636       3640       3644       3648       3652       3656       3660       3664       3668       3672       3676       3680       3684       3688       3692       3696       3700       3704       3708       3712       3716       3720       3724       3728       3732       3736       3740       3744       3748       3752       3756       3760       3764       3768       3772       3776       3780       3784       3788       3792       3796       3800       3804       3808       3812       3816       3820       3824       3828       3832       3836       3840       3844       3848       3852       3856       3860       3864       3868       3872       3876       3880       3884       3888       3892       3896       3900       3904       3908       3912       3916       3920       3924       3928       3932       3936       3940       3944       3948       3952       3956       3960       3964       3968       3972       3976       3980       3984       3988       3992       3996       4000       4004       4008       4012       4016       4020       4024       4028       4032       4036       4040       4044       4048       4052       4056       4060       4064       4068       4072       4076       4080       4084       4088       4092       4096 </DataArray>
<DataArray type="UInt8"                                    Name="types"                                                      NumberOfComponents=" 1" format="ascii">
         9          9          9          9          9          9          9          9          9          9          9          9          9          9          9          9          9          9          9          9          9          9          9          9          9          9          9          9          9          9          9          9          9          9          9          9          9          9          9          9          9          9          9          9          9          9          9          9          9          9          9          9          9          9          9          9          9          9          9          9          9          9          9          9          9          9          9          9          9          9          9          9          9          9          9          9          9          9          9          9          9          9          9          9          9          9          9          9          9          9          9          9          9          9          9          9          9          9          9          9          9          9          9          9          9          9          9          9          9          9          9          9          9          9          9          9          9          9          9          9          9          9          9          9          9          9          9          9          9          9          9          9          9          9          9          9          9          9          9          9          9          9          9          9          9          9          9          9          9          9          9          9          9          9          9          9          9          9          9          9          9          9          9          9          9          9          9          9          9          9          9          9          9          9          9          9          9          9          9          9          9          9          9          9          9          9          9          9          9          9          9          9          9          9          9          9          9          9          9          9          9          9          9          9          9          9          9          9          9          9          9          9          9          9          9          9          9          9          9          9          9          9          9          9          9          9          9          9          9          9          9          9          9          9          9          9          9          9          9          9          9          9          9          9          9          9          9          9          9          9          9          9          9          9          9          9          9          9          9          9          9          9          9          9          9          9          9          9          9          9          9          9          9          9          9          9          9          9          9          9          9          9          9          9          9          9          9          9          9          9          9          9          9          9          9          9          9          9          9          9          9          9          9          9          9          9          9          9          9          9          9          9          9          9          9          9          9          9          9          9          9          9          9          9          9          9          9          9          9          9          9          9          9          9          9          9          9          9          9          9          9          9          9          9          9          9          9          9          9          9          9          9          9          9          9          9          9          9          9          9          9          9          9          9          9          9          9          9          9          9          9          9          9          9          9          9          9          9          9          9          9          9          9          9          9          9          9          9          9          9          9          9          9          9          9          9          9          9          9          9          9          9          9          9          9          9          9          9          9          9          9          9          9          9          9          9          9          9          9          9          9          9          9          9          9          9          9          9          9          9          9          9          9          9          9          9          9          9          9          9          9          9          9          9          9          9          9          9          9          9          9          9          9          9          9          9          9          9          9          9          9          9          9          9          9          9          9          9          9          9          9          9          9          9          9          9          9          9          9          9          9          9          9          9          9          9          9          9          9          9          9          9          9          9          9          9          9          9          9          9          9          9          9          9          9          9          9          9          9          9          9          9          9          9          9          9          9          9          9          9          9          9          9          9          9          9          9          9          9          9          9          9          9          9          9          9          9          9          9          9          9          9          9          9          9          9          9          9          9          9          9          9          9          9          9          9          9          9          9          9          9          9          9          9          9          9          9          9          9          9          9          9          9          9          9          9          9          9          9          9          9          9          9          9          9          9          9          9          9          9          9          9          9          9          9          9          9          9          9          9          9          9          9          9          9          9          9          9          9          9          9          9          9          9          9          9          9          9          9          9          9          9          9          9          9          9          9          9          9          9          9          9          9          9          9          9          9          9          9          9          9          9          9          9          9          9          9          9          9          9          9          9          9          9          9          9          9          9          9          9          9          9          9          9          9          9          9          9          9          9          9          9          9          9          9          9          9          9          9          9          9          9          9          9          9          9          9          9          9          9          9          9          9          9          9          9          9          9          9          9          9          9          9          9          9          9          9          9          9          9          9          9          9          9          9          9          9          9          9          9          9          9          9          9          9          9          9          9          9          9          9          9          9          9          9          9          9          9          9          9          9          9          9          9          9          9          9          9          9          9          9          9          9          9          9          9          9          9          9          9          9          9          9          9          9          9          9          9          9          9          9          9          9          9          9          9          9          9          9          9          9          9          9          9          9          9          9          9          9          9          9          9          9          9          9          9          9          9          9          9          9          9          9          9          9          9          9          9          9          9          9          9          9          9          9          9          9          9          9          9          9          9          9          9          9          9          9          9          9          9          9          9          9          9          9          9          9          9          9          9          9          9          9          9          9          9          9          9          9          9          9          9          9          9          9          9          9          9          9          9          9          9          9          9          9          9          9          9          9          9          9          9          9          9          9          9          9          9          9          9          9          9          9          9          9          9          9          9          9          9          9          9          9          9          9          9          9          9          9          9          9          9          9          9          9          9          9          9          9          9          9          9          9          9          9          9          9          9          9          9          9          9          9          9          9          9          9          9          9          9          9          9          9          9          9          9          9          9          9          9          9          9          9          9          9          9          9          9          9          9          9          9          9          9          9          9          9          9          9          9          9          9          9          9          9          9          9          9          9          9          9          9          9          9          9          9          9          9          9          9          9          9          9          9          9          9          9          9          9          9          9          9          9          9          9          9          9          9          9          9          9          9          9          9          9          9          9          9          9          9          9          9          9          9          9          9          9          9          9          9          9          9          9          9 </DataArray>
</Cells>
<CellData>
<DataArray type="Int32"                                    Name="material"                                                      NumberOfComponents=" 1" format="ascii">
         1          1          1          1          1          1          1          1          1          1          1          1          1          1          1          1          1          1          1          1          1          1          1          1          1          1          1          1          1          1          1          1          1          1          1          1          1          1          1          1          1          1          1          1          1          1          1          1          1          1          1          1          1          1          1          1          1          1          1          1          1          1          1          1          1          1          1          1          1          1          1          1          1          1          1          1          1          1          1          1          1          1          1          1          1          1          1          1          1          1          1          1          1          1          1          1          1          1          1          1          1          1          1          1          1          1          1          1          1          1          1          1          1          1          1          1          1          1          1          1          1          1          1          1          1          1          1          1          1          1          1          1          1          1          1          1          1          1          1          1          1          1          1          1          1          1          1          1          1          1          1          1          1          1          1          1          1          1          1          1          1          1          1          1          1          1          1          1          1          1          1          1          1          1          1          1          1          1          1          1          1          1          1          1          1          1          1          1          1          1          1          1          1          1          1          1          1          1          1          1          1          1          1          1          1          1          1          1          1          1          1          1          1          1          1          1          1          1          1          1          1          1          1          1          1          1          1          1          1          1          1          1          1          1          1          1          1          1          1          1          1          1          1          1          1          1          1          1          1          1          1          1          1          1          1          1          1          1          1          1          1          1          1          1          1          1          1          1          1          1          1          1          1          1          1          1          1          1          1          1          1          1          1          1          1          1          1          1          1          1          1          1          1          1          1          1          1          1          1          1          1          1          1          1          1          1          1          1          1          1          1          1          1          1          1          1          1          1          1          1          1          1          1          1          1          1          1          1          1          1          1          1          1          1          1          1          1          1          1          1          1          1          1          1          1          1          1          1          1          1          1          1          1          1          1          1          1          1          1          1          1          1          1          1          1          1          1          1          1          1          1          1          1          1          1          1          1          1          1          1          1          1          1          1          1          1          1          1          1          1          1          1          1          1          1          1          1          1          1          1          1          1          1          1          1          1          1          1          1          1          1          1          1          1          1          1          1          1          1          1          1          1          1          1          1          1          1          1          1          1          1          1          1          1          1          1          1          1          1          1          1          1          1          1          1          1          1          1          1          1          1          1          1          1          1          1          1          1          1          1          1          1          1          1          1          1          1          1          1          1          1          1          1          1          1          1          1          1          1          1          1          1          1          1          1          1          1          1          1          1          1          1          1          1          1          1          1          1          1          1          1          1          1          1          1          1          1          1          1          1          1          1          1          1          1          1          1          1          1          1          1          1          1          1          1          1          1          1          1          1          1          1          1          1          1          1          1          1          1          1          1          1          1          1          1          1          1          1          1          1          1          1          1          1          1          1          1          1          1          1          1          1          1          1          1          1          1          1          1          1          1          1          1          1          1          1          1          1          1          1          1          1          1          1          1          1          1          1          1          1          1          1          1          1          1          1          1          1          1          1          1          1          1          1          1          1          1          1          1          1          1          1          1          1          1          1          1          1          1          1          1          1          1          1          1          1          1          1          1          1          1          1          1          1          1          1          1          1          1          1          1          1          1          1          1          1          1          1          1          1          1          1          1          1          1          1          1          1          1          1          1          1          1          1          1          1          1          1          1          1          1          1          1          1          1          1          1          1          1          1          1          1          1          1          1          1          1          1          1          1          1          1          1          1          1          1          1          1          1          1          1          1          1          1          1          1          1          1          1          1          1          1          1          1          1          1          1          1          1          1          1          1          1          1          1          1          1          1          1          1          1          1          1          1          1          1          1          1          1          1          1          1          1          1          1          1          1          1          1          1          1          1          1          1          1          1          1          1          1          1          1          1          1          1          1          1          1          1          1          1          1          1          1          1          1          1          1          1          1          1          1          1          1          1          1          1          1          1          1          1          1          1          1          1          1          1          1          1          1          1          1          1          1          1          1          1          1          1          1          1          1          1          1          1          1          1          1          1          1          1          1          1          1          1          1          1          1          1          1          1          1          1          1          1          1          1          1          1          1          1          1          1          1          1          1          1          1          1          1          1          1          1          1          1          1          1          1          1          1          1          1          1          1          1          1          1          1          1          1          1          1          1          1          1          1          1          1          1          1          1          1          1          1          1          1          1          1          1          1          1          1          1          1          1          1          1          1          1          1          1          1          1          1          1          1          1          1          1          1          1          1          1          1          1          1          1          1          1          1          1          1          1          1          1          1          1          1          1          1          1          1          1          1          1          1          1          1          1          1          1          1          1          1          1          1          1          1          1          1          1          1          1          1          1          1          1          1          1          1          1          1          1          1          1          1          1          1          1          1          1          1          1          1          1          1          1          1          1          1          1          1          1          1          1          1          1          1          1          1          1          1          1          1          1          1          1          1          1          1          1          1          1          1          1          1          1          1          1          1          1          1          1          1          1          1          1          1          1          1          1          1          1          1          1 </DataArray>
</CellData>
<PointData>
<DataArray type="Float64"                                    Name="u"                                                      NumberOfComponents=" 3" format="ascii">
             -0.000090289               0.000000000               0.999999993              -0.000112706               0.000000000               0.999999993              -0.000123300               0.000000000               0.999999993              -0.000129342               0.000000000               0.999999993              -0.000133867               0.000000000               0.999999993              -0.000138241               0.000000000               0.999999993              -0.000143060               0.000000000               0.999999993              -0.000148648               0.000000000               0.999999993              -0.000155071               0.000000000               0.999999993              -0.000162387              -0.000000000               0.999999993              -0.000170553               0.000000000               0.999999993              -0.000179631               0.000000000               0.999999993              -0.000189560               0.000000000               0.999999993              -0.000200179               0.000000000               0.999999993              -0.000211464               0.000000000               0.999999993              -0.000223424               0.000000000               0.999999993              -0.000235929               0.000000000               0.999999993              -0.000089796               0.000056281               0.999999993              -0.000111132               0.000049034               0.999999993              -0.000121057               0.000046865               0.999999993              -0.000126762               0.000047295               0.999999993              -0.000131131               0.000049459               0.999999993              -0.000135481               0.000052693               0.999999993              -0.000140365               0.000056676               0.999999993              -0.000146010               0.000061075               0.999999993              -0.000152513               0.000065809               0.999999993              -0.000159897               0.000070757               0.999999993              -0.000168108               0.000075873               0.999999993              -0.000177146               0.000081052               0.999999993              -0.000186976               0.000086198               0.999999993              -0.000197553               0.000091241               0.999999993              -0.000208836               0.000096076               0.999999993              -0.000220794               0.000100523               0.999999993              -0.000233331               0.000104315               0.999999993              -0.000088209               0.000112003               0.999999993              -0.000106370               0.000097630               0.999999993              -0.000114462               0.000093627               0.999999993              -0.000119201               0.000094894               0.999999993              -0.000123181               0.000099399               0.999999993              -0.000127474               0.000106044               0.999999993              -0.000132547               0.000114099               0.999999993              -0.000138480               0.000123024               0.999999993              -0.000145220               0.000132485               0.999999993              -0.000152762               0.000142403               0.999999993              -0.000161068               0.000152670               0.999999993              -0.000170165               0.000163117               0.999999993              -0.000180012               0.000173664               0.999999993              -0.000190580               0.000184175               0.999999993              -0.000201876               0.000194391               0.999999993              -0.000213886               0.000204151               0.999999993              -0.000226565               0.000213017               0.999999993              -0.000085536               0.000166573               0.999999993              -0.000098599               0.000145375               0.999999993              -0.000104024               0.000140100               0.999999993              -0.000107550               0.000142751               0.999999993              -0.000111250               0.000150023               0.999999993              -0.000115794               0.000160366               0.999999993              -0.000121363               0.000172672               0.999999993              -0.000127870               0.000186121               0.999999993              -0.000135210               0.000200262               0.999999993              -0.000143347               0.000215149               0.999999993              -0.000152195               0.000230478               0.999999993              -0.000161775               0.000246203               0.999999993              -0.000172088               0.000262240               0.999999993              -0.000183095               0.000278395               0.999999993              -0.000194791               0.000294509               0.999999993              -0.000207130               0.000310267               0.999999993              -0.000220045               0.000325390               0.999999993              -0.000081873               0.000219425               0.999999993              -0.000088327               0.000191861               0.999999993              -0.000090820               0.000186059               0.999999993              -0.000093472               0.000190663               0.999999993              -0.000097356               0.000201164               0.999999993              -0.000102626               0.000215387               0.999999993              -0.000109125               0.000231921               0.999999993              -0.000116595               0.000249796               0.999999993              -0.000124901               0.000268605               0.999999993              -0.000134029               0.000288336               0.999999993              -0.000143883               0.000308672               0.999999993              -0.000154411               0.000329558               0.999999993              -0.000165616               0.000350996               0.999999993              -0.000177459               0.000372749               0.999999993              -0.000189799               0.000394632               0.999999993              -0.000202597               0.000416247               0.999999993              -0.000215747               0.000437430               0.999999993              -0.000077244               0.000270018               0.999999993              -0.000076147               0.000236866               0.999999993              -0.000076091               0.000231279               0.999999993              -0.000078514               0.000238385               0.999999993              -0.000083216               0.000252290               0.999999993              -0.000089714               0.000270371               0.999999993              -0.000097559               0.000291014               0.999999993              -0.000106326               0.000313239               0.999999993              -0.000115908               0.000336668               0.999999993              -0.000126285               0.000361090               0.999999993              -0.000137319               0.000386241               0.999999993              -0.000148976               0.000412089               0.999999993              -0.000161161               0.000438660               0.999999993              -0.000173812               0.000465765               0.999999993              -0.000186850               0.000492982               0.999999993              -0.000200127               0.000520067               0.999999993              -0.000213520               0.000546701               0.999999993              -0.000071726               0.000317742               0.999999993              -0.000062828               0.000280286               0.999999993              -0.000061161               0.000275468               0.999999993              -0.000064152               0.000285313               0.999999993              -0.000070315               0.000302678               0.999999993              -0.000078413               0.000324500               0.999999993              -0.000087707               0.000349150               0.999999993              -0.000097892               0.000375660               0.999999993              -0.000108894               0.000403506               0.999999993              -0.000120592               0.000432399               0.999999993              -0.000132871               0.000462096               0.999999993              -0.000145700               0.000492661               0.999999993              -0.000158994               0.000524128               0.999999993              -0.000172629               0.000556062               0.999999993              -0.000186423               0.000588117               0.999999993              -0.000200189               0.000619854               0.999999993              -0.000213822               0.000651104               0.999999993              -0.000065522               0.000361996               0.999999993              -0.000049304               0.000321928               0.999999993              -0.000047002               0.000318382               0.999999993              -0.000051335               0.000330907               0.999999993              -0.000059250               0.000351740               0.999999993              -0.000069033               0.000377157               0.999999993              -0.000080016               0.000405703               0.999999993              -0.000091808               0.000436264               0.999999993              -0.000104163               0.000468294               0.999999993              -0.000117137               0.000501500               0.999999993              -0.000130666               0.000535645               0.999999993              -0.000144697               0.000570771               0.999999993              -0.000159122               0.000606704               0.999999993              -0.000173675               0.000642899               0.999999993              -0.000188021               0.000678916               0.999999993              -0.000202040               0.000714431               0.999999993              -0.000215615               0.000749386               0.999999993              -0.000059148               0.000401977               0.999999993              -0.000036149               0.000361699               0.999999993              -0.000034443               0.000359558               0.999999993              -0.000040479               0.000374632               0.999999993              -0.000050330               0.000398774               0.999999993              -0.000061962               0.000427749               0.999999993              -0.000074631               0.000460035               0.999999993              -0.000087753               0.000494506               0.999999993              -0.000101357               0.000530678               0.999999993              -0.000115500               0.000568145               0.999999993              -0.000130215               0.000606662               0.999999993              -0.000145359               0.000646056               0.999999993              -0.000160643               0.000685877               0.999999993              -0.000175654               0.000725631               0.999999993              -0.000190216               0.000764963               0.999999993              -0.000204345               0.000803741               0.999999993              -0.000218189               0.000841984               0.999999993              -0.000053235               0.000439114               0.999999993              -0.000026263               0.000403322               0.999999993              -0.000022599               0.000397911               0.999999993              -0.000027301               0.000408751               0.999999993              -0.000036182               0.000428942               0.999999993              -0.000046833               0.000454507               0.999999993              -0.000058374               0.000483452               0.999999993              -0.000070216               0.000514784               0.999999993              -0.000082331               0.000547860               0.999999993              -0.000094881               0.000582246               0.999999993              -0.000107742               0.000617764               0.999999993              -0.000120857               0.000654153               0.999999993              -0.000134286               0.000691208               0.999999993              -0.000147672               0.000728558               0.999999993              -0.000160641               0.000765799               0.999999993              -0.000173286               0.000802797               0.999999993              -0.000185778               0.000839397               0.999999993              -0.000046599               0.000472461               0.999999993              -0.000018220               0.000442752               0.999999993              -0.000012593               0.000436421               0.999999993              -0.000015740               0.000443966               0.999999993              -0.000023102               0.000460658               0.999999993              -0.000032507               0.000483098               0.999999993              -0.000042720               0.000509093               0.999999993              -0.000053345               0.000537504               0.999999993              -0.000064097               0.000567695               0.999999993              -0.000074979               0.000599351               0.999999993              -0.000085890               0.000632046               0.999999993              -0.000096878               0.000665692               0.999999993              -0.000108035               0.000699991               0.999999993              -0.000119250               0.000734878               0.999999993              -0.000130155               0.000769935               0.999999993              -0.000140508               0.000805037               0.999999993              -0.000150530               0.000839944               0.999999993              -0.000039538               0.000501350               0.999999993              -0.000011952               0.000478990               0.999999993              -0.000005028               0.000473299               0.999999993              -0.000006439               0.000479130               0.999999993              -0.000011949               0.000493023               0.999999993              -0.000019818               0.000512617               0.999999993              -0.000028644               0.000536004               0.999999993              -0.000037895               0.000561990               0.999999993              -0.000047156               0.000589878               0.999999993              -0.000056280               0.000619208               0.999999993              -0.000065245               0.000649630               0.999999993              -0.000074096               0.000680891               0.999999993              -0.000082856               0.000712875               0.999999993              -0.000091638               0.000745419               0.999999993              -0.000100086               0.000778317               0.999999993              -0.000107706               0.000811381               0.999999993              -0.000114368               0.000844505               0.999999993              -0.000032082               0.000525436               0.999999993              -0.000007350               0.000510845               0.999999993               0.000000026               0.000506964               0.999999993               0.000000050               0.000512197               0.999999993              -0.000003583               0.000524401               0.999999993              -0.000009632               0.000541779               0.999999993              -0.000016923               0.000562987               0.999999993              -0.000024588               0.000586907               0.999999993              -0.000032253               0.000612965               0.999999993              -0.000039675               0.000640509               0.999999993              -0.000046741               0.000669180               0.999999993              -0.000053494               0.000698708               0.999999993              -0.000060083               0.000728867               0.999999993              -0.000066365               0.000759599               0.999999993              -0.000072110               0.000790812               0.999999993              -0.000076764               0.000822260               0.999999993              -0.000079793               0.000853901               0.999999993              -0.000024297               0.000544456               0.999999993              -0.000004271               0.000536967               0.999999993               0.000002616               0.000535634               0.999999993               0.000003579               0.000541154               0.999999993               0.000001479               0.000552483               0.999999993              -0.000002733               0.000568453               0.999999993              -0.000008225               0.000588047               0.999999993              -0.000014163               0.000610449               0.999999993              -0.000020111               0.000635002               0.999999993              -0.000025806               0.000661225               0.999999993              -0.000031102               0.000688707               0.999999993              -0.000036042               0.000717068               0.999999993              -0.000040687               0.000746123               0.999999993              -0.000044713               0.000775753               0.999999993              -0.000047848               0.000805801               0.999999993              -0.000049639               0.000836253               0.999999993              -0.000049538               0.000866992               0.999999993              -0.000016311               0.000558133               0.999999993              -0.000002303               0.000556388               0.999999993               0.000003057               0.000557607               0.999999993               0.000004298               0.000563877               0.999999993               0.000003337               0.000574922               0.999999993               0.000000702               0.000590075               0.999999993              -0.000002967               0.000608613               0.999999993              -0.000007063               0.000629885               0.999999993              -0.000011161               0.000653468               0.999999993              -0.000015021               0.000678872               0.999999993              -0.000018601               0.000705627               0.999999993              -0.000021857               0.000733414               0.999999993              -0.000024727               0.000762014               0.999999993              -0.000027008               0.000791264               0.999999993              -0.000028315               0.000820935               0.999999993              -0.000028239               0.000850950               0.999999993              -0.000026187               0.000881241               0.999999993              -0.000008188               0.000566323               0.999999993              -0.000000999               0.000568336               0.999999993               0.000001920               0.000571481               0.999999993               0.000002803               0.000578477               0.999999993               0.000002478               0.000589549               0.999999993               0.000001188               0.000604269               0.999999993              -0.000000661               0.000622207               0.999999993              -0.000002753               0.000642938               0.999999993              -0.000004803               0.000665966               0.999999993              -0.000006782               0.000690896               0.999999993              -0.000008557               0.000717410               0.999999993              -0.000010174               0.000745104               0.999999993              -0.000011576               0.000773690               0.999999993              -0.000012586               0.000803017               0.999999993              -0.000012988               0.000832887               0.999999993              -0.000012438               0.000863064               0.999999993              -0.000010427               0.000893363               0.999999993               0.000000000               0.000569035               0.999999993              -0.000000000               0.000572318               0.999999993               0.000000000               0.000576222               0.999999993               0.000000000               0.000583560               0.999999993              -0.000000000               0.000594613               0.999999993               0.000000000               0.000609216               0.999999993               0.000000000               0.000626967               0.999999993               0.000000000               0.000647469               0.999999993              -0.000000000               0.000670384               0.999999993               0.000000000               0.000695281               0.999999993               0.000000000               0.000721743               0.999999993               0.000000000               0.000749430               0.999999993               0.000000000               0.000778109               0.999999993              -0.000000000               0.000807597               0.999999993              -0.000000000               0.000837716               0.999999993               0.000000000               0.000868164               0.999999993               0.000000000               0.000898608               0.999999993              -0.000090289               0.000000000               0.999999993              -0.000112706               0.000000000               0.999999993              -0.000123300               0.000000000               0.999999993              -0.000129342               0.000000000               0.999999993              -0.000133867               0.000000000               0.999999993              -0.000138241               0.000000000               0.999999993              -0.000143060               0.000000000               0.999999993              -0.000148648               0.000000000               0.999999993              -0.000155071               0.000000000               0.999999993              -0.000162387              -0.000000000               0.999999993              -0.000170553               0.000000000               0.999999993              -0.000179631               0.000000000               0.999999993              -0.000189560               0.000000000               0.999999993              -0.000200179               0.000000000               0.999999993              -0.000211464               0.000000000               0.999999993              -0.000223424               0.000000000               0.999999993              -0.000235929               0.000000000               0.999999993              -0.000089796              -0.000056281               0.999999993              -0.000111132              -0.000049034               0.999999993              -0.000121057              -0.000046865               0.999999993              -0.000126762              -0.000047295               0.999999993              -0.000131131              -0.000049459               0.999999993              -0.000135481              -0.000052693               0.999999993              -0.000140365              -0.000056676               0.999999993              -0.000146010              -0.000061075               0.999999993              -0.000152513              -0.000065809               0.999999993              -0.000159897              -0.000070757               0.999999993              -0.000168108              -0.000075873               0.999999993              -0.000177146              -0.000081052               0.999999993              -0.000186976              -0.000086198               0.999999993              -0.000197553              -0.000091241               0.999999993              -0.000208836              -0.000096076               0.999999993              -0.000220794              -0.000100523               0.999999993              -0.000233331              -0.000104315               0.999999993              -0.000088209              -0.000112003               0.999999993              -0.000106370              -0.000097630               0.999999993              -0.000114462              -0.000093627               0.999999993              -0.000119201              -0.000094894               0.999999993              -0.000123181              -0.000099399               0.999999993              -0.000127474              -0.000106044               0.999999993              -0.000132547              -0.000114099               0.999999993              -0.000138480              -0.000123024               0.999999993              -0.000145220              -0.000132485               0.999999993              -0.000152762              -0.000142403               0.999999993              -0.000161068              -0.000152670               0.999999993              -0.000170165              -0.000163117               0.999999993              -0.000180012              -0.000173664               0.999999993              -0.000190580              -0.000184175               0.999999993              -0.000201876              -0.000194391               0.999999993              -0.000213886              -0.000204151               0.999999993              -0.000226565              -0.000213017               0.999999993              -0.000085536              -0.000166573               0.999999993              -0.000098599              -0.000145375               0.999999993              -0.000104024              -0.000140100               0.999999993              -0.000107550              -0.000142751               0.999999993              -0.000111250              -0.000150023               0.999999993              -0.000115794              -0.000160366               0.999999993              -0.000121363              -0.000172672               0.999999993              -0.000127870              -0.000186121               0.999999993              -0.000135210              -0.000200262               0.999999993              -0.000143347              -0.000215149               0.999999993              -0.000152195              -0.000230478               0.999999993              -0.000161775              -0.000246203               0.999999993              -0.000172088              -0.000262240               0.999999993              -0.000183095              -0.000278395               0.999999993              -0.000194791              -0.000294509               0.999999993              -0.000207130              -0.000310267               0.999999993              -0.000220045              -0.000325390               0.999999993              -0.000081873              -0.000219425               0.999999993              -0.000088327              -0.000191861               0.999999993              -0.000090820              -0.000186059               0.999999993              -0.000093472              -0.000190663               0.999999993              -0.000097356              -0.000201164               0.999999993              -0.000102626              -0.000215387               0.999999993              -0.000109125              -0.000231921               0.999999993              -0.000116595              -0.000249796               0.999999993              -0.000124901              -0.000268605               0.999999993              -0.000134029              -0.000288336               0.999999993              -0.000143883              -0.000308672               0.999999993              -0.000154411              -0.000329558               0.999999993              -0.000165616              -0.000350996               0.999999993              -0.000177459              -0.000372749               0.999999993              -0.000189799              -0.000394632               0.999999993              -0.000202597              -0.000416247               0.999999993              -0.000215747              -0.000437430               0.999999993              -0.000077244              -0.000270018               0.999999993              -0.000076147              -0.000236866               0.999999993              -0.000076091              -0.000231279               0.999999993              -0.000078514              -0.000238385               0.999999993              -0.000083216              -0.000252290               0.999999993              -0.000089714              -0.000270371               0.999999993              -0.000097559              -0.000291014               0.999999993              -0.000106326              -0.000313239               0.999999993              -0.000115908              -0.000336668               0.999999993              -0.000126285              -0.000361090               0.999999993              -0.000137319              -0.000386241               0.999999993              -0.000148976              -0.000412089               0.999999993              -0.000161161              -0.000438660               0.999999993              -0.000173812              -0.000465765               0.999999993              -0.000186850              -0.000492982               0.999999993              -0.000200127              -0.000520067               0.999999993              -0.000213520              -0.000546701               0.999999993              -0.000071726              -0.000317742               0.999999993              -0.000062828              -0.000280286               0.999999993              -0.000061161              -0.000275468               0.999999993              -0.000064152              -0.000285313               0.999999993              -0.000070315              -0.000302678               0.999999993              -0.000078413              -0.000324500               0.999999993              -0.000087707              -0.000349150               0.999999993              -0.000097892              -0.000375660               0.999999993              -0.000108894              -0.000403506               0.999999993              -0.000120592              -0.000432399               0.999999993              -0.000132871              -0.000462096               0.999999993              -0.000145700              -0.000492661               0.999999993              -0.000158994              -0.000524128               0.999999993              -0.000172629              -0.000556062               0.999999993              -0.000186423              -0.000588117               0.999999993              -0.000200189              -0.000619854               0.999999993              -0.000213822              -0.000651104               0.999999993              -0.000065522              -0.000361996               0.999999993              -0.000049304              -0.000321928               0.999999993              -0.000047002              -0.000318382               0.999999993              -0.000051335              -0.000330907               0.999999993              -0.000059250              -0.000351740               0.999999993              -0.000069033              -0.000377157               0.999999993              -0.000080016              -0.000405703               0.999999993              -0.000091808              -0.000436264               0.999999993              -0.000104163              -0.000468294               0.999999993              -0.000117137              -0.000501500               0.999999993              -0.000130666              -0.000535645               0.999999993              -0.000144697              -0.000570771               0.999999993              -0.000159122              -0.000606704               0.999999993              -0.000173675              -0.000642899               0.999999993              -0.000188021              -0.000678916               0.999999993              -0.000202040              -0.000714431               0.999999993              -0.000215615              -0.000749386               0.999999993              -0.000059148              -0.000401977               0.999999993              -0.000036149              -0.000361699               0.999999993              -0.000034443              -0.000359558               0.999999993              -0.000040479              -0.000374632               0.999999993              -0.000050330              -0.000398774               0.999999993              -0.000061962              -0.000427749               0.999999993              -0.000074631              -0.000460035               0.999999993              -0.000087753              -0.000494506               0.999999993              -0.000101357              -0.000530678               0.999999993              -0.000115500              -0.000568145               0.999999993              -0.000130215              -0.000606662               0.999999993              -0.000145359              -0.000646056               0.999999993              -0.000160643              -0.000685877               0.999999993              -0.000175654              -0.000725631               0.999999993              -0.000190216              -0.000764963               0.999999993              -0.000204345              -0.000803741               0.999999993              -0.000218189              -0.000841984               0.999999993              -0.000053235              -0.000439114               0.999999993              -0.000026263              -0.000403322               0.999999993              -0.000022599              -0.000397911               0.999999993              -0.000027301              -0.000408751               0.999999993              -0.000036182              -0.000428942               0.999999993              -0.000046833              -0.000454507               0.999999993              -0.000058374              -0.000483452               0.999999993              -0.000070216              -0.000514784               0.999999993              -0.000082331              -0.000547860               0.999999993              -0.000094881              -0.000582246               0.999999993              -0.000107742              -0.000617764               0.999999993              -0.000120857              -0.000654153               0.999999993              -0.000134286              -0.000691208               0.999999993              -0.000147672              -0.000728558               0.999999993              -0.000160641              -0.000765799               0.999999993              -0.000173286              -0.000802797               0.999999993              -0.000185778              -0.000839397               0.999999993              -0.000046599              -0.000472461               0.999999993              -0.000018220              -0.000442752               0.999999993              -0.000012593              -0.000436421               0.999999993              -0.000015740              -0.000443966               0.999999993              -0.000023102              -0.000460658               0.999999993              -0.000032507              -0.000483098               0.999999993              -0.000042720              -0.000509093               0.999999993              -0.000053345              -0.000537504               0.999999993              -0.000064097              -0.000567695               0.999999993              -0.000074979              -0.000599351               0.999999993              -0.000085890              -0.000632046               0.999999993              -0.000096878              -0.000665692               0.999999993              -0.000108035              -0.000699991               0.999999993              -0.000119250              -0.000734878               0.999999993              -0.000130155              -0.000769935               0.999999993              -0.000140508              -0.000805037               0.999999993              -0.000150530              -0.000839944               0.999999993              -0.000039538              -0.000501350               0.999999993              -0.000011952              -0.000478990               0.999999993              -0.000005028              -0.000473299               0.999999993              -0.000006439              -0.000479130               0.999999993              -0.000011949              -0.000493023               0.999999993              -0.000019818              -0.000512617               0.999999993              -0.000028644              -0.000536004               0.999999993              -0.000037895              -0.000561990               0.999999993              -0.000047156              -0.000589878               0.999999993              -0.000056280              -0.000619208               0.999999993              -0.000065245              -0.000649630               0.999999993              -0.000074096              -0.000680891               0.999999993              -0.000082856              -0.000712875               0.999999993              -0.000091638              -0.000745419               0.999999993              -0.000100086              -0.000778317               0.999999993              -0.000107706              -0.000811381               0.999999993              -0.000114368              -0.000844505               0.999999993              -0.000032082              -0.000525436               0.999999993              -0.000007350              -0.000510845               0.999999993               0.000000026              -0.000506964               0.999999993               0.000000050              -0.000512197               0.999999993              -0.000003583              -0.000524401               0.999999993              -0.000009632              -0.000541779               0.999999993              -0.000016923              -0.000562987               0.999999993              -0.000024588              -0.000586907               0.999999993              -0.000032253              -0.000612965               0.999999993              -0.000039675              -0.000640509               0.999999993              -0.000046741              -0.000669180               0.999999993              -0.000053494              -0.000698708               0.999999993              -0.000060083              -0.000728867               0.999999993              -0.000066365              -0.000759599               0.999999993              -0.000072110              -0.000790812               0.999999993              -0.000076764              -0.000822260               0.999999993              -0.000079793              -0.000853901               0.999999993              -0.000024297              -0.000544456               0.999999993              -0.000004271              -0.000536967               0.999999993               0.000002616              -0.000535634               0.999999993               0.000003579              -0.000541154               0.999999993               0.000001479              -0.000552483               0.999999993              -0.000002733              -0.000568453               0.999999993              -0.000008225              -0.000588047               0.999999993              -0.000014163              -0.000610449               0.999999993              -0.000020111              -0.000635002               0.999999993              -0.000025806              -0.000661225               0.999999993              -0.000031102              -0.000688707               0.999999993              -0.000036042              -0.000717068               0.999999993              -0.000040687              -0.000746123               0.999999993              -0.000044713              -0.000775753               0.999999993              -0.000047848              -0.000805801               0.999999993              -0.000049639              -0.000836253               0.999999993              -0.000049538              -0.000866992               0.999999993              -0.000016311              -0.000558133               0.999999993              -0.000002303              -0.000556388               0.999999993               0.000003057              -0.000557607               0.999999993               0.000004298              -0.000563877               0.999999993               0.000003337              -0.000574922               0.999999993               0.000000702              -0.000590075               0.999999993              -0.000002967              -0.000608613               0.999999993              -0.000007063              -0.000629885               0.999999993              -0.000011161              -0.000653468               0.999999993              -0.000015021              -0.000678872               0.999999993              -0.000018601              -0.000705627               0.999999993              -0.000021857              -0.000733414               0.999999993              -0.000024727              -0.000762014               0.999999993              -0.000027008              -0.000791264               0.999999993              -0.000028315              -0.000820935               0.999999993              -0.000028239              -0.000850950               0.999999993              -0.000026187              -0.000881241               0.999999993              -0.000008188              -0.000566323               0.999999993              -0.000000999              -0.000568336               0.999999993               0.000001920              -0.000571481               0.999999993               0.000002803              -0.000578477               0.999999993               0.000002478              -0.000589549               0.999999993               0.000001188              -0.000604269               0.999999993              -0.000000661              -0.000622207               0.999999993              -0.000002753              -0.000642938               0.999999993              -0.000004803              -0.000665966               0.999999993              -0.000006782              -0.000690896               0.999999993              -0.000008557              -0.000717410               0.999999993              -0.000010174              -0.000745104               0.999999993              -0.000011576              -0.000773690               0.999999993              -0.000012586              -0.000803017               0.999999993              -0.000012988              -0.000832887               0.999999993              -0.000012438              -0.000863064               0.999999993              -0.000010427              -0.000893363               0.999999993               0.000000000              -0.000569035               0.999999993              -0.000000000              -0.000572318               0.999999993              -0.000000000              -0.000576222               0.999999993              -0.000000000              -0.000583560               0.999999993               0.000000000              -0.000594613               0.999999993               0.000000000              -0.000609216               0.999999993               0.000000000              -0.000626967               0.999999993               0.000000000              -0.000647469               0.999999993               0.000000000              -0.000670384               0.999999993              -0.000000000              -0.000695281               0.999999993              -0.000000000              -0.000721743               0.999999993              -0.000000000              -0.000749430               0.999999993              -0.000000000              -0.000778109               0.999999993               0.000000000              -0.000807597               0.999999993               0.000000000              -0.000837716               0.999999993               0.000000000              -0.000868164               0.999999993               0.000000000              -0.000898608               0.999999993               0.000090289              -0.000000000               0.999999993               0.000112706              -0.000000000               0.999999993               0.000123300              -0.000000000               0.999999993               0.000129342              -0.000000000               0.999999993               0.000133867              -0.000000000               0.999999993               0.000138241              -0.000000000               0.999999993               0.000143060               0.000000000               0.999999993               0.000148648               0.000000000               0.999999993               0.000155071              -0.000000000               0.999999993               0.000162387              -0.000000000               0.999999993               0.000170553              -0.000000000               0.999999993               0.000179631              -0.000000000               0.999999993               0.000189560               0.000000000               0.999999993               0.000200179              -0.000000000               0.999999993               0.000211464              -0.000000000               0.999999993               0.000223424              -0.000000000               0.999999993               0.000235929              -0.000000000               0.999999993               0.000089796              -0.000056281               0.999999993               0.000111132              -0.000049034               0.999999993               0.000121057              -0.000046865               0.999999993               0.000126762              -0.000047295               0.999999993               0.000131131              -0.000049459               0.999999993               0.000135481              -0.000052693               0.999999993               0.000140365              -0.000056676               0.999999993               0.000146010              -0.000061075               0.999999993               0.000152513              -0.000065809               0.999999993               0.000159897              -0.000070757               0.999999993               0.000168108              -0.000075873               0.999999993               0.000177146              -0.000081052               0.999999993               0.000186976              -0.000086198               0.999999993               0.000197553              -0.000091241               0.999999993               0.000208836              -0.000096076               0.999999993               0.000220794              -0.000100523               0.999999993               0.000233331              -0.000104315               0.999999993               0.000088209              -0.000112003               0.999999993               0.000106370              -0.000097630               0.999999993               0.000114462              -0.000093627               0.999999993               0.000119201              -0.000094894               0.999999993               0.000123181              -0.000099399               0.999999993               0.000127474              -0.000106044               0.999999993               0.000132547              -0.000114099               0.999999993               0.000138480              -0.000123024               0.999999993               0.000145220              -0.000132485               0.999999993               0.000152762              -0.000142403               0.999999993               0.000161068              -0.000152670               0.999999993               0.000170165              -0.000163117               0.999999993               0.000180012              -0.000173664               0.999999993               0.000190580              -0.000184175               0.999999993               0.000201876              -0.000194391               0.999999993               0.000213886              -0.000204151               0.999999993               0.000226565              -0.000213017               0.999999993               0.000085536              -0.000166573               0.999999993               0.000098599              -0.000145375               0.999999993               0.000104024              -0.000140100               0.999999993               0.000107550              -0.000142751               0.999999993               0.000111250              -0.000150023               0.999999993               0.000115794              -0.000160366               0.999999993               0.000121363              -0.000172672               0.999999993               0.000127870              -0.000186121               0.999999993               0.000135210              -0.000200262               0.999999993               0.000143347              -0.000215149               0.999999993               0.000152195              -0.000230478               0.999999993               0.000161775              -0.000246203               0.999999993               0.000172088              -0.000262240               0.999999993               0.000183095              -0.000278395               0.999999993               0.000194791              -0.000294509               0.999999993               0.000207130              -0.000310267               0.999999993               0.000220045              -0.000325390               0.999999993               0.000081873              -0.000219425               0.999999993               0.000088327              -0.000191861               0.999999993               0.000090820              -0.000186059               0.999999993               0.000093472              -0.000190663               0.999999993               0.000097356              -0.000201164               0.999999993               0.000102626              -0.000215387               0.999999993               0.000109125              -0.000231921               0.999999993               0.000116595              -0.000249796               0.999999993               0.000124901              -0.000268605               0.999999993               0.000134029              -0.000288336               0.999999993               0.000143883              -0.000308672               0.999999993               0.000154411              -0.000329558               0.999999993               0.000165616              -0.000350996               0.999999993               0.000177459              -0.000372749               0.999999993               0.000189799              -0.000394632               0.999999993               0.000202597              -0.000416247               0.999999993               0.000215747              -0.000437430               0.999999993               0.000077244              -0.000270018               0.999999993               0.000076147              -0.000236866               0.999999993               0.000076091              -0.000231279               0.999999993               0.000078514              -0.000238385               0.999999993               0.000083216              -0.000252290               0.999999993               0.000089714              -0.000270371               0.999999993               0.000097559              -0.000291014               0.999999993               0.000106326              -0.000313239               0.999999993               0.000115908              -0.000336668               0.999999993               0.000126285              -0.000361090               0.999999993               0.000137319              -0.000386241               0.999999993               0.000148976              -0.000412089               0.999999993               0.000161161              -0.000438660               0.999999993               0.000173812              -0.000465765               0.999999993               0.000186850              -0.000492982               0.999999993               0.000200127              -0.000520067               0.999999993               0.000213520              -0.000546701               0.999999993               0.000071726              -0.000317742               0.999999993               0.000062828              -0.000280286               0.999999993               0.000061161              -0.000275468               0.999999993               0.000064152              -0.000285313               0.999999993               0.000070315              -0.000302678               0.999999993               0.000078413              -0.000324500               0.999999993               0.000087707              -0.000349150               0.999999993               0.000097892              -0.000375660               0.999999993               0.000108894              -0.000403506               0.999999993               0.000120592              -0.000432399               0.999999993               0.000132871              -0.000462096               0.999999993               0.000145700              -0.000492661               0.999999993               0.000158994              -0.000524128               0.999999993               0.000172629              -0.000556062               0.999999993               0.000186423              -0.000588117               0.999999993               0.000200189              -0.000619854               0.999999993               0.000213822              -0.000651104               0.999999993               0.000065522              -0.000361996               0.999999993               0.000049304              -0.000321928               0.999999993               0.000047002              -0.000318382               0.999999993               0.000051335              -0.000330907               0.999999993               0.000059250              -0.000351740               0.999999993               0.000069033              -0.000377157               0.999999993               0.000080016              -0.000405703               0.999999993               0.000091808              -0.000436264               0.999999993               0.000104163              -0.000468294               0.999999993               0.000117137              -0.000501500               0.999999993               0.000130666              -0.000535645               0.999999993               0.000144697              -0.000570771               0.999999993               0.000159122              -0.000606704               0.999999993               0.000173675              -0.000642899               0.999999993               0.000188021              -0.000678916               0.999999993               0.000202040              -0.000714431               0.999999993               0.000215615              -0.000749386               0.999999993               0.000059148              -0.000401977               0.999999993               0.000036149              -0.000361699               0.999999993               0.000034443              -0.000359558               0.999999993               0.000040479              -0.000374632               0.999999993               0.000050330              -0.000398774               0.999999993               0.000061962              -0.000427749               0.999999993               0.000074631              -0.000460035               0.999999993               0.000087753              -0.000494506               0.999999993               0.000101357              -0.000530678               0.999999993               0.000115500              -0.000568145               0.999999993               0.000130215              -0.000606662               0.999999993               0.000145359              -0.000646056               0.999999993               0.000160643              -0.000685877               0.999999993               0.000175654              -0.000725631               0.999999993               0.000190216              -0.000764963               0.999999993               0.000204345              -0.000803741               0.999999993               0.000218189              -0.000841984               0.999999993               0.000053235              -0.000439114               0.999999993               0.000026263              -0.000403322               0.999999993               0.000022599              -0.000397911               0.999999993               0.000027301              -0.000408751               0.999999993               0.000036182              -0.000428942               0.999999993               0.000046833              -0.000454507               0.999999993               0.000058374              -0.000483452               0.999999993               0.000070216              -0.000514784               0.999999993               0.000082331              -0.000547860               0.999999993               0.000094881              -0.000582246               0.999999993               0.000107742              -0.000617764               0.999999993               0.000120857              -0.000654153               0.999999993               0.000134286              -0.000691208               0.999999993               0.000147672              -0.000728558               0.999999993               0.000160641              -0.000765799               0.999999993               0.000173286              -0.000802797               0.999999993               0.000185778              -0.000839397               0.999999993               0.000046599              -0.000472461               0.999999993               0.000018220              -0.000442752               0.999999993               0.000012593              -0.000436421               0.999999993               0.000015740              -0.000443966               0.999999993               0.000023102              -0.000460658               0.999999993               0.000032507              -0.000483098               0.999999993               0.000042720              -0.000509093               0.999999993               0.000053345              -0.000537504               0.999999993               0.000064097              -0.000567695               0.999999993               0.000074979              -0.000599351               0.999999993               0.000085890              -0.000632046               0.999999993               0.000096878              -0.000665692               0.999999993               0.000108035              -0.000699991               0.999999993               0.000119250              -0.000734878               0.999999993               0.000130155              -0.000769935               0.999999993               0.000140508              -0.000805037               0.999999993               0.000150530              -0.000839944               0.999999993               0.000039538              -0.000501350               0.999999993               0.000011952              -0.000478990               0.999999993               0.000005028              -0.000473299               0.999999993               0.000006439              -0.000479130               0.999999993               0.000011949              -0.000493023               0.999999993               0.000019818              -0.000512617               0.999999993               0.000028644              -0.000536004               0.999999993               0.000037895              -0.000561990               0.999999993               0.000047156              -0.000589878               0.999999993               0.000056280              -0.000619208               0.999999993               0.000065245              -0.000649630               0.999999993               0.000074096              -0.000680891               0.999999993               0.000082856              -0.000712875               0.999999993               0.000091638              -0.000745419               0.999999993               0.000100086              -0.000778317               0.999999993               0.000107706              -0.000811381               0.999999993               0.000114368              -0.000844505               0.999999993               0.000032082              -0.000525436               0.999999993               0.000007350              -0.000510845               0.999999993              -0.000000026              -0.000506964               0.999999993              -0.000000050              -0.000512197               0.999999993               0.000003583              -0.000524401               0.999999993               0.000009632              -0.000541779               0.999999993               0.000016923              -0.000562987               0.999999993               0.000024588              -0.000586907               0.999999993               0.000032253              -0.000612965               0.999999993               0.000039675              -0.000640509               0.999999993               0.000046741              -0.000669180               0.999999993               0.000053494              -0.000698708               0.999999993               0.000060083              -0.000728867               0.999999993               0.000066365              -0.000759599               0.999999993               0.000072110              -0.000790812               0.999999993               0.000076764              -0.000822260               0.999999993               0.000079793              -0.000853901               0.999999993               0.000024297              -0.000544456               0.999999993               0.000004271              -0.000536967               0.999999993              -0.000002616              -0.000535634               0.999999993              -0.000003579              -0.000541154               0.999999993              -0.000001479              -0.000552483               0.999999993               0.000002733              -0.000568453               0.999999993               0.000008225              -0.000588047               0.999999993               0.000014163              -0.000610449               0.999999993               0.000020111              -0.000635002               0.999999993               0.000025806              -0.000661225               0.999999993               0.000031102              -0.000688707               0.999999993               0.000036042              -0.000717068               0.999999993               0.000040687              -0.000746123               0.999999993               0.000044713              -0.000775753               0.999999993               0.000047848              -0.000805801               0.999999993               0.000049639              -0.000836253               0.999999993               0.000049538              -0.000866992               0.999999993               0.000016311              -0.000558133               0.999999993               0.000002303              -0.000556388               0.999999993              -0.000003057              -0.000557607               0.999999993              -0.000004298              -0.000563877               0.999999993              -0.000003337              -0.000574922               0.999999993              -0.000000702              -0.000590075               0.999999993               0.000002967              -0.000608613               0.999999993               0.000007063              -0.000629885               0.999999993               0.000011161              -0.000653468               0.999999993               0.000015021              -0.000678872               0.999999993               0.000018601              -0.000705627               0.999999993               0.000021857              -0.000733414               0.999999993               0.000024727              -0.000762014               0.999999993               0.000027008              -0.000791264               0.999999993               0.000028315              -0.000820935               0.999999993               0.000028239              -0.000850950               0.999999993               0.000026187              -0.000881241               0.999999993               0.000008188              -0.000566323               0.999999993               0.000000999              -0.000568336               0.999999993              -0.000001920              -0.000571481               0.999999993              -0.000002803              -0.000578477               0.999999993              -0.000002478              -0.000589549               0.999999993              -0.000001188              -0.000604269               0.999999993               0.000000661              -0.000622207               0.999999993               0.000002753              -0.000642938               0.999999993               0.000004803              -0.000665966               0.999999993               0.000006782              -0.000690896               0.999999993               0.000008557              -0.000717410               0.999999993               0.000010174              -0.000745104               0.999999993               0.000011576              -0.000773690               0.999999993               0.000012586              -0.000803017               0.999999993               0.000012988              -0.000832887               0.999999993               0.000012438              -0.000863064               0.999999993               0.000010427              -0.000893363               0.999999993               0.000000000              -0.000569035               0.999999993              -0.000000000              -0.000572318               0.999999993              -0.000000000              -0.000576222               0.999999993              -0.000000000              -0.000583560               0.999999993               0.000000000              -0.000594613               0.999999993               0.000000000              -0.000609216               0.999999993               0.000000000              -0.000626967               0.999999993               0.000000000              -0.000647469               0.999999993               0.000000000              -0.000670384               0.999999993              -0.000000000              -0.000695281               0.999999993              -0.000000000              -0.000721743               0.999999993              -0.000000000              -0.000749430               0.999999993              -0.000000000              -0.000778109               0.999999993               0.000000000              -0.000807597               0.999999993               0.000000000              -0.000837716               0.999999993               0.000000000              -0.000868164               0.999999993               0.000000000              -0.000898608               0.999999993               0.000090289              -0.000000000               0.999999993               0.000112706              -0.000000000               0.999999993               0.000123300              -0.000000000               0.999999993               0.000129342              -0.000000000               0.999999993               0.000133867              -0.000000000               0.999999993               0.000138241              -0.000000000               0.999999993               0.000143060               0.000000000               0.999999993               0.000148648               0.000000000               0.999999993               0.000155071              -0.000000000               0.999999993               0.000162387              -0.000000000               0.999999993               0.000170553              -0.000000000               0.999999993               0.000179631              -0.000000000               0.999999993               0.000189560               0.000000000               0.999999993               0.000200179              -0.000000000               0.999999993               0.000211464              -0.000000000               0.999999993               0.000223424              -0.000000000               0.999999993               0.000235929              -0.000000000               0.999999993               0.000089796               0.000056281               0.999999993               0.000111132               0.000049034               0.999999993               0.000121057               0.000046865               0.999999993               0.000126762               0.000047295               0.999999993               0.000131131               0.000049459               0.999999993               0.000135481               0.000052693               0.999999993               0.000140365               0.000056676               0.999999993               0.000146010               0.000061075               0.999999993               0.000152513               0.000065809               0.999999993               0.000159897               0.000070757               0.999999993               0.000168108               0.000075873               0.999999993               0.000177146               0.000081052               0.999999993               0.000186976               0.000086198               0.999999993               0.000197553               0.000091241               0.999999993               0.000208836               0.000096076               0.999999993               0.000220794               0.000100523               0.999999993               0.000233331               0.000104315               0.999999993               0.000088209               0.000112003               0.999999993               0.000106370               0.000097630               0.999999993               0.000114462               0.000093627               0.999999993               0.000119201               0.000094894               0.999999993               0.000123181               0.000099399               0.999999993               0.000127474               0.000106044               0.999999993               0.000132547               0.000114099               0.999999993               0.000138480               0.000123024               0.999999993               0.000145220               0.000132485               0.999999993               0.000152762               0.000142403               0.999999993               0.000161068               0.000152670               0.999999993               0.000170165               0.000163117               0.999999993               0.000180012               0.000173664               0.999999993               0.000190580               0.000184175               0.999999993               0.000201876               0.000194391               0.999999993               0.000213886               0.000204151               0.999999993               0.000226565               0.000213017               0.999999993               0.000085536               0.000166573               0.999999993               0.000098599               0.000145375               0.999999993               0.000104024               0.000140100               0.999999993               0.000107550               0.000142751               0.999999993               0.000111250               0.000150023               0.999999993               0.000115794               0.000160366               0.999999993               0.000121363               0.000172672               0.999999993               0.000127870               0.000186121               0.999999993               0.000135210               0.000200262               0.999999993               0.000143347               0.000215149               0.999999993               0.000152195               0.000230478               0.999999993               0.000161775               0.000246203               0.999999993               0.000172088               0.000262240               0.999999993               0.000183095               0.000278395               0.999999993               0.000194791               0.000294509               0.999999993               0.000207130               0.000310267               0.999999993               0.000220045               0.000325390               0.999999993               0.000081873               0.000219425               0.999999993               0.000088327               0.000191861               0.999999993               0.000090820               0.000186059               0.999999993               0.000093472               0.000190663               0.999999993               0.000097356               0.000201164               0.999999993               0.000102626               0.000215387               0.999999993               0.000109125               0.000231921               0.999999993               0.000116595               0.000249796               0.999999993               0.000124901               0.000268605               0.999999993               0.000134029               0.000288336               0.999999993               0.000143883               0.000308672               0.999999993               0.000154411               0.000329558               0.999999993               0.000165616               0.000350996               0.999999993               0.000177459               0.000372749               0.999999993               0.000189799               0.000394632               0.999999993               0.000202597               0.000416247               0.999999993               0.000215747               0.000437430               0.999999993               0.000077244               0.000270018               0.999999993               0.000076147               0.000236866               0.999999993               0.000076091               0.000231279               0.999999993               0.000078514               0.000238385               0.999999993               0.000083216               0.000252290               0.999999993               0.000089714               0.000270371               0.999999993               0.000097559               0.000291014               0.999999993               0.000106326               0.000313239               0.999999993               0.000115908               0.000336668               0.999999993               0.000126285               0.000361090               0.999999993               0.000137319               0.000386241               0.999999993               0.000148976               0.000412089               0.999999993               0.000161161               0.000438660               0.999999993               0.000173812               0.000465765               0.999999993               0.000186850               0.000492982               0.999999993               0.000200127               0.000520067               0.999999993               0.000213520               0.000546701               0.999999993               0.000071726               0.000317742               0.999999993               0.000062828               0.000280286               0.999999993               0.000061161               0.000275468               0.999999993               0.000064152               0.000285313               0.999999993               0.000070315               0.000302678               0.999999993               0.000078413               0.000324500               0.999999993               0.000087707               0.000349150               0.999999993               0.000097892               0.000375660               0.999999993               0.000108894               0.000403506               0.999999993               0.000120592               0.000432399               0.999999993               0.000132871               0.000462096               0.999999993               0.000145700               0.000492661               0.999999993               0.000158994               0.000524128               0.999999993               0.000172629               0.000556062               0.999999993               0.000186423               0.000588117               0.999999993               0.000200189               0.000619854               0.999999993               0.000213822               0.000651104               0.999999993               0.000065522               0.000361996               0.999999993               0.000049304               0.000321928               0.999999993               0.000047002               0.000318382               0.999999993               0.000051335               0.000330907               0.999999993               0.000059250               0.000351740               0.999999993               0.000069033               0.000377157               0.999999993               0.000080016               0.000405703               0.999999993               0.000091808               0.000436264               0.999999993               0.000104163               0.000468294               0.999999993               0.000117137               0.000501500               0.999999993               0.000130666               0.000535645               0.999999993               0.000144697               0.000570771               0.999999993               0.000159122               0.000606704               0.999999993               0.000173675               0.000642899               0.999999993               0.000188021               0.000678916               0.999999993               0.000202040               0.000714431               0.999999993               0.000215615               0.000749386               0.999999993               0.000059148               0.000401977               0.999999993               0.000036149               0.000361699               0.999999993               0.000034443               0.000359558               0.999999993               0.000040479               0.000374632               0.999999993               0.000050330               0.000398774               0.999999993               0.000061962               0.000427749               0.999999993               0.000074631               0.000460035               0.999999993               0.000087753               0.000494506               0.999999993               0.000101357               0.000530678               0.999999993               0.000115500               0.000568145               0.999999993               0.000130215               0.000606662               0.999999993               0.000145359               0.000646056               0.999999993               0.000160643               0.000685877               0.999999993               0.000175654               0.000725631               0.999999993               0.000190216               0.000764963               0.999999993               0.000204345               0.000803741               0.999999993               0.000218189               0.000841984               0.999999993               0.000053235               0.000439114               0.999999993               0.000026263               0.000403322               0.999999993               0.000022599               0.000397911               0.999999993               0.000027301               0.000408751               0.999999993               0.000036182               0.000428942               0.999999993               0.000046833               0.000454507               0.999999993               0.000058374               0.000483452               0.999999993               0.000070216               0.000514784               0.999999993               0.000082331               0.000547860               0.999999993               0.000094881               0.000582246               0.999999993               0.000107742               0.000617764               0.999999993               0.000120857               0.000654153               0.999999993               0.000134286               0.000691208               0.999999993               0.000147672               0.000728558               0.999999993               0.000160641               0.000765799               0.999999993               0.000173286               0.000802797               0.999999993               0.000185778               0.000839397               0.999999993               0.000046599               0.000472461               0.999999993               0.000018220               0.000442752               0.999999993               0.000012593               0.000436421               0.999999993               0.000015740               0.000443966               0.999999993               0.000023102               0.000460658               0.999999993               0.000032507               0.000483098               0.999999993               0.000042720               0.000509093               0.999999993               0.000053345               0.000537504               0.999999993               0.000064097               0.000567695               0.999999993               0.000074979               0.000599351               0.999999993               0.000085890               0.000632046               0.999999993               0.000096878               0.000665692               0.999999993               0.000108035               0.000699991               0.999999993               0.000119250               0.000734878               0.999999993               0.000130155               0.000769935               0.999999993               0.000140508               0.000805037               0.999999993               0.000150530               0.000839944               0.999999993               0.000039538               0.000501350               0.999999993               0.000011952               0.000478990               0.999999993               0.000005028               0.000473299               0.999999993               0.000006439               0.000479130               0.999999993               0.000011949               0.000493023               0.999999993               0.000019818               0.000512617               0.999999993               0.000028644               0.000536004               0.999999993               0.000037895               0.000561990               0.999999993               0.000047156               0.000589878               0.999999993               0.000056280               0.000619208               0.999999993               0.000065245               0.000649630               0.999999993               0.000074096               0.000680891               0.999999993               0.000082856               0.000712875               0.999999993               0.000091638               0.000745419               0.999999993               0.000100086               0.000778317               0.999999993               0.000107706               0.000811381               0.999999993               0.000114368               0.000844505               0.999999993               0.000032082               0.000525436               0.999999993               0.000007350               0.000510845               0.999999993              -0.000000026               0.000506964               0.999999993              -0.000000050               0.000512197               0.999999993               0.000003583               0.000524401               0.999999993               0.000009632               0.000541779               0.999999993               0.000016923               0.000562987               0.999999993               0.000024588               0.000586907               0.999999993               0.000032253               0.000612965               0.999999993               0.000039675               0.000640509               0.999999993               0.000046741               0.000669180               0.999999993               0.000053494               0.000698708               0.999999993               0.000060083               0.000728867               0.999999993               0.000066365               0.000759599               0.999999993               0.000072110               0.000790812               0.999999993               0.000076764               0.000822260               0.999999993               0.000079793               0.000853901               0.999999993               0.000024297               0.000544456               0.999999993               0.000004271               0.000536967               0.999999993              -0.000002616               0.000535634               0.999999993              -0.000003579               0.000541154               0.999999993              -0.000001479               0.000552483               0.999999993               0.000002733               0.000568453               0.999999993               0.000008225               0.000588047               0.999999993               0.000014163               0.000610449               0.999999993               0.000020111               0.000635002               0.999999993               0.000025806               0.000661225               0.999999993               0.000031102               0.000688707               0.999999993               0.000036042               0.000717068               0.999999993               0.000040687               0.000746123               0.999999993               0.000044713               0.000775753               0.999999993               0.000047848               0.000805801               0.999999993               0.000049639               0.000836253               0.999999993               0.000049538               0.000866992               0.999999993               0.000016311               0.000558133               0.999999993               0.000002303               0.000556388               0.999999993              -0.000003057               0.000557607               0.999999993              -0.000004298               0.000563877               0.999999993              -0.000003337               0.000574922               0.999999993              -0.000000702               0.000590075               0.999999993               0.000002967               0.000608613               0.999999993               0.000007063               0.000629885               0.999999993               0.000011161               0.000653468               0.999999993               0.000015021               0.000678872               0.999999993               0.000018601               0.000705627               0.999999993               0.000021857               0.000733414               0.999999993               0.000024727               0.000762014               0.999999993               0.000027008               0.000791264               0.999999993               0.000028315               0.000820935               0.999999993               0.000028239               0.000850950               0.999999993               0.000026187               0.000881241               0.999999993               0.000008188               0.000566323               0.999999993               0.000000999               0.000568336               0.999999993              -0.000001920               0.000571481               0.999999993              -0.000002803               0.000578477               0.999999993              -0.000002478               0.000589549               0.999999993              -0.000001188               0.000604269               0.999999993               0.000000661               0.000622207               0.999999993               0.000002753               0.000642938               0.999999993               0.000004803               0.000665966               0.999999993               0.000006782               0.000690896               0.999999993               0.000008557               0.000717410               0.999999993               0.000010174               0.000745104               0.999999993               0.000011576               0.000773690               0.999999993               0.000012586               0.000803017               0.999999993               0.000012988               0.000832887               0.999999993               0.000012438               0.000863064               0.999999993               0.000010427               0.000893363               0.999999993               0.000000000               0.000569035               0.999999993              -0.000000000               0.000572318               0.999999993               0.000000000               0.000576222               0.999999993               0.000000000               0.000583560               0.999999993              -0.000000000               0.000594613               0.999999993               0.000000000               0.000609216               0.999999993               0.000000000               0.000626967               0.999999993               0.000000000               0.000647469               0.999999993              -0.000000000               0.000670384               0.999999993               0.000000000               0.000695281               0.999999993               0.000000000               0.000721743               0.999999993               0.000000000               0.000749430               0.999999993               0.000000000               0.000778109               0.999999993              -0.000000000               0.000807597               0.999999993              -0.000000000               0.000837716               0.999999993               0.000000000               0.000868164               0.999999993               0.000000000               0.000898608               0.999999993 </DataArray>
<DataArray type="Float64"                                    Name="defo"                                                      NumberOfComponents=" 3" format="ascii">
             -0.000090289               0.000000000               0.999999993              -0.000112706               0.000000000               0.999999993              -0.000123300               0.000000000               0.999999993              -0.000129342               0.000000000               0.999999993              -0.000133867               0.000000000               0.999999993              -0.000138241               0.000000000               0.999999993              -0.000143060               0.000000000               0.999999993              -0.000148648               0.000000000               0.999999993              -0.000155071               0.000000000               0.999999993              -0.000162387              -0.000000000               0.999999993              -0.000170553               0.000000000               0.999999993              -0.000179631               0.000000000               0.999999993              -0.000189560               0.000000000               0.999999993              -0.000200179               0.000000000               0.999999993              -0.000211464               0.000000000               0.999999993              -0.000223424               0.000000000               0.999999993              -0.000235929               0.000000000               0.999999993              -0.000089796               0.000056281               0.999999993              -0.000111132               0.000049034               0.999999993              -0.000121057               0.000046865               0.999999993              -0.000126762               0.000047295               0.999999993              -0.000131131               0.000049459               0.999999993              -0.000135481               0.000052693               0.999999993              -0.000140365               0.000056676               0.999999993              -0.000146010               0.000061075               0.999999993              -0.000152513               0.000065809               0.999999993              -0.000159897               0.000070757               0.999999993              -0.000168108               0.000075873               0.999999993              -0.000177146               0.000081052               0.999999993              -0.000186976               0.000086198               0.999999993              -0.000197553               0.000091241               0.999999993              -0.000208836               0.000096076               0.999999993              -0.000220794               0.000100523               0.999999993              -0.000233331               0.000104315               0.999999993              -0.000088209               0.000112003               0.999999993              -0.000106370               0.000097630               0.999999993              -0.000114462               0.000093627               0.999999993              -0.000119201               0.000094894               0.999999993              -0.000123181               0.000099399               0.999999993              -0.000127474               0.000106044               0.999999993              -0.000132547               0.000114099               0.999999993              -0.000138480               0.000123024               0.999999993              -0.000145220               0.000132485               0.999999993              -0.000152762               0.000142403               0.999999993              -0.000161068               0.000152670               0.999999993              -0.000170165               0.000163117               0.999999993              -0.000180012               0.000173664               0.999999993              -0.000190580               0.000184175               0.999999993              -0.000201876               0.000194391               0.999999993              -0.000213886               0.000204151               0.999999993              -0.000226565               0.000213017               0.999999993              -0.000085536               0.000166573               0.999999993              -0.000098599               0.000145375               0.999999993              -0.000104024               0.000140100               0.999999993              -0.000107550               0.000142751               0.999999993              -0.000111250               0.000150023               0.999999993              -0.000115794               0.000160366               0.999999993              -0.000121363               0.000172672               0.999999993              -0.000127870               0.000186121               0.999999993              -0.000135210               0.000200262               0.999999993              -0.000143347               0.000215149               0.999999993              -0.000152195               0.000230478               0.999999993              -0.000161775               0.000246203               0.999999993              -0.000172088               0.000262240               0.999999993              -0.000183095               0.000278395               0.999999993              -0.000194791               0.000294509               0.999999993              -0.000207130               0.000310267               0.999999993              -0.000220045               0.000325390               0.999999993              -0.000081873               0.000219425               0.999999993              -0.000088327               0.000191861               0.999999993              -0.000090820               0.000186059               0.999999993              -0.000093472               0.000190663               0.999999993              -0.000097356               0.000201164               0.999999993              -0.000102626               0.000215387               0.999999993              -0.000109125               0.000231921               0.999999993              -0.000116595               0.000249796               0.999999993              -0.000124901               0.000268605               0.999999993              -0.000134029               0.000288336               0.999999993              -0.000143883               0.000308672               0.999999993              -0.000154411               0.000329558               0.999999993              -0.000165616               0.000350996               0.999999993              -0.000177459               0.000372749               0.999999993              -0.000189799               0.000394632               0.999999993              -0.000202597               0.000416247               0.999999993              -0.000215747               0.000437430               0.999999993              -0.000077244               0.000270018               0.999999993              -0.000076147               0.000236866               0.999999993              -0.000076091               0.000231279               0.999999993              -0.000078514               0.000238385               0.999999993              -0.000083216               0.000252290               0.999999993              -0.000089714               0.000270371               0.999999993              -0.000097559               0.000291014               0.999999993              -0.000106326               0.000313239               0.999999993              -0.000115908               0.000336668               0.999999993              -0.000126285               0.000361090               0.999999993              -0.000137319               0.000386241               0.999999993              -0.000148976               0.000412089               0.999999993              -0.000161161               0.000438660               0.999999993              -0.000173812               0.000465765               0.999999993              -0.000186850               0.000492982               0.999999993              -0.000200127               0.000520067               0.999999993              -0.000213520               0.000546701               0.999999993              -0.000071726               0.000317742               0.999999993              -0.000062828               0.000280286               0.999999993              -0.000061161               0.000275468               0.999999993              -0.000064152               0.000285313               0.999999993              -0.000070315               0.000302678               0.999999993              -0.000078413               0.000324500               0.999999993              -0.000087707               0.000349150               0.999999993              -0.000097892               0.000375660               0.999999993              -0.000108894               0.000403506               0.999999993              -0.000120592               0.000432399               0.999999993              -0.000132871               0.000462096               0.999999993              -0.000145700               0.000492661               0.999999993              -0.000158994               0.000524128               0.999999993              -0.000172629               0.000556062               0.999999993              -0.000186423               0.000588117               0.999999993              -0.000200189               0.000619854               0.999999993              -0.000213822               0.000651104               0.999999993              -0.000065522               0.000361996               0.999999993              -0.000049304               0.000321928               0.999999993              -0.000047002               0.000318382               0.999999993              -0.000051335               0.000330907               0.999999993              -0.000059250               0.000351740               0.999999993              -0.000069033               0.000377157               0.999999993              -0.000080016               0.000405703               0.999999993              -0.000091808               0.000436264               0.999999993              -0.000104163               0.000468294               0.999999993              -0.000117137               0.000501500               0.999999993              -0.000130666               0.000535645               0.999999993              -0.000144697               0.000570771               0.999999993              -0.000159122               0.000606704               0.999999993              -0.000173675               0.000642899               0.999999993              -0.000188021               0.000678916               0.999999993              -0.000202040               0.000714431               0.999999993              -0.000215615               0.000749386               0.999999993              -0.000059148               0.000401977               0.999999993              -0.000036149               0.000361699               0.999999993              -0.000034443               0.000359558               0.999999993              -0.000040479               0.000374632               0.999999993              -0.000050330               0.000398774               0.999999993              -0.000061962               0.000427749               0.999999993              -0.000074631               0.000460035               0.999999993              -0.000087753               0.000494506               0.999999993              -0.000101357               0.000530678               0.999999993              -0.000115500               0.000568145               0.999999993              -0.000130215               0.000606662               0.999999993              -0.000145359               0.000646056               0.999999993              -0.000160643               0.000685877               0.999999993              -0.000175654               0.000725631               0.999999993              -0.000190216               0.000764963               0.999999993              -0.000204345               0.000803741               0.999999993              -0.000218189               0.000841984               0.999999993              -0.000053235               0.000439114               0.999999993              -0.000026263               0.000403322               0.999999993              -0.000022599               0.000397911               0.999999993              -0.000027301               0.000408751               0.999999993              -0.000036182               0.000428942               0.999999993              -0.000046833               0.000454507               0.999999993              -0.000058374               0.000483452               0.999999993              -0.000070216               0.000514784               0.999999993              -0.000082331               0.000547860               0.999999993              -0.000094881               0.000582246               0.999999993              -0.000107742               0.000617764               0.999999993              -0.000120857               0.000654153               0.999999993              -0.000134286               0.000691208               0.999999993              -0.000147672               0.000728558               0.999999993              -0.000160641               0.000765799               0.999999993              -0.000173286               0.000802797               0.999999993              -0.000185778               0.000839397               0.999999993              -0.000046599               0.000472461               0.999999993              -0.000018220               0.000442752               0.999999993              -0.000012593               0.000436421               0.999999993              -0.000015740               0.000443966               0.999999993              -0.000023102               0.000460658               0.999999993              -0.000032507               0.000483098               0.999999993              -0.000042720               0.000509093               0.999999993              -0.000053345               0.000537504               0.999999993              -0.000064097               0.000567695               0.999999993              -0.000074979               0.000599351               0.999999993              -0.000085890               0.000632046               0.999999993              -0.000096878               0.000665692               0.999999993              -0.000108035               0.000699991               0.999999993              -0.000119250               0.000734878               0.999999993              -0.000130155               0.000769935               0.999999993              -0.000140508               0.000805037               0.999999993              -0.000150530               0.000839944               0.999999993              -0.000039538               0.000501350               0.999999993              -0.000011952               0.000478990               0.999999993              -0.000005028               0.000473299               0.999999993              -0.000006439               0.000479130               0.999999993              -0.000011949               0.000493023               0.999999993              -0.000019818               0.000512617               0.999999993              -0.000028644               0.000536004               0.999999993              -0.000037895               0.000561990               0.999999993              -0.000047156               0.000589878               0.999999993              -0.000056280               0.000619208               0.999999993              -0.000065245               0.000649630               0.999999993              -0.000074096               0.000680891               0.999999993              -0.000082856               0.000712875               0.999999993              -0.000091638               0.000745419               0.999999993              -0.000100086               0.000778317               0.999999993              -0.000107706               0.000811381               0.999999993              -0.000114368               0.000844505               0.999999993              -0.000032082               0.000525436               0.999999993              -0.000007350               0.000510845               0.999999993               0.000000026               0.000506964               0.999999993               0.000000050               0.000512197               0.999999993              -0.000003583               0.000524401               0.999999993              -0.000009632               0.000541779               0.999999993              -0.000016923               0.000562987               0.999999993              -0.000024588               0.000586907               0.999999993              -0.000032253               0.000612965               0.999999993              -0.000039675               0.000640509               0.999999993              -0.000046741               0.000669180               0.999999993              -0.000053494               0.000698708               0.999999993              -0.000060083               0.000728867               0.999999993              -0.000066365               0.000759599               0.999999993              -0.000072110               0.000790812               0.999999993              -0.000076764               0.000822260               0.999999993              -0.000079793               0.000853901               0.999999993              -0.000024297               0.000544456               0.999999993              -0.000004271               0.000536967               0.999999993               0.000002616               0.000535634               0.999999993               0.000003579               0.000541154               0.999999993               0.000001479               0.000552483               0.999999993              -0.000002733               0.000568453               0.999999993              -0.000008225               0.000588047               0.999999993              -0.000014163               0.000610449               0.999999993              -0.000020111               0.000635002               0.999999993              -0.000025806               0.000661225               0.999999993              -0.000031102               0.000688707               0.999999993              -0.000036042               0.000717068               0.999999993              -0.000040687               0.000746123               0.999999993              -0.000044713               0.000775753               0.999999993              -0.000047848               0.000805801               0.999999993              -0.000049639               0.000836253               0.999999993              -0.000049538               0.000866992               0.999999993              -0.000016311               0.000558133               0.999999993              -0.000002303               0.000556388               0.999999993               0.000003057               0.000557607               0.999999993               0.000004298               0.000563877               0.999999993               0.000003337               0.000574922               0.999999993               0.000000702               0.000590075               0.999999993              -0.000002967               0.000608613               0.999999993              -0.000007063               0.000629885               0.999999993              -0.000011161               0.000653468               0.999999993              -0.000015021               0.000678872               0.999999993              -0.000018601               0.000705627               0.999999993              -0.000021857               0.000733414               0.999999993              -0.000024727               0.000762014               0.999999993              -0.000027008               0.000791264               0.999999993              -0.000028315               0.000820935               0.999999993              -0.000028239               0.000850950               0.999999993              -0.000026187               0.000881241               0.999999993              -0.000008188               0.000566323               0.999999993              -0.000000999               0.000568336               0.999999993               0.000001920               0.000571481               0.999999993               0.000002803               0.000578477               0.999999993               0.000002478               0.000589549               0.999999993               0.000001188               0.000604269               0.999999993              -0.000000661               0.000622207               0.999999993              -0.000002753               0.000642938               0.999999993              -0.000004803               0.000665966               0.999999993              -0.000006782               0.000690896               0.999999993              -0.000008557               0.000717410               0.999999993              -0.000010174               0.000745104               0.999999993              -0.000011576               0.000773690               0.999999993              -0.000012586               0.000803017               0.999999993              -0.000012988               0.000832887               0.999999993              -0.000012438               0.000863064               0.999999993              -0.000010427               0.000893363               0.999999993               0.000000000               0.000569035               0.999999993              -0.000000000               0.000572318               0.999999993               0.000000000               0.000576222               0.999999993               0.000000000               0.000583560               0.999999993              -0.000000000               0.000594613               0.999999993               0.000000000               0.000609216               0.999999993               0.000000000               0.000626967               0.999999993               0.000000000               0.000647469               0.999999993              -0.000000000               0.000670384               0.999999993               0.000000000               0.000695281               0.999999993               0.000000000               0.000721743               0.999999993               0.000000000               0.000749430               0.999999993               0.000000000               0.000778109               0.999999993              -0.000000000               0.000807597               0.999999993              -0.000000000               0.000837716               0.999999993               0.000000000               0.000868164               0.999999993               0.000000000               0.000898608               0.999999993              -0.000090289               0.000000000               0.999999993              -0.000112706               0.000000000               0.999999993              -0.000123300               0.000000000               0.999999993              -0.000129342               0.000000000               0.999999993              -0.000133867               0.000000000               0.999999993              -0.000138241               0.000000000               0.999999993              -0.000143060               0.000000000               0.999999993              -0.000148648               0.000000000               0.999999993              -0.000155071               0.000000000               0.999999993              -0.000162387              -0.000000000               0.999999993              -0.000170553               0.000000000               0.999999993              -0.000179631               0.000000000               0.999999993              -0.000189560               0.000000000               0.999999993              -0.000200179               0.000000000               0.999999993              -0.000211464               0.000000000               0.999999993              -0.000223424               0.000000000               0.999999993              -0.000235929               0.000000000               0.999999993              -0.000089796              -0.000056281               0.999999993              -0.000111132              -0.000049034               0.999999993              -0.000121057              -0.000046865               0.999999993              -0.000126762              -0.000047295               0.999999993              -0.000131131              -0.000049459               0.999999993              -0.000135481              -0.000052693               0.999999993              -0.000140365              -0.000056676               0.999999993              -0.000146010              -0.000061075               0.999999993              -0.000152513              -0.000065809               0.999999993              -0.000159897              -0.000070757               0.999999993              -0.000168108              -0.000075873               0.999999993              -0.000177146              -0.000081052               0.999999993              -0.000186976              -0.000086198               0.999999993              -0.000197553              -0.000091241               0.999999993              -0.000208836              -0.000096076               0.999999993              -0.000220794              -0.000100523               0.999999993              -0.000233331              -0.000104315               0.999999993              -0.000088209              -0.000112003               0.999999993              -0.000106370              -0.000097630               0.999999993              -0.000114462              -0.000093627               0.999999993              -0.000119201              -0.000094894               0.999999993              -0.000123181              -0.000099399               0.999999993              -0.000127474              -0.000106044               0.999999993              -0.000132547              -0.000114099               0.999999993              -0.000138480              -0.000123024               0.999999993              -0.000145220              -0.000132485               0.999999993              -0.000152762              -0.000142403               0.999999993              -0.000161068              -0.000152670               0.999999993              -0.000170165              -0.000163117               0.999999993              -0.000180012              -0.000173664               0.999999993              -0.000190580              -0.000184175               0.999999993              -0.000201876              -0.000194391               0.999999993              -0.000213886              -0.000204151               0.999999993              -0.000226565              -0.000213017               0.999999993              -0.000085536              -0.000166573               0.999999993              -0.000098599              -0.000145375               0.999999993              -0.000104024              -0.000140100               0.999999993              -0.000107550              -0.000142751               0.999999993              -0.000111250              -0.000150023               0.999999993              -0.000115794              -0.000160366               0.999999993              -0.000121363              -0.000172672               0.999999993              -0.000127870              -0.000186121               0.999999993              -0.000135210              -0.000200262               0.999999993              -0.000143347              -0.000215149               0.999999993              -0.000152195              -0.000230478               0.999999993              -0.000161775              -0.000246203               0.999999993              -0.000172088              -0.000262240               0.999999993              -0.000183095              -0.000278395               0.999999993              -0.000194791              -0.000294509               0.999999993              -0.000207130              -0.000310267               0.999999993              -0.000220045              -0.000325390               0.999999993              -0.000081873              -0.000219425               0.999999993              -0.000088327              -0.000191861               0.999999993              -0.000090820              -0.000186059               0.999999993              -0.000093472              -0.000190663               0.999999993              -0.000097356              -0.000201164               0.999999993              -0.000102626              -0.000215387               0.999999993              -0.000109125              -0.000231921               0.999999993              -0.000116595              -0.000249796               0.999999993              -0.000124901              -0.000268605               0.999999993              -0.000134029              -0.000288336               0.999999993              -0.000143883              -0.000308672               0.999999993              -0.000154411              -0.000329558               0.999999993              -0.000165616              -0.000350996               0.999999993              -0.000177459              -0.000372749               0.999999993              -0.000189799              -0.000394632               0.999999993              -0.000202597              -0.000416247               0.999999993              -0.000215747              -0.000437430               0.999999993              -0.000077244              -0.000270018               0.999999993              -0.000076147              -0.000236866               0.999999993              -0.000076091              -0.000231279               0.999999993              -0.000078514              -0.000238385               0.999999993              -0.000083216              -0.000252290               0.999999993              -0.000089714              -0.000270371               0.999999993              -0.000097559              -0.000291014               0.999999993              -0.000106326              -0.000313239               0.999999993              -0.000115908              -0.000336668               0.999999993              -0.000126285              -0.000361090               0.999999993              -0.000137319              -0.000386241               0.999999993              -0.000148976              -0.000412089               0.999999993              -0.000161161              -0.000438660               0.999999993              -0.000173812              -0.000465765               0.999999993              -0.000186850              -0.000492982               0.999999993              -0.000200127              -0.000520067               0.999999993              -0.000213520              -0.000546701               0.999999993              -0.000071726              -0.000317742               0.999999993              -0.000062828              -0.000280286               0.999999993              -0.000061161              -0.000275468               0.999999993              -0.000064152              -0.000285313               0.999999993              -0.000070315              -0.000302678               0.999999993              -0.000078413              -0.000324500               0.999999993              -0.000087707              -0.000349150               0.999999993              -0.000097892              -0.000375660               0.999999993              -0.000108894              -0.000403506               0.999999993              -0.000120592              -0.000432399               0.999999993              -0.000132871              -0.000462096               0.999999993              -0.000145700              -0.000492661               0.999999993              -0.000158994              -0.000524128               0.999999993              -0.000172629              -0.000556062               0.999999993              -0.000186423              -0.000588117               0.999999993              -0.000200189              -0.000619854               0.999999993              -0.000213822              -0.000651104               0.999999993              -0.000065522              -0.000361996               0.999999993              -0.000049304              -0.000321928               0.999999993              -0.000047002              -0.000318382               0.999999993              -0.000051335              -0.000330907               0.999999993              -0.000059250              -0.000351740               0.999999993              -0.000069033              -0.000377157               0.999999993              -0.000080016              -0.000405703               0.999999993              -0.000091808              -0.000436264               0.999999993              -0.000104163              -0.000468294               0.999999993              -0.000117137              -0.000501500               0.999999993              -0.000130666              -0.000535645               0.999999993              -0.000144697              -0.000570771               0.999999993              -0.000159122              -0.000606704               0.999999993              -0.000173675              -0.000642899               0.999999993              -0.000188021              -0.000678916               0.999999993              -0.000202040              -0.000714431               0.999999993              -0.000215615              -0.000749386               0.999999993              -0.000059148              -0.000401977               0.999999993              -0.000036149              -0.000361699               0.999999993              -0.000034443              -0.000359558               0.999999993              -0.000040479              -0.000374632               0.999999993              -0.000050330              -0.000398774               0.999999993              -0.000061962              -0.000427749               0.999999993              -0.000074631              -0.000460035               0.999999993              -0.000087753              -0.000494506               0.999999993              -0.000101357              -0.000530678               0.999999993              -0.000115500              -0.000568145               0.999999993              -0.000130215              -0.000606662               0.999999993              -0.000145359              -0.000646056               0.999999993              -0.000160643              -0.000685877               0.999999993              -0.000175654              -0.000725631               0.999999993              -0.000190216              -0.000764963               0.999999993              -0.000204345              -0.000803741               0.999999993              -0.000218189              -0.000841984               0.999999993              -0.000053235              -0.000439114               0.999999993              -0.000026263              -0.000403322               0.999999993              -0.000022599              -0.000397911               0.999999993              -0.000027301              -0.000408751               0.999999993              -0.000036182              -0.000428942               0.999999993              -0.000046833              -0.000454507               0.999999993              -0.000058374              -0.000483452               0.999999993              -0.000070216              -0.000514784               0.999999993              -0.000082331              -0.000547860               0.999999993              -0.000094881              -0.000582246               0.999999993              -0.000107742              -0.000617764               0.999999993              -0.000120857              -0.000654153               0.999999993              -0.000134286              -0.000691208               0.999999993              -0.000147672              -0.000728558               0.999999993              -0.000160641              -0.000765799               0.999999993              -0.000173286              -0.000802797               0.999999993              -0.000185778              -0.000839397               0.999999993              -0.000046599              -0.000472461               0.999999993              -0.000018220              -0.000442752               0.999999993              -0.000012593              -0.000436421               0.999999993              -0.000015740              -0.000443966               0.999999993              -0.000023102              -0.000460658               0.999999993              -0.000032507              -0.000483098               0.999999993              -0.000042720              -0.000509093               0.999999993              -0.000053345              -0.000537504               0.999999993              -0.000064097              -0.000567695               0.999999993              -0.000074979              -0.000599351               0.999999993              -0.000085890              -0.000632046               0.999999993              -0.000096878              -0.000665692               0.999999993              -0.000108035              -0.000699991               0.999999993              -0.000119250              -0.000734878               0.999999993              -0.000130155              -0.000769935               0.999999993              -0.000140508              -0.000805037               0.999999993              -0.000150530              -0.000839944               0.999999993              -0.000039538              -0.000501350               0.999999993              -0.000011952              -0.000478990               0.999999993              -0.000005028              -0.000473299               0.999999993              -0.000006439              -0.000479130               0.999999993              -0.000011949              -0.000493023               0.999999993              -0.000019818              -0.000512617               0.999999993              -0.000028644              -0.000536004               0.999999993              -0.000037895              -0.000561990               0.999999993              -0.000047156              -0.000589878               0.999999993              -0.000056280              -0.000619208               0.999999993              -0.000065245              -0.000649630               0.999999993              -0.000074096              -0.000680891               0.999999993              -0.000082856              -0.000712875               0.999999993              -0.000091638              -0.000745419               0.999999993              -0.000100086              -0.000778317               0.999999993              -0.000107706              -0.000811381               0.999999993              -0.000114368              -0.000844505               0.999999993              -0.000032082              -0.000525436               0.999999993              -0.000007350              -0.000510845               0.999999993               0.000000026              -0.000506964               0.999999993               0.000000050              -0.000512197               0.999999993              -0.000003583              -0.000524401               0.999999993              -0.000009632              -0.000541779               0.999999993              -0.000016923              -0.000562987               0.999999993              -0.000024588              -0.000586907               0.999999993              -0.000032253              -0.000612965               0.999999993              -0.000039675              -0.000640509               0.999999993              -0.000046741              -0.000669180               0.999999993              -0.000053494              -0.000698708               0.999999993              -0.000060083              -0.000728867               0.999999993              -0.000066365              -0.000759599               0.999999993              -0.000072110              -0.000790812               0.999999993              -0.000076764              -0.000822260               0.999999993              -0.000079793              -0.000853901               0.999999993              -0.000024297              -0.000544456               0.999999993              -0.000004271              -0.000536967               0.999999993               0.000002616              -0.000535634               0.999999993               0.000003579              -0.000541154               0.999999993               0.000001479              -0.000552483               0.999999993              -0.000002733              -0.000568453               0.999999993              -0.000008225              -0.000588047               0.999999993              -0.000014163              -0.000610449               0.999999993              -0.000020111              -0.000635002               0.999999993              -0.000025806              -0.000661225               0.999999993              -0.000031102              -0.000688707               0.999999993              -0.000036042              -0.000717068               0.999999993              -0.000040687              -0.000746123               0.999999993              -0.000044713              -0.000775753               0.999999993              -0.000047848              -0.000805801               0.999999993              -0.000049639              -0.000836253               0.999999993              -0.000049538              -0.000866992               0.999999993              -0.000016311              -0.000558133               0.999999993              -0.000002303              -0.000556388               0.999999993               0.000003057              -0.000557607               0.999999993               0.000004298              -0.000563877               0.999999993               0.000003337              -0.000574922               0.999999993               0.000000702              -0.000590075               0.999999993              -0.000002967              -0.000608613               0.999999993              -0.000007063              -0.000629885               0.999999993              -0.000011161              -0.000653468               0.999999993              -0.000015021              -0.000678872               0.999999993              -0.000018601              -0.000705627               0.999999993              -0.000021857              -0.000733414               0.999999993              -0.000024727              -0.000762014               0.999999993              -0.000027008              -0.000791264               0.999999993              -0.000028315              -0.000820935               0.999999993              -0.000028239              -0.000850950               0.999999993              -0.000026187              -0.000881241               0.999999993              -0.000008188              -0.000566323               0.999999993              -0.000000999              -0.000568336               0.999999993               0.000001920              -0.000571481               0.999999993               0.000002803              -0.000578477               0.999999993               0.000002478              -0.000589549               0.999999993               0.000001188              -0.000604269               0.999999993              -0.000000661              -0.000622207               0.999999993              -0.000002753              -0.000642938               0.999999993              -0.000004803              -0.000665966               0.999999993              -0.000006782              -0.000690896               0.999999993              -0.000008557              -0.000717410               0.999999993              -0.000010174              -0.000745104               0.999999993              -0.000011576              -0.000773690               0.999999993              -0.000012586              -0.000803017               0.999999993              -0.000012988              -0.000832887               0.999999993              -0.000012438              -0.000863064               0.999999993              -0.000010427              -0.000893363               0.999999993               0.000000000              -0.000569035               0.999999993              -0.000000000              -0.000572318               0.999999993              -0.000000000              -0.000576222               0.999999993              -0.000000000              -0.000583560               0.999999993               0.000000000              -0.000594613               0.999999993               0.000000000              -0.000609216               0.999999993               0.000000000              -0.000626967               0.999999993               0.000000000              -0.000647469               0.999999993               0.000000000              -0.000670384               0.999999993              -0.000000000              -0.000695281               0.999999993              -0.000000000              -0.000721743               0.999999993              -0.000000000              -0.000749430               0.999999993              -0.000000000              -0.000778109               0.999999993               0.000000000              -0.000807597               0.999999993               0.000000000              -0.000837716               0.999999993               0.000000000              -0.000868164               0.999999993               0.000000000              -0.000898608               0.999999993               0.000090289              -0.000000000               0.999999993               0.000112706              -0.000000000               0.999999993               0.000123300              -0.000000000               0.999999993               0.000129342              -0.000000000               0.999999993               0.000133867              -0.000000000               0.999999993               0.000138241              -0.000000000               0.999999993               0.000143060               0.000000000               0.999999993               0.000148648               0.000000000               0.999999993               0.000155071              -0.000000000               0.999999993               0.000162387              -0.000000000               0.999999993               0.000170553              -0.000000000               0.999999993               0.000179631              -0.000000000               0.999999993               0.000189560               0.000000000               0.999999993               0.000200179              -0.000000000               0.999999993               0.000211464              -0.000000000               0.999999993               0.000223424              -0.000000000               0.999999993               0.000235929              -0.000000000               0.999999993               0.000089796              -0.000056281               0.999999993               0.000111132              -0.000049034               0.999999993               0.000121057              -0.000046865               0.999999993               0.000126762              -0.000047295               0.999999993               0.000131131              -0.000049459               0.999999993               0.000135481              -0.000052693               0.999999993               0.000140365              -0.000056676               0.999999993               0.000146010              -0.000061075               0.999999993               0.000152513              -0.000065809               0.999999993               0.000159897              -0.000070757               0.999999993               0.000168108              -0.000075873               0.999999993               0.000177146              -0.000081052               0.999999993               0.000186976              -0.000086198               0.999999993               0.000197553              -0.000091241               0.999999993               0.000208836              -0.000096076               0.999999993               0.000220794              -0.000100523               0.999999993               0.000233331              -0.000104315               0.999999993               0.000088209              -0.000112003               0.999999993               0.000106370              -0.000097630               0.999999993               0.000114462              -0.000093627               0.999999993               0.000119201              -0.000094894               0.999999993               0.000123181              -0.000099399               0.999999993               0.000127474              -0.000106044               0.999999993               0.000132547              -0.000114099               0.999999993               0.000138480              -0.000123024               0.999999993               0.000145220              -0.000132485               0.999999993               0.000152762              -0.000142403               0.999999993               0.000161068              -0.000152670               0.999999993               0.000170165              -0.000163117               0.999999993               0.000180012              -0.000173664               0.999999993               0.000190580              -0.000184175               0.999999993               0.000201876              -0.000194391               0.999999993               0.000213886              -0.000204151               0.999999993               0.000226565              -0.000213017               0.999999993               0.000085536              -0.000166573               0.999999993               0.000098599              -0.000145375               0.999999993               0.000104024              -0.000140100               0.999999993               0.000107550              -0.000142751               0.999999993               0.000111250              -0.000150023               0.999999993               0.000115794              -0.000160366               0.999999993               0.000121363              -0.000172672               0.999999993               0.000127870              -0.000186121               0.999999993               0.000135210              -0.000200262               0.999999993               0.000143347              -0.000215149               0.999999993               0.000152195              -0.000230478               0.999999993               0.000161775              -0.000246203               0.999999993               0.000172088              -0.000262240               0.999999993               0.000183095              -0.000278395               0.999999993               0.000194791              -0.000294509               0.999999993               0.000207130              -0.000310267               0.999999993               0.000220045              -0.000325390               0.999999993               0.000081873              -0.000219425               0.999999993               0.000088327              -0.000191861               0.999999993               0.000090820              -0.000186059               0.999999993               0.000093472              -0.000190663               0.999999993               0.000097356              -0.000201164               0.999999993               0.000102626              -0.000215387               0.999999993               0.000109125              -0.000231921               0.999999993               0.000116595              -0.000249796               0.999999993               0.000124901              -0.000268605               0.999999993               0.000134029              -0.000288336               0.999999993               0.000143883              -0.000308672               0.999999993               0.000154411              -0.000329558               0.999999993               0.000165616              -0.000350996               0.999999993               0.000177459              -0.000372749               0.999999993               0.000189799              -0.000394632               0.999999993               0.000202597              -0.000416247               0.999999993               0.000215747              -0.000437430               0.999999993               0.000077244              -0.000270018               0.999999993               0.000076147              -0.000236866               0.999999993               0.000076091              -0.000231279               0.999999993               0.000078514              -0.000238385               0.999999993               0.000083216              -0.000252290               0.999999993               0.000089714              -0.000270371               0.999999993               0.000097559              -0.000291014               0.999999993               0.000106326              -0.000313239               0.999999993               0.000115908              -0.000336668               0.999999993               0.000126285              -0.000361090               0.999999993               0.000137319              -0.000386241               0.999999993               0.000148976              -0.000412089               0.999999993               0.000161161              -0.000438660               0.999999993               0.000173812              -0.000465765               0.999999993               0.000186850              -0.000492982               0.999999993               0.000200127              -0.000520067               0.999999993               0.000213520              -0.000546701               0.999999993               0.000071726              -0.000317742               0.999999993               0.000062828              -0.000280286               0.999999993               0.000061161              -0.000275468               0.999999993               0.000064152              -0.000285313               0.999999993               0.000070315              -0.000302678               0.999999993               0.000078413              -0.000324500               0.999999993               0.000087707              -0.000349150               0.999999993               0.000097892              -0.000375660               0.999999993               0.000108894              -0.000403506               0.999999993               0.000120592              -0.000432399               0.999999993               0.000132871              -0.000462096               0.999999993               0.000145700              -0.000492661               0.999999993               0.000158994              -0.000524128               0.999999993               0.000172629              -0.000556062               0.999999993               0.000186423              -0.000588117               0.999999993               0.000200189              -0.000619854               0.999999993               0.000213822              -0.000651104               0.999999993               0.000065522              -0.000361996               0.999999993               0.000049304              -0.000321928               0.999999993               0.000047002              -0.000318382               0.999999993               0.000051335              -0.000330907               0.999999993               0.000059250              -0.000351740               0.999999993               0.000069033              -0.000377157               0.999999993               0.000080016              -0.000405703               0.999999993               0.000091808              -0.000436264               0.999999993               0.000104163              -0.000468294               0.999999993               0.000117137              -0.000501500               0.999999993               0.000130666              -0.000535645               0.999999993               0.000144697              -0.000570771               0.999999993               0.000159122              -0.000606704               0.999999993               0.000173675              -0.000642899               0.999999993               0.000188021              -0.000678916               0.999999993               0.000202040              -0.000714431               0.999999993               0.000215615              -0.000749386               0.999999993               0.000059148              -0.000401977               0.999999993               0.000036149              -0.000361699               0.999999993               0.000034443              -0.000359558               0.999999993               0.000040479              -0.000374632               0.999999993               0.000050330              -0.000398774               0.999999993               0.000061962              -0.000427749               0.999999993               0.000074631              -0.000460035               0.999999993               0.000087753              -0.000494506               0.999999993               0.000101357              -0.000530678               0.999999993               0.000115500              -0.000568145               0.999999993               0.000130215              -0.000606662               0.999999993               0.000145359              -0.000646056               0.999999993               0.000160643              -0.000685877               0.999999993               0.000175654              -0.000725631               0.999999993               0.000190216              -0.000764963               0.999999993               0.000204345              -0.000803741               0.999999993               0.000218189              -0.000841984               0.999999993               0.000053235              -0.000439114               0.999999993               0.000026263              -0.000403322               0.999999993               0.000022599              -0.000397911               0.999999993               0.000027301              -0.000408751               0.999999993               0.000036182              -0.000428942               0.999999993               0.000046833              -0.000454507               0.999999993               0.000058374              -0.000483452               0.999999993               0.000070216              -0.000514784               0.999999993               0.000082331              -0.000547860               0.999999993               0.000094881              -0.000582246               0.999999993               0.000107742              -0.000617764               0.999999993               0.000120857              -0.000654153               0.999999993               0.000134286              -0.000691208               0.999999993               0.000147672              -0.000728558               0.999999993               0.000160641              -0.000765799               0.999999993               0.000173286              -0.000802797               0.999999993               0.000185778              -0.000839397               0.999999993               0.000046599              -0.000472461               0.999999993               0.000018220              -0.000442752               0.999999993               0.000012593              -0.000436421               0.999999993               0.000015740              -0.000443966               0.999999993               0.000023102              -0.000460658               0.999999993               0.000032507              -0.000483098               0.999999993               0.000042720              -0.000509093               0.999999993               0.000053345              -0.000537504               0.999999993               0.000064097              -0.000567695               0.999999993               0.000074979              -0.000599351               0.999999993               0.000085890              -0.000632046               0.999999993               0.000096878              -0.000665692               0.999999993               0.000108035              -0.000699991               0.999999993               0.000119250              -0.000734878               0.999999993               0.000130155              -0.000769935               0.999999993               0.000140508              -0.000805037               0.999999993               0.000150530              -0.000839944               0.999999993               0.000039538              -0.000501350               0.999999993               0.000011952              -0.000478990               0.999999993               0.000005028              -0.000473299               0.999999993               0.000006439              -0.000479130               0.999999993               0.000011949              -0.000493023               0.999999993               0.000019818              -0.000512617               0.999999993               0.000028644              -0.000536004               0.999999993               0.000037895              -0.000561990               0.999999993               0.000047156              -0.000589878               0.999999993               0.000056280              -0.000619208               0.999999993               0.000065245              -0.000649630               0.999999993               0.000074096              -0.000680891               0.999999993               0.000082856              -0.000712875               0.999999993               0.000091638              -0.000745419               0.999999993               0.000100086              -0.000778317               0.999999993               0.000107706              -0.000811381               0.999999993               0.000114368              -0.000844505               0.999999993               0.000032082              -0.000525436               0.999999993               0.000007350              -0.000510845               0.999999993              -0.000000026              -0.000506964               0.999999993              -0.000000050              -0.000512197               0.999999993               0.000003583              -0.000524401               0.999999993               0.000009632              -0.000541779               0.999999993               0.000016923              -0.000562987               0.999999993               0.000024588              -0.000586907               0.999999993               0.000032253              -0.000612965               0.999999993               0.000039675              -0.000640509               0.999999993               0.000046741              -0.000669180               0.999999993               0.000053494              -0.000698708               0.999999993               0.000060083              -0.000728867               0.999999993               0.000066365              -0.000759599               0.999999993               0.000072110              -0.000790812               0.999999993               0.000076764              -0.000822260               0.999999993               0.000079793              -0.000853901               0.999999993               0.000024297              -0.000544456               0.999999993               0.000004271              -0.000536967               0.999999993              -0.000002616              -0.000535634               0.999999993              -0.000003579              -0.000541154               0.999999993              -0.000001479              -0.000552483               0.999999993               0.000002733              -0.000568453               0.999999993               0.000008225              -0.000588047               0.999999993               0.000014163              -0.000610449               0.999999993               0.000020111              -0.000635002               0.999999993               0.000025806              -0.000661225               0.999999993               0.000031102              -0.000688707               0.999999993               0.000036042              -0.000717068               0.999999993               0.000040687              -0.000746123               0.999999993               0.000044713              -0.000775753               0.999999993               0.000047848              -0.000805801               0.999999993               0.000049639              -0.000836253               0.999999993               0.000049538              -0.000866992               0.999999993               0.000016311              -0.000558133               0.999999993               0.000002303              -0.000556388               0.999999993              -0.000003057              -0.000557607               0.999999993              -0.000004298              -0.000563877               0.999999993              -0.000003337              -0.000574922               0.999999993              -0.000000702              -0.000590075               0.999999993               0.000002967              -0.000608613               0.999999993               0.000007063              -0.000629885               0.999999993               0.000011161              -0.000653468               0.999999993               0.000015021              -0.000678872               0.999999993               0.000018601              -0.000705627               0.999999993               0.000021857              -0.000733414               0.999999993               0.000024727              -0.000762014               0.999999993               0.000027008              -0.000791264               0.999999993               0.000028315              -0.000820935               0.999999993               0.000028239              -0.000850950               0.999999993               0.000026187              -0.000881241               0.999999993               0.000008188              -0.000566323               0.999999993               0.000000999              -0.000568336               0.999999993              -0.000001920              -0.000571481               0.999999993              -0.000002803              -0.000578477               0.999999993              -0.000002478              -0.000589549               0.999999993              -0.000001188              -0.000604269               0.999999993               0.000000661              -0.000622207               0.999999993               0.000002753              -0.000642938               0.999999993               0.000004803              -0.000665966               0.999999993               0.000006782              -0.000690896               0.999999993               0.000008557              -0.000717410               0.999999993               0.000010174              -0.000745104               0.999999993               0.000011576              -0.000773690               0.999999993               0.000012586              -0.000803017               0.999999993               0.000012988              -0.000832887               0.999999993               0.000012438              -0.000863064               0.999999993               0.000010427              -0.000893363               0.999999993               0.000000000              -0.000569035               0.999999993              -0.000000000              -0.000572318               0.999999993              -0.000000000              -0.000576222               0.999999993              -0.000000000              -0.000583560               0.999999993               0.000000000              -0.000594613               0.999999993               0.000000000              -0.000609216               0.999999993               0.000000000              -0.000626967               0.999999993               0.000000000              -0.000647469               0.999999993               0.000000000              -0.000670384               0.999999993              -0.000000000              -0.000695281               0.999999993              -0.000000000              -0.000721743               0.999999993              -0.000000000              -0.000749430               0.999999993              -0.000000000              -0.000778109               0.999999993               0.000000000              -0.000807597               0.999999993               0.000000000              -0.000837716               0.999999993               0.000000000              -0.000868164               0.999999993               0.000000000              -0.000898608               0.999999993               0.000090289              -0.000000000               0.999999993               0.000112706              -0.000000000               0.999999993               0.000123300              -0.000000000               0.999999993               0.000129342              -0.000000000               0.999999993               0.000133867              -0.000000000               0.999999993               0.000138241              -0.000000000               0.999999993               0.000143060               0.000000000               0.999999993               0.000148648               0.000000000               0.999999993               0.000155071              -0.000000000               0.999999993               0.000162387              -0.000000000               0.999999993               0.000170553              -0.000000000               0.999999993               0.000179631              -0.000000000               0.999999993               0.000189560               0.000000000               0.999999993               0.000200179              -0.000000000               0.999999993               0.000211464              -0.000000000               0.999999993               0.000223424              -0.000000000               0.999999993               0.000235929              -0.000000000               0.999999993               0.000089796               0.000056281               0.999999993               0.000111132               0.000049034               0.999999993               0.000121057               0.000046865               0.999999993               0.000126762               0.000047295               0.999999993               0.000131131               0.000049459               0.999999993               0.000135481               0.000052693               0.999999993               0.000140365               0.000056676               0.999999993               0.000146010               0.000061075               0.999999993               0.000152513               0.000065809               0.999999993               0.000159897               0.000070757               0.999999993               0.000168108               0.000075873               0.999999993               0.000177146               0.000081052               0.999999993               0.000186976               0.000086198               0.999999993               0.000197553               0.000091241               0.999999993               0.000208836               0.000096076               0.999999993               0.000220794               0.000100523               0.999999993               0.000233331               0.000104315               0.999999993               0.000088209               0.000112003               0.999999993               0.000106370               0.000097630               0.999999993               0.000114462               0.000093627               0.999999993               0.000119201               0.000094894               0.999999993               0.000123181               0.000099399               0.999999993               0.000127474               0.000106044               0.999999993               0.000132547               0.000114099               0.999999993               0.000138480               0.000123024               0.999999993               0.000145220               0.000132485               0.999999993               0.000152762               0.000142403               0.999999993               0.000161068               0.000152670               0.999999993               0.000170165               0.000163117               0.999999993               0.000180012               0.000173664               0.999999993               0.000190580               0.000184175               0.999999993               0.000201876               0.000194391               0.999999993               0.000213886               0.000204151               0.999999993               0.000226565               0.000213017               0.999999993               0.000085536               0.000166573               0.999999993               0.000098599               0.000145375               0.999999993               0.000104024               0.000140100               0.999999993               0.000107550               0.000142751               0.999999993               0.000111250               0.000150023               0.999999993               0.000115794               0.000160366               0.999999993               0.000121363               0.000172672               0.999999993               0.000127870               0.000186121               0.999999993               0.000135210               0.000200262               0.999999993               0.000143347               0.000215149               0.999999993               0.000152195               0.000230478               0.999999993               0.000161775               0.000246203               0.999999993               0.000172088               0.000262240               0.999999993               0.000183095               0.000278395               0.999999993               0.000194791               0.000294509               0.999999993               0.000207130               0.000310267               0.999999993               0.000220045               0.000325390               0.999999993               0.000081873               0.000219425               0.999999993               0.000088327               0.000191861               0.999999993               0.000090820               0.000186059               0.999999993               0.000093472               0.000190663               0.999999993               0.000097356               0.000201164               0.999999993               0.000102626               0.000215387               0.999999993               0.000109125               0.000231921               0.999999993               0.000116595               0.000249796               0.999999993               0.000124901               0.000268605               0.999999993               0.000134029               0.000288336               0.999999993               0.000143883               0.000308672               0.999999993               0.000154411               0.000329558               0.999999993               0.000165616               0.000350996               0.999999993               0.000177459               0.000372749               0.999999993               0.000189799               0.000394632               0.999999993               0.000202597               0.000416247               0.999999993               0.000215747               0.000437430               0.999999993               0.000077244               0.000270018               0.999999993               0.000076147               0.000236866               0.999999993               0.000076091               0.000231279               0.999999993               0.000078514               0.000238385               0.999999993               0.000083216               0.000252290               0.999999993               0.000089714               0.000270371               0.999999993               0.000097559               0.000291014               0.999999993               0.000106326               0.000313239               0.999999993               0.000115908               0.000336668               0.999999993               0.000126285               0.000361090               0.999999993               0.000137319               0.000386241               0.999999993               0.000148976               0.000412089               0.999999993               0.000161161               0.000438660               0.999999993               0.000173812               0.000465765               0.999999993               0.000186850               0.000492982               0.999999993               0.000200127               0.000520067               0.999999993               0.000213520               0.000546701               0.999999993               0.000071726               0.000317742               0.999999993               0.000062828               0.000280286               0.999999993               0.000061161               0.000275468               0.999999993               0.000064152               0.000285313               0.999999993               0.000070315               0.000302678               0.999999993               0.000078413               0.000324500               0.999999993               0.000087707               0.000349150               0.999999993               0.000097892               0.000375660               0.999999993               0.000108894               0.000403506               0.999999993               0.000120592               0.000432399               0.999999993               0.000132871               0.000462096               0.999999993               0.000145700               0.000492661               0.999999993               0.000158994               0.000524128               0.999999993               0.000172629               0.000556062               0.999999993               0.000186423               0.000588117               0.999999993               0.000200189               0.000619854               0.999999993               0.000213822               0.000651104               0.999999993               0.000065522               0.000361996               0.999999993               0.000049304               0.000321928               0.999999993               0.000047002               0.000318382               0.999999993               0.000051335               0.000330907               0.999999993               0.000059250               0.000351740               0.999999993               0.000069033               0.000377157               0.999999993               0.000080016               0.000405703               0.999999993               0.000091808               0.000436264               0.999999993               0.000104163               0.000468294               0.999999993               0.000117137               0.000501500               0.999999993               0.000130666               0.000535645               0.999999993               0.000144697               0.000570771               0.999999993               0.000159122               0.000606704               0.999999993               0.000173675               0.000642899               0.999999993               0.000188021               0.000678916               0.999999993               0.000202040               0.000714431               0.999999993               0.000215615               0.000749386               0.999999993               0.000059148               0.000401977               0.999999993               0.000036149               0.000361699               0.999999993               0.000034443               0.000359558               0.999999993               0.000040479               0.000374632               0.999999993               0.000050330               0.000398774               0.999999993               0.000061962               0.000427749               0.999999993               0.000074631               0.000460035               0.999999993               0.000087753               0.000494506               0.999999993               0.000101357               0.000530678               0.999999993               0.000115500               0.000568145               0.999999993               0.000130215               0.000606662               0.999999993               0.000145359               0.000646056               0.999999993               0.000160643               0.000685877               0.999999993               0.000175654               0.000725631               0.999999993               0.000190216               0.000764963               0.999999993               0.000204345               0.000803741               0.999999993               0.000218189               0.000841984               0.999999993               0.000053235               0.000439114               0.999999993               0.000026263               0.000403322               0.999999993               0.000022599               0.000397911               0.999999993               0.000027301               0.000408751               0.999999993               0.000036182               0.000428942               0.999999993               0.000046833               0.000454507               0.999999993               0.000058374               0.000483452               0.999999993               0.000070216               0.000514784               0.999999993               0.000082331               0.000547860               0.999999993               0.000094881               0.000582246               0.999999993               0.000107742               0.000617764               0.999999993               0.000120857               0.000654153               0.999999993               0.000134286               0.000691208               0.999999993               0.000147672               0.000728558               0.999999993               0.000160641               0.000765799               0.999999993               0.000173286               0.000802797               0.999999993               0.000185778               0.000839397               0.999999993               0.000046599               0.000472461               0.999999993               0.000018220               0.000442752               0.999999993               0.000012593               0.000436421               0.999999993               0.000015740               0.000443966               0.999999993               0.000023102               0.000460658               0.999999993               0.000032507               0.000483098               0.999999993               0.000042720               0.000509093               0.999999993               0.000053345               0.000537504               0.999999993               0.000064097               0.000567695               0.999999993               0.000074979               0.000599351               0.999999993               0.000085890               0.000632046               0.999999993               0.000096878               0.000665692               0.999999993               0.000108035               0.000699991               0.999999993               0.000119250               0.000734878               0.999999993               0.000130155               0.000769935               0.999999993               0.000140508               0.000805037               0.999999993               0.000150530               0.000839944               0.999999993               0.000039538               0.000501350               0.999999993               0.000011952               0.000478990               0.999999993               0.000005028               0.000473299               0.999999993               0.000006439               0.000479130               0.999999993               0.000011949               0.000493023               0.999999993               0.000019818               0.000512617               0.999999993               0.000028644               0.000536004               0.999999993               0.000037895               0.000561990               0.999999993               0.000047156               0.000589878               0.999999993               0.000056280               0.000619208               0.999999993               0.000065245               0.000649630               0.999999993               0.000074096               0.000680891               0.999999993               0.000082856               0.000712875               0.999999993               0.000091638               0.000745419               0.999999993               0.000100086               0.000778317               0.999999993               0.000107706               0.000811381               0.999999993               0.000114368               0.000844505               0.999999993               0.000032082               0.000525436               0.999999993               0.000007350               0.000510845               0.999999993              -0.000000026               0.000506964               0.999999993              -0.000000050               0.000512197               0.999999993               0.000003583               0.000524401               0.999999993               0.000009632               0.000541779               0.999999993               0.000016923               0.000562987               0.999999993               0.000024588               0.000586907               0.999999993               0.000032253               0.000612965               0.999999993               0.000039675               0.000640509               0.999999993               0.000046741               0.000669180               0.999999993               0.000053494               0.000698708               0.999999993               0.000060083               0.000728867               0.999999993               0.000066365               0.000759599               0.999999993               0.000072110               0.000790812               0.999999993               0.000076764               0.000822260               0.999999993               0.000079793               0.000853901               0.999999993               0.000024297               0.000544456               0.999999993               0.000004271               0.000536967               0.999999993              -0.000002616               0.000535634               0.999999993              -0.000003579               0.000541154               0.999999993              -0.000001479               0.000552483               0.999999993               0.000002733               0.000568453               0.999999993               0.000008225               0.000588047               0.999999993               0.000014163               0.000610449               0.999999993               0.000020111               0.000635002               0.999999993               0.000025806               0.000661225               0.999999993               0.000031102               0.000688707               0.999999993               0.000036042               0.000717068               0.999999993               0.000040687               0.000746123               0.999999993               0.000044713               0.000775753               0.999999993               0.000047848               0.000805801               0.999999993               0.000049639               0.000836253               0.999999993               0.000049538               0.000866992               0.999999993               0.000016311               0.000558133               0.999999993               0.000002303               0.000556388               0.999999993              -0.000003057               0.000557607               0.999999993              -0.000004298               0.000563877               0.999999993              -0.000003337               0.000574922               0.999999993              -0.000000702               0.000590075               0.999999993               0.000002967               0.000608613               0.999999993               0.000007063               0.000629885               0.999999993               0.000011161               0.000653468               0.999999993               0.000015021               0.000678872               0.999999993               0.000018601               0.000705627               0.999999993               0.000021857               0.000733414               0.999999993               0.000024727               0.000762014               0.999999993               0.000027008               0.000791264               0.999999993               0.000028315               0.000820935               0.999999993               0.000028239               0.000850950               0.999999993               0.000026187               0.000881241               0.999999993               0.000008188               0.000566323               0.999999993               0.000000999               0.000568336               0.999999993              -0.000001920               0.000571481               0.999999993              -0.000002803               0.000578477               0.999999993              -0.000002478               0.000589549               0.999999993              -0.000001188               0.000604269               0.999999993               0.000000661               0.000622207               0.999999993               0.000002753               0.000642938               0.999999993               0.000004803               0.000665966               0.999999993               0.000006782               0.000690896               0.999999993               0.000008557               0.000717410               0.999999993               0.000010174               0.000745104               0.999999993               0.000011576               0.000773690               0.999999993               0.000012586               0.000803017               0.999999993               0.000012988               0.000832887               0.999999993               0.000012438               0.000863064               0.999999993               0.000010427               0.000893363               0.999999993               0.000000000               0.000569035               0.999999993              -0.000000000               0.000572318               0.999999993               0.000000000               0.000576222               0.999999993               0.000000000               0.000583560               0.999999993              -0.000000000               0.000594613               0.999999993               0.000000000               0.000609216               0.999999993               0.000000000               0.000626967               0.999999993               0.000000000               0.000647469               0.999999993              -0.000000000               0.000670384               0.999999993               0.000000000               0.000695281               0.999999993               0.000000000               0.000721743               0.999999993               0.000000000               0.000749430               0.999999993               0.000000000               0.000778109               0.999999993              -0.000000000               0.000807597               0.999999993              -0.000000000               0.000837716               0.999999993               0.000000000               0.000868164               0.999999993               0.000000000               0.000898608               0.999999993 </DataArray>
<DataArray type="Float64"                                    Name="stress"                                                      NumberOfComponents="10" format="ascii">
              0.000931472               0.010489049               0.000000000              -0.000961827               0.003816924               0.002855097               0.000000000               0.000000000               0.000000000               0.000000000               0.001005456               0.008562170              -0.000000000              -0.000693224               0.003085103               0.002391879               0.000000000               0.000000000               0.000000000               0.000000000               0.001393678               0.007017687              -0.000000000              -0.000354581               0.002457399               0.002102818               0.000000000               0.000000000               0.000000000               0.000000000               0.001440835               0.006162972              -0.000000000              -0.000230058               0.002130990               0.001900932               0.000000000               0.000000000               0.000000000               0.000000000               0.001361855               0.005662360              -0.000000000              -0.000197099               0.001953134               0.001756035               0.000000000               0.000000000               0.000000000               0.000000000               0.001237788               0.005354457              -0.000000000              -0.000205136               0.001853180               0.001648044               0.000000000               0.000000000               0.000000000               0.000000000               0.001100789               0.005157176              -0.000000000              -0.000231851               0.001796325               0.001564474               0.000000000               0.000000000               0.000000000               0.000000000               0.000963276               0.005021774              -0.000000000              -0.000266492               0.001762739               0.001496246               0.000000000               0.000000000               0.000000000               0.000000000               0.000831768               0.004926158              -0.000000000              -0.000303856               0.001743322               0.001439465               0.000000000               0.000000000               0.000000000               0.000000000               0.000708740               0.004855916              -0.000000000              -0.000341211               0.001732359               0.001391148               0.000000000               0.000000000               0.000000000               0.000000000               0.000590831               0.004801070               0.000000000              -0.000378571               0.001726531               0.001347960               0.000000000               0.000000000               0.000000000               0.000000000               0.000475525               0.004752731               0.000000000              -0.000415768               0.001722817               0.001307049               0.000000000               0.000000000               0.000000000               0.000000000               0.000371439               0.004707843               0.000000000              -0.000449190               0.001718995               0.001269806               0.000000000               0.000000000               0.000000000               0.000000000               0.000275617               0.004661436               0.000000000              -0.000479322               0.001713570               0.001234248               0.000000000               0.000000000               0.000000000               0.000000000               0.000178713               0.004605808               0.000000000              -0.000508707               0.001704823               0.001196116               0.000000000               0.000000000               0.000000000               0.000000000               0.000084110               0.004535313               0.000000000              -0.000535372               0.001690213               0.001154841               0.000000000               0.000000000               0.000000000               0.000000000               0.000034779               0.004482167               0.000000000              -0.000547227               0.001676450               0.001129223               0.000000000               0.000000000               0.000000000               0.000000000               0.000983159               0.010307443              -0.000772318              -0.000919744               0.003742361               0.002822618               0.000000000               0.000000000               0.000000000               0.000000000               0.001016103               0.008440796              -0.000466745              -0.000674059               0.003038257               0.002364198               0.000000000               0.000000000               0.000000000               0.000000000               0.001359006               0.006962089              -0.000155872              -0.000360633               0.002440884               0.002080251               0.000000000               0.000000000               0.000000000               0.000000000               0.001386921               0.006145628              -0.000013224              -0.000248108               0.002131225               0.001883117               0.000000000               0.000000000               0.000000000               0.000000000               0.001300515               0.005662290               0.000056381              -0.000220093               0.001960775               0.001740683               0.000000000               0.000000000               0.000000000               0.000000000               0.001174708               0.005363474               0.000088358              -0.000229918               0.001864446               0.001634528               0.000000000               0.000000000               0.000000000               0.000000000               0.001041561               0.005171212               0.000099421              -0.000255815               0.001808992               0.001553177               0.000000000               0.000000000               0.000000000               0.000000000               0.000911623               0.005039974               0.000100658              -0.000288137               0.001776020               0.001487883               0.000000000               0.000000000               0.000000000               0.000000000               0.000786964               0.004944767               0.000099300              -0.000322984               0.001755900               0.001432917               0.000000000               0.000000000               0.000000000               0.000000000               0.000670903               0.004874977               0.000097212              -0.000357783               0.001744237               0.001386454               0.000000000               0.000000000               0.000000000               0.000000000               0.000561038               0.004821669               0.000094053              -0.000392319               0.001737980               0.001345661               0.000000000               0.000000000               0.000000000               0.000000000               0.000454666               0.004777080               0.000089201              -0.000426634               0.001734555               0.001307921               0.000000000               0.000000000               0.000000000               0.000000000               0.000355467               0.004738351               0.000082722              -0.000458992               0.001732432               0.001273440               0.000000000               0.000000000               0.000000000               0.000000000               0.000261566               0.004700597               0.000072756              -0.000489486               0.001730012               0.001240526               0.000000000               0.000000000               0.000000000               0.000000000               0.000168701               0.004657294               0.000057482              -0.000518898               0.001725382               0.001206484               0.000000000               0.000000000               0.000000000               0.000000000               0.000079640               0.004605334               0.000033985              -0.000545800               0.001717029               0.001171229               0.000000000               0.000000000               0.000000000               0.000000000               0.000034985               0.004568274               0.000019366              -0.000557914               0.001708714               0.001150800               0.000000000               0.000000000               0.000000000               0.000000000               0.001119186               0.009781389              -0.001450834              -0.000802978               0.003528089               0.002725112               0.000000000               0.000000000               0.000000000               0.000000000               0.001035787               0.008089254              -0.000877005              -0.000622736               0.002903970               0.002281234               0.000000000               0.000000000               0.000000000               0.000000000               0.001253633               0.006796209              -0.000296022              -0.000379413               0.002391851               0.002012438               0.000000000               0.000000000               0.000000000               0.000000000               0.001230712               0.006081795              -0.000037569              -0.000298707               0.002126814               0.001828107               0.000000000               0.000000000               0.000000000               0.000000000               0.001128555               0.005651560               0.000084904              -0.000283236               0.001978247               0.001695011               0.000000000               0.000000000               0.000000000               0.000000000               0.001004398               0.005381412               0.000140700              -0.000296026               0.001892462               0.001596435               0.000000000               0.000000000               0.000000000               0.000000000               0.000881879               0.005202692               0.000160097              -0.000319631               0.001840757               0.001521126               0.000000000               0.000000000               0.000000000               0.000000000               0.000771234               0.005077222               0.000161108              -0.000345439               0.001807537               0.001462098               0.000000000               0.000000000               0.000000000               0.000000000               0.000668697               0.004982982               0.000157740              -0.000372111               0.001785014               0.001412904               0.000000000               0.000000000               0.000000000               0.000000000               0.000573663               0.004914398               0.000153664              -0.000399175               0.001771175               0.001372000               0.000000000               0.000000000               0.000000000               0.000000000               0.000481489               0.004861059               0.000147320              -0.000427073               0.001762694               0.001335621               0.000000000               0.000000000               0.000000000               0.000000000               0.000391335               0.004820114               0.000138844              -0.000455763               0.001758609               0.001302847               0.000000000               0.000000000               0.000000000               0.000000000               0.000306667               0.004790598               0.000127486              -0.000483824               0.001758125               0.001274301               0.000000000               0.000000000               0.000000000               0.000000000               0.000224607               0.004767695               0.000110026              -0.000511733               0.001759794               0.001248061               0.000000000               0.000000000               0.000000000               0.000000000               0.000143980               0.004748367               0.000085013              -0.000539552               0.001762624               0.001223072               0.000000000               0.000000000               0.000000000               0.000000000               0.000067387               0.004730941               0.000048786              -0.000566096               0.001765663               0.001199567               0.000000000               0.000000000               0.000000000               0.000000000               0.000032640               0.004724710               0.000025861              -0.000578347               0.001767670               0.001189323               0.000000000               0.000000000               0.000000000               0.000000000               0.001299756               0.008970388              -0.001972687              -0.000633890               0.003201396               0.002567506               0.000000000               0.000000000               0.000000000               0.000000000               0.001047424               0.007547239              -0.001199386              -0.000550620               0.002699261               0.002148641               0.000000000               0.000000000               0.000000000               0.000000000               0.001084692               0.006533666              -0.000423465              -0.000409948               0.002314516               0.001904568               0.000000000               0.000000000               0.000000000               0.000000000               0.000997037               0.005962538              -0.000093616              -0.000371428               0.002111302               0.001739874               0.000000000               0.000000000               0.000000000               0.000000000               0.000882131               0.005611259               0.000056881              -0.000370607               0.001993937               0.001623329               0.000000000               0.000000000               0.000000000               0.000000000               0.000770076               0.005380105               0.000124849              -0.000383734               0.001921262               0.001537528               0.000000000               0.000000000               0.000000000               0.000000000               0.000670227               0.005216154               0.000148541              -0.000400683               0.001872262               0.001471579               0.000000000               0.000000000               0.000000000               0.000000000               0.000584741               0.005092873               0.000150134              -0.000417330               0.001836717               0.001419387               0.000000000               0.000000000               0.000000000               0.000000000               0.000507356               0.004999469               0.000147583              -0.000434674               0.001811364               0.001376690               0.000000000               0.000000000               0.000000000               0.000000000               0.000437033               0.004930362               0.000142921              -0.000452407               0.001794240               0.001341833               0.000000000               0.000000000               0.000000000               0.000000000               0.000369308               0.004876320               0.000134793              -0.000471048               0.001782440               0.001311392               0.000000000               0.000000000               0.000000000               0.000000000               0.000300050               0.004835379               0.000126996              -0.000491902               0.001775744               0.001283842               0.000000000               0.000000000               0.000000000               0.000000000               0.000233140               0.004807857               0.000115847              -0.000513553               0.001773787               0.001260234               0.000000000               0.000000000               0.000000000               0.000000000               0.000169265               0.004790910               0.000098985              -0.000535388               0.001775417               0.001240029               0.000000000               0.000000000               0.000000000               0.000000000               0.000107682               0.004782813               0.000074566              -0.000557470               0.001780078               0.001222609               0.000000000               0.000000000               0.000000000               0.000000000               0.000050220               0.004780981               0.000040610              -0.000578789               0.001786574               0.001207785               0.000000000               0.000000000               0.000000000               0.000000000               0.000026357               0.004788159               0.000020107              -0.000588634               0.001792249               0.001203614               0.000000000               0.000000000               0.000000000               0.000000000               0.001467845               0.007962546              -0.002303332              -0.000444877               0.002802447               0.002357570               0.000000000               0.000000000               0.000000000               0.000000000               0.001031880               0.006879737              -0.001421311              -0.000473012               0.002450893               0.001977881               0.000000000               0.000000000               0.000000000               0.000000000               0.000870761               0.006207035              -0.000545883              -0.000449343               0.002218772               0.001769429               0.000000000               0.000000000               0.000000000               0.000000000               0.000727879               0.005799455              -0.000190178              -0.000451976               0.002083791               0.001631815               0.000000000               0.000000000               0.000000000               0.000000000               0.000614326               0.005528052              -0.000031260              -0.000460633               0.001996210               0.001535577               0.000000000               0.000000000               0.000000000               0.000000000               0.000524637               0.005330675               0.000042022              -0.000469595               0.001933405               0.001463811               0.000000000               0.000000000               0.000000000               0.000000000               0.000455975               0.005178500               0.000070640              -0.000476321               0.001884923               0.001408602               0.000000000               0.000000000               0.000000000               0.000000000               0.000401237               0.005060804               0.000078256              -0.000482135               0.001847630               0.001365494               0.000000000               0.000000000               0.000000000               0.000000000               0.000349130               0.004971319               0.000081640              -0.000490490               0.001820586               0.001330096               0.000000000               0.000000000               0.000000000               0.000000000               0.000298440               0.004899636               0.000082307              -0.000500538               0.001800042               0.001299504               0.000000000               0.000000000               0.000000000               0.000000000               0.000250649               0.004842637               0.000079675              -0.000511335               0.001784641               0.001273306               0.000000000               0.000000000               0.000000000               0.000000000               0.000201292               0.004798180               0.000079313              -0.000524287               0.001774140               0.001249853               0.000000000               0.000000000               0.000000000               0.000000000               0.000151158               0.004766087               0.000077223              -0.000539075               0.001768372               0.001229296               0.000000000               0.000000000               0.000000000               0.000000000               0.000106056               0.004745630               0.000068981              -0.000553431               0.001766338               0.001212907               0.000000000               0.000000000               0.000000000               0.000000000               0.000065510               0.004731560               0.000052417              -0.000566878               0.001766130               0.001199253               0.000000000               0.000000000               0.000000000               0.000000000               0.000029221               0.004723456               0.000027889              -0.000579473               0.001767627               0.001188154               0.000000000               0.000000000               0.000000000               0.000000000               0.000014093               0.004723121               0.000014089              -0.000585104               0.001769393               0.001184289               0.000000000               0.000000000               0.000000000               0.000000000               0.001567105               0.006851296              -0.002437363              -0.000268749               0.002373325               0.002104576               0.000000000               0.000000000               0.000000000               0.000000000               0.000975385               0.006158715              -0.001548682              -0.000404070               0.002187574               0.001783504               0.000000000               0.000000000               0.000000000               0.000000000               0.000642515               0.005848290              -0.000669239              -0.000490092               0.002112775               0.001622682               0.000000000               0.000000000               0.000000000               0.000000000               0.000470067               0.005597498              -0.000321348              -0.000523411               0.002040284               0.001516873               0.000000000               0.000000000               0.000000000               0.000000000               0.000374595               0.005395510              -0.000164872              -0.000533964               0.001976473               0.001442509               0.000000000               0.000000000               0.000000000               0.000000000               0.000315971               0.005227589              -0.000084968              -0.000534958               0.001920832               0.001385874               0.000000000               0.000000000               0.000000000               0.000000000               0.000278615               0.005089958              -0.000043987              -0.000531763               0.001873890               0.001342127               0.000000000               0.000000000               0.000000000               0.000000000               0.000251027               0.004981929              -0.000022759              -0.000528605               0.001836828               0.001308223               0.000000000               0.000000000               0.000000000               0.000000000               0.000219558               0.004894565              -0.000008528              -0.000529485               0.001808000               0.001278515               0.000000000               0.000000000               0.000000000               0.000000000               0.000185227               0.004818961               0.000002115              -0.000532909               0.001783941               0.001251032               0.000000000               0.000000000               0.000000000               0.000000000               0.000150661               0.004755291               0.000011477              -0.000537912               0.001764385               0.001226473               0.000000000               0.000000000               0.000000000               0.000000000               0.000116470               0.004705348               0.000023685              -0.000544491               0.001749931               0.001205440               0.000000000               0.000000000               0.000000000               0.000000000               0.000084502               0.004667244               0.000034270              -0.000551716               0.001739638               0.001187922               0.000000000               0.000000000               0.000000000               0.000000000               0.000054884               0.004635129               0.000036306              -0.000558808               0.001731297               0.001172489               0.000000000               0.000000000               0.000000000               0.000000000               0.000031036               0.004606533               0.000029073              -0.000564177               0.001723554               0.001159378               0.000000000               0.000000000               0.000000000               0.000000000               0.000013250               0.004580827               0.000014933              -0.000567633               0.001716138               0.001148505               0.000000000               0.000000000               0.000000000               0.000000000               0.000004334               0.004565299               0.000007321              -0.000569036               0.001711429               0.001142394               0.000000000               0.000000000               0.000000000               0.000000000               0.001569379               0.005724381              -0.002398022              -0.000127033               0.001950451               0.001823418               0.000000000               0.000000000               0.000000000               0.000000000               0.000882628               0.005440490              -0.001601039              -0.000349076               0.001929837               0.001580761               0.000000000               0.000000000               0.000000000               0.000000000               0.000429677               0.005480015              -0.000798308              -0.000523872               0.002001277               0.001477405               0.000000000               0.000000000               0.000000000               0.000000000               0.000259165               0.005364375              -0.000472911              -0.000573359               0.001979227               0.001405868               0.000000000               0.000000000               0.000000000               0.000000000               0.000193014               0.005224996              -0.000317638              -0.000580743               0.001935229               0.001354486               0.000000000               0.000000000               0.000000000               0.000000000               0.000169992               0.005087274              -0.000225402              -0.000572161               0.001886461               0.001314300               0.000000000               0.000000000               0.000000000               0.000000000               0.000162604               0.004967550              -0.000167426              -0.000559966               0.001842489               0.001282523               0.000000000               0.000000000               0.000000000               0.000000000               0.000153646               0.004865686              -0.000129845              -0.000550592               0.001805410               0.001254818               0.000000000               0.000000000               0.000000000               0.000000000               0.000133542               0.004775958              -0.000100668              -0.000546915               0.001774275               0.001227360               0.000000000               0.000000000               0.000000000               0.000000000               0.000108831               0.004697359              -0.000076899              -0.000546357               0.001747890               0.001201533               0.000000000               0.000000000               0.000000000               0.000000000               0.000082820               0.004630959              -0.000054344              -0.000547811               0.001726241               0.001178430               0.000000000               0.000000000               0.000000000               0.000000000               0.000056966               0.004576484              -0.000029127              -0.000550697               0.001709045               0.001158348               0.000000000               0.000000000               0.000000000               0.000000000               0.000035685               0.004527766              -0.000008933              -0.000552587               0.001693436               0.001140849               0.000000000               0.000000000               0.000000000               0.000000000               0.000020229               0.004477772               0.000001785              -0.000552134               0.001676621               0.001124486               0.000000000               0.000000000               0.000000000               0.000000000               0.000010584               0.004426069               0.000004383              -0.000549288               0.001658438               0.001109149               0.000000000               0.000000000               0.000000000               0.000000000               0.000004440               0.004373160               0.000001660              -0.000544979               0.001639365               0.001094386               0.000000000               0.000000000               0.000000000               0.000000000              -0.000003280               0.004337802               0.000003008              -0.000543454               0.001627071               0.001083617               0.000000000               0.000000000               0.000000000               0.000000000               0.001484693               0.004656051              -0.002221035              -0.000025249               0.001560417               0.001535168               0.000000000               0.000000000               0.000000000               0.000000000               0.000769195               0.004768684              -0.001593077              -0.000307638               0.001692091               0.001384453               0.000000000               0.000000000               0.000000000               0.000000000               0.000257502               0.005113693              -0.000927189              -0.000542647               0.001885430               0.001342782               0.000000000               0.000000000               0.000000000               0.000000000               0.000113147               0.005112036              -0.000623569              -0.000596573               0.001902853               0.001306279               0.000000000               0.000000000               0.000000000               0.000000000               0.000081439               0.005028251              -0.000461964              -0.000597990               0.001875397               0.001277407               0.000000000               0.000000000               0.000000000               0.000000000               0.000086483               0.004920948              -0.000357018              -0.000582686               0.001834528               0.001251842               0.000000000               0.000000000               0.000000000               0.000000000               0.000098321               0.004817287              -0.000281877              -0.000565289               0.001794176               0.001228887               0.000000000               0.000000000               0.000000000               0.000000000               0.000102521               0.004721497              -0.000225316              -0.000551741               0.001757730               0.001205990               0.000000000               0.000000000               0.000000000               0.000000000               0.000090314               0.004635637              -0.000179219              -0.000545586               0.001727059               0.001181473               0.000000000               0.000000000               0.000000000               0.000000000               0.000066173               0.004558924              -0.000141434              -0.000545049               0.001701309               0.001156260               0.000000000               0.000000000               0.000000000               0.000000000               0.000041137               0.004492949              -0.000107162              -0.000546191               0.001679698               0.001133507               0.000000000               0.000000000               0.000000000               0.000000000               0.000016730               0.004430329              -0.000072736              -0.000547516               0.001659267               0.001111751               0.000000000               0.000000000               0.000000000               0.000000000              -0.000002337               0.004361599              -0.000043895              -0.000546075               0.001635877               0.001089802               0.000000000               0.000000000               0.000000000               0.000000000              -0.000010343               0.004287588              -0.000023702              -0.000539826               0.001609124               0.001069298               0.000000000               0.000000000               0.000000000               0.000000000              -0.000011851               0.004210540              -0.000010587              -0.000530760               0.001580419               0.001049659               0.000000000               0.000000000               0.000000000               0.000000000              -0.000009873               0.004136597              -0.000002522              -0.000520776               0.001552444               0.001031668               0.000000000               0.000000000               0.000000000               0.000000000              -0.000013504               0.004088913               0.000005249              -0.000516177               0.001535016               0.001018839               0.000000000               0.000000000               0.000000000               0.000000000               0.001356234               0.003732780              -0.001954226               0.000041987               0.001230251               0.001272238               0.000000000               0.000000000               0.000000000               0.000000000               0.000674197               0.004165181              -0.001551346              -0.000267825               0.001477654               0.001209829               0.000000000               0.000000000               0.000000000               0.000000000               0.000154133               0.004762451              -0.001065973              -0.000537506               0.001766636               0.001229130               0.000000000               0.000000000               0.000000000               0.000000000               0.000038688               0.004873870              -0.000778943              -0.000594725               0.001822849               0.001228124               0.000000000               0.000000000               0.000000000               0.000000000               0.000032268               0.004847231              -0.000605963              -0.000593802               0.001813661               0.001219859               0.000000000               0.000000000               0.000000000               0.000000000               0.000056674               0.004778450              -0.000487803              -0.000576052               0.001784818               0.001208766               0.000000000               0.000000000               0.000000000               0.000000000               0.000079087               0.004697693              -0.000393910              -0.000557553               0.001751733               0.001194180               0.000000000               0.000000000               0.000000000               0.000000000               0.000087227               0.004616073              -0.000317146              -0.000544297               0.001720108               0.001175810               0.000000000               0.000000000               0.000000000               0.000000000               0.000077455               0.004538400              -0.000256119              -0.000538253               0.001692202               0.001153949               0.000000000               0.000000000               0.000000000               0.000000000               0.000055200               0.004464802              -0.000206707              -0.000537399               0.001667386               0.001129986               0.000000000               0.000000000               0.000000000               0.000000000               0.000027398               0.004397670              -0.000162787              -0.000539433               0.001645686               0.001106253               0.000000000               0.000000000               0.000000000               0.000000000              -0.000001391               0.004325818              -0.000121604              -0.000541248               0.001622341               0.001081093               0.000000000               0.000000000               0.000000000               0.000000000              -0.000022806               0.004242153              -0.000084672              -0.000538820               0.001593643               0.001054823               0.000000000               0.000000000               0.000000000               0.000000000              -0.000036471               0.004148488              -0.000052103              -0.000532236               0.001560228               0.001027991               0.000000000               0.000000000               0.000000000               0.000000000              -0.000048513               0.004052080              -0.000025506              -0.000524701               0.001525580               0.001000879               0.000000000               0.000000000               0.000000000               0.000000000              -0.000058600               0.003963010              -0.000007264              -0.000517350               0.001493440               0.000976090               0.000000000               0.000000000               0.000000000               0.000000000              -0.000063980               0.003912920               0.000002074              -0.000513106               0.001475329               0.000962223               0.000000000               0.000000000               0.000000000               0.000000000               0.001164914               0.002856653              -0.001648032               0.000079758               0.000925621               0.001005380               0.000000000               0.000000000               0.000000000               0.000000000               0.000619780               0.003464947              -0.001491605              -0.000200702               0.001221871               0.001021169               0.000000000               0.000000000               0.000000000               0.000000000               0.000144949               0.004237930              -0.001219910              -0.000475385               0.001571091               0.001095706               0.000000000               0.000000000               0.000000000               0.000000000               0.000040785               0.004495255              -0.000962645              -0.000546612               0.001680607               0.001133995               0.000000000               0.000000000               0.000000000               0.000000000               0.000035040               0.004568315              -0.000775477              -0.000557898               0.001708722               0.001150824               0.000000000               0.000000000               0.000000000               0.000000000               0.000060017               0.004565676              -0.000637553              -0.000548202               0.001704611               0.001156409               0.000000000               0.000000000               0.000000000               0.000000000               0.000080842               0.004527807              -0.000525261              -0.000535659               0.001687807               0.001152148               0.000000000               0.000000000               0.000000000               0.000000000               0.000093938               0.004477188              -0.000432277              -0.000524421               0.001667188               0.001142767               0.000000000               0.000000000               0.000000000               0.000000000               0.000090389               0.004418743              -0.000357887              -0.000518446               0.001645715               0.001127269               0.000000000               0.000000000               0.000000000               0.000000000               0.000072280               0.004360098              -0.000295451              -0.000517906               0.001625987               0.001108081               0.000000000               0.000000000               0.000000000               0.000000000               0.000040886               0.004300716              -0.000237351              -0.000522256               0.001607643               0.001085387               0.000000000               0.000000000               0.000000000               0.000000000               0.000001145               0.004236227              -0.000186019              -0.000529098               0.001588427               0.001059330               0.000000000               0.000000000               0.000000000               0.000000000              -0.000037757               0.004163289              -0.000139340              -0.000534569               0.001565939               0.001031370               0.000000000               0.000000000               0.000000000               0.000000000              -0.000071851               0.004078069              -0.000093142              -0.000536701               0.001538243               0.001001542               0.000000000               0.000000000               0.000000000               0.000000000              -0.000104570               0.003986530              -0.000050893              -0.000537529               0.001508006               0.000970477               0.000000000               0.000000000               0.000000000               0.000000000              -0.000138766               0.003896500              -0.000019114              -0.000539098               0.001478520               0.000939421               0.000000000               0.000000000               0.000000000               0.000000000              -0.000159350               0.003845375              -0.000003948              -0.000540427               0.001461921               0.000921494               0.000000000               0.000000000               0.000000000               0.000000000               0.000866317               0.002045804              -0.001315621               0.000069141               0.000658880               0.000728021               0.000000000               0.000000000               0.000000000               0.000000000               0.000556877               0.002763917              -0.001387260              -0.000136662               0.000966850               0.000830188               0.000000000               0.000000000               0.000000000               0.000000000               0.000197815               0.003642374              -0.001332402              -0.000381116               0.001341151               0.000960035               0.000000000               0.000000000               0.000000000               0.000000000               0.000103222               0.004040145              -0.001134937              -0.000466309               0.001502138               0.001035828               0.000000000               0.000000000               0.000000000               0.000000000               0.000080812               0.004227914              -0.000946658              -0.000498184               0.001575352               0.001077168               0.000000000               0.000000000               0.000000000               0.000000000               0.000094042               0.004304773              -0.000794083              -0.000502830               0.001602520               0.001099690               0.000000000               0.000000000               0.000000000               0.000000000               0.000112488               0.004322046              -0.000670259              -0.000498072               0.001606691               0.001108620               0.000000000               0.000000000               0.000000000               0.000000000               0.000128109               0.004313266              -0.000568007              -0.000491116               0.001601446               0.001110330               0.000000000               0.000000000               0.000000000               0.000000000               0.000130938               0.004293597              -0.000481128              -0.000487597               0.001593717               0.001106120               0.000000000               0.000000000               0.000000000               0.000000000               0.000113246               0.004261839              -0.000404343              -0.000490261               0.001584019               0.001093758               0.000000000               0.000000000               0.000000000               0.000000000               0.000079962               0.004220800              -0.000334229              -0.000497613               0.001572790               0.001075177               0.000000000               0.000000000               0.000000000               0.000000000               0.000035784               0.004172928              -0.000272761              -0.000508196               0.001560361               0.001052165               0.000000000               0.000000000               0.000000000               0.000000000              -0.000015412               0.004118690              -0.000217185              -0.000520614               0.001546421               0.001025807               0.000000000               0.000000000               0.000000000               0.000000000              -0.000065981               0.004054017              -0.000161316              -0.000531494               0.001528490               0.000996996               0.000000000               0.000000000               0.000000000               0.000000000              -0.000117428               0.003978289              -0.000102436              -0.000541320               0.001506523               0.000965203               0.000000000               0.000000000               0.000000000               0.000000000              -0.000179896               0.003894437              -0.000046645              -0.000554264               0.001482888               0.000928623               0.000000000               0.000000000               0.000000000               0.000000000              -0.000227939               0.003839123              -0.000015733              -0.000565366               0.001468150               0.000902784               0.000000000               0.000000000               0.000000000               0.000000000               0.000484931               0.001351900              -0.000971853               0.000012860               0.000446341               0.000459202               0.000000000               0.000000000               0.000000000               0.000000000               0.000448832               0.002097961              -0.001222084              -0.000093934               0.000730624               0.000636690               0.000000000               0.000000000               0.000000000               0.000000000               0.000271729               0.002991697              -0.001345573              -0.000272064               0.001087910               0.000815846               0.000000000               0.000000000               0.000000000               0.000000000               0.000212953               0.003490649              -0.001222767              -0.000356474               0.001282362               0.000925888               0.000000000               0.000000000               0.000000000               0.000000000               0.000181647               0.003778355              -0.001061941              -0.000404176               0.001394164               0.000989988               0.000000000               0.000000000               0.000000000               0.000000000               0.000176942               0.003942067              -0.000913657              -0.000426405               0.001456144               0.001029739               0.000000000               0.000000000               0.000000000               0.000000000               0.000188542               0.004031589              -0.000786093              -0.000433245               0.001488265               0.001055020               0.000000000               0.000000000               0.000000000               0.000000000               0.000197387               0.004081000              -0.000676897              -0.000436104               0.001505688               0.001069584               0.000000000               0.000000000               0.000000000               0.000000000               0.000197585               0.004108306              -0.000581515              -0.000439443               0.001515903               0.001076460               0.000000000               0.000000000               0.000000000               0.000000000               0.000181242               0.004112344              -0.000496276              -0.000446076               0.001519460               0.001073383               0.000000000               0.000000000               0.000000000               0.000000000               0.000149930               0.004099419              -0.000420607              -0.000456203               0.001518527               0.001062324               0.000000000               0.000000000               0.000000000               0.000000000               0.000107106               0.004075164              -0.000353336              -0.000469230               0.001514784               0.001045555               0.000000000               0.000000000               0.000000000               0.000000000               0.000056538               0.004043926              -0.000293287              -0.000484288               0.001509391               0.001025103               0.000000000               0.000000000               0.000000000               0.000000000              -0.000001510               0.004001328              -0.000232109              -0.000500731               0.001500673               0.000999942               0.000000000               0.000000000               0.000000000               0.000000000              -0.000066115               0.003945798              -0.000160545              -0.000518017               0.001487925               0.000969908               0.000000000               0.000000000               0.000000000               0.000000000              -0.000144278               0.003878879              -0.000079863              -0.000538963               0.001472601               0.000933638               0.000000000               0.000000000               0.000000000               0.000000000              -0.000207373               0.003830787              -0.000031813              -0.000556612               0.001462453               0.000905842               0.000000000               0.000000000               0.000000000               0.000000000               0.000054283               0.000810592              -0.000652029              -0.000080968               0.000297184               0.000216215               0.000000000               0.000000000               0.000000000               0.000000000               0.000307265               0.001500492              -0.001007478              -0.000072338               0.000524271               0.000451933               0.000000000               0.000000000               0.000000000               0.000000000               0.000345104               0.002332804              -0.001250866              -0.000162187               0.000831655               0.000669468               0.000000000               0.000000000               0.000000000               0.000000000               0.000351552               0.002888819              -0.001198083              -0.000229271               0.001039353               0.000810082               0.000000000               0.000000000               0.000000000               0.000000000               0.000333163               0.003256725              -0.001080353              -0.000282155               0.001179615               0.000897461               0.000000000               0.000000000               0.000000000               0.000000000               0.000312530               0.003500960              -0.000957436              -0.000320421               0.001273782               0.000953361               0.000000000               0.000000000               0.000000000               0.000000000               0.000305721               0.003665015              -0.000838797              -0.000343481               0.001336153               0.000992672               0.000000000               0.000000000               0.000000000               0.000000000               0.000302333               0.003779886              -0.000729881              -0.000359110               0.001379653               0.001020542               0.000000000               0.000000000               0.000000000               0.000000000               0.000295599               0.003859180              -0.000632839              -0.000371547               0.001410230               0.001038682               0.000000000               0.000000000               0.000000000               0.000000000               0.000279854               0.003906040              -0.000546273              -0.000383309               0.001429770               0.001046461               0.000000000               0.000000000               0.000000000               0.000000000               0.000253854               0.003930137              -0.000470198              -0.000396071               0.001442056               0.001045985               0.000000000               0.000000000               0.000000000               0.000000000               0.000218628               0.003935796              -0.000405296              -0.000409988               0.001448582               0.001038594               0.000000000               0.000000000               0.000000000               0.000000000               0.000176782               0.003931788              -0.000345363              -0.000425179               0.001452309               0.001027130               0.000000000               0.000000000               0.000000000               0.000000000               0.000122932               0.003919406              -0.000280514              -0.000443825               0.001454398               0.001010572               0.000000000               0.000000000               0.000000000               0.000000000               0.000055835               0.003891629              -0.000202284              -0.000465514               0.001452368               0.000986854               0.000000000               0.000000000               0.000000000               0.000000000              -0.000023251               0.003852309              -0.000106436              -0.000490256               0.001447509               0.000957253               0.000000000               0.000000000               0.000000000               0.000000000              -0.000084002               0.003820721              -0.000048699              -0.000509089               0.001443257               0.000934168               0.000000000               0.000000000               0.000000000               0.000000000              -0.000376298               0.000417189              -0.000390519              -0.000193260               0.000203481               0.000010221               0.000000000               0.000000000               0.000000000               0.000000000               0.000150066               0.001005724              -0.000761376              -0.000069441               0.000358385               0.000288943               0.000000000               0.000000000               0.000000000               0.000000000               0.000412492               0.001731406              -0.001048458              -0.000061742               0.000597710               0.000535968               0.000000000               0.000000000               0.000000000               0.000000000               0.000497037               0.002300761              -0.001050739              -0.000101207               0.000800648               0.000699441               0.000000000               0.000000000               0.000000000               0.000000000               0.000506706               0.002721509              -0.000976338              -0.000150175               0.000957219               0.000807044               0.000000000               0.000000000               0.000000000               0.000000000               0.000485284               0.003031023              -0.000887180              -0.000196897               0.001075963               0.000879066               0.000000000               0.000000000               0.000000000               0.000000000               0.000460189               0.003260898              -0.000791075              -0.000235041               0.001165302               0.000930261               0.000000000               0.000000000               0.000000000               0.000000000               0.000439987               0.003435977              -0.000695823              -0.000264502               0.001233482               0.000968980               0.000000000               0.000000000               0.000000000               0.000000000               0.000420784               0.003568888              -0.000607855              -0.000288316               0.001285723               0.000997406               0.000000000               0.000000000               0.000000000               0.000000000               0.000400229               0.003666060              -0.000529408              -0.000308171               0.001324731               0.001016560               0.000000000               0.000000000               0.000000000               0.000000000               0.000377710               0.003731684              -0.000461866              -0.000324819               0.001352155               0.001027336               0.000000000               0.000000000               0.000000000               0.000000000               0.000351723               0.003774168              -0.000405262              -0.000339874               0.001371335               0.001031461               0.000000000               0.000000000               0.000000000               0.000000000               0.000321075               0.003804261              -0.000350250              -0.000355129               0.001386451               0.001031322               0.000000000               0.000000000               0.000000000               0.000000000               0.000283115               0.003820952              -0.000287192              -0.000371450               0.001397455               0.001026004               0.000000000               0.000000000               0.000000000               0.000000000               0.000236231               0.003825319              -0.000210184              -0.000389577               0.001404953               0.001015375               0.000000000               0.000000000               0.000000000               0.000000000               0.000183729               0.003822287              -0.000114017              -0.000408887               0.001410379               0.001001492               0.000000000               0.000000000               0.000000000               0.000000000               0.000144342               0.003811543              -0.000057390              -0.000422314               0.001411273               0.000988959               0.000000000               0.000000000               0.000000000               0.000000000              -0.000746110               0.000166332              -0.000200873              -0.000300583               0.000155637              -0.000144946               0.000000000               0.000000000               0.000000000               0.000000000              -0.000002145               0.000643556              -0.000504033              -0.000081250               0.000241599               0.000160350               0.000000000               0.000000000               0.000000000               0.000000000               0.000463262               0.001250873              -0.000754445               0.000017363               0.000411165               0.000428528               0.000000000               0.000000000               0.000000000               0.000000000               0.000628682               0.001803292              -0.000783674               0.000010343               0.000597644               0.000607986               0.000000000               0.000000000               0.000000000               0.000000000               0.000671672               0.002250427              -0.000746497              -0.000029427               0.000759944               0.000730517               0.000000000               0.000000000               0.000000000               0.000000000               0.000657520               0.002603728              -0.000690856              -0.000078897               0.000894200               0.000815303               0.000000000               0.000000000               0.000000000               0.000000000               0.000619551               0.002882395              -0.000624244              -0.000127968               0.001003445               0.000875477               0.000000000               0.000000000               0.000000000               0.000000000               0.000580181               0.003108664              -0.000553968              -0.000171015               0.001093216               0.000922201               0.000000000               0.000000000               0.000000000               0.000000000               0.000545333               0.003292670              -0.000486643              -0.000207084               0.001166573               0.000959490               0.000000000               0.000000000               0.000000000               0.000000000               0.000516131               0.003435313              -0.000427152              -0.000235865               0.001223714               0.000987850               0.000000000               0.000000000               0.000000000               0.000000000               0.000491322               0.003542022              -0.000377416              -0.000258507               0.001266831               0.001008324               0.000000000               0.000000000               0.000000000               0.000000000               0.000470672               0.003623156              -0.000335311              -0.000276392               0.001299837               0.001023445               0.000000000               0.000000000               0.000000000               0.000000000               0.000453508               0.003687646              -0.000293613              -0.000290890               0.001326166               0.001035277               0.000000000               0.000000000               0.000000000               0.000000000               0.000440410               0.003735256              -0.000244587              -0.000301753               0.001345657               0.001043905               0.000000000               0.000000000               0.000000000               0.000000000               0.000432447               0.003768903              -0.000182854              -0.000308944               0.001359270               0.001050326               0.000000000               0.000000000               0.000000000               0.000000000               0.000431826               0.003794709              -0.000101488              -0.000312403               0.001369025               0.001056622               0.000000000               0.000000000               0.000000000               0.000000000               0.000433411               0.003804038              -0.000053774              -0.000312975               0.001372325               0.001059350               0.000000000               0.000000000               0.000000000               0.000000000              -0.000996076               0.000036646              -0.000078077              -0.000378109               0.000138251              -0.000239858               0.000000000               0.000000000               0.000000000               0.000000000              -0.000114623               0.000427757              -0.000248003              -0.000096453               0.000174735               0.000078282               0.000000000               0.000000000               0.000000000               0.000000000               0.000491661               0.000942239              -0.000394095               0.000066592               0.000291879               0.000358471               0.000000000               0.000000000               0.000000000               0.000000000               0.000725002               0.001470124              -0.000419942               0.000088109               0.000460666               0.000548776               0.000000000               0.000000000               0.000000000               0.000000000               0.000796887               0.001924021              -0.000407031               0.000058329               0.000621891               0.000680220               0.000000000               0.000000000               0.000000000               0.000000000               0.000784559               0.002299291              -0.000380722               0.000006798               0.000764157               0.000770955               0.000000000               0.000000000               0.000000000               0.000000000               0.000736016               0.002611977              -0.000346147              -0.000050491               0.000887481               0.000836990               0.000000000               0.000000000               0.000000000               0.000000000               0.000680920               0.002873235              -0.000308342              -0.000103809               0.000992338               0.000888529               0.000000000               0.000000000               0.000000000               0.000000000               0.000633326               0.003089625              -0.000272620              -0.000148706               0.001079433               0.000930727               0.000000000               0.000000000               0.000000000               0.000000000               0.000597907               0.003268029              -0.000241407              -0.000184288               0.001150761               0.000966473               0.000000000               0.000000000               0.000000000               0.000000000               0.000571867               0.003409267              -0.000215366              -0.000211708               0.001206980               0.000995272               0.000000000               0.000000000               0.000000000               0.000000000               0.000553650               0.003517663              -0.000194032              -0.000232089               0.001249906               0.001017817               0.000000000               0.000000000               0.000000000               0.000000000               0.000546467               0.003606481              -0.000172437              -0.000245884               0.001284110               0.001038225               0.000000000               0.000000000               0.000000000               0.000000000               0.000554103               0.003680501              -0.000146496              -0.000252273               0.001310913               0.001058639               0.000000000               0.000000000               0.000000000               0.000000000               0.000580931               0.003737328              -0.000112772              -0.000249316               0.001328869               0.001079553               0.000000000               0.000000000               0.000000000               0.000000000               0.000633434               0.003779074              -0.000064522              -0.000234846               0.001337961               0.001103115               0.000000000               0.000000000               0.000000000               0.000000000               0.000684569               0.003802269              -0.000036033              -0.000218570               0.001340267               0.001121697               0.000000000               0.000000000               0.000000000               0.000000000              -0.001084376              -0.000003200              -0.000000000              -0.000406241               0.000134346              -0.000271895               0.000000000               0.000000000               0.000000000               0.000000000              -0.000155881               0.000357446               0.000000000              -0.000103136               0.000153526               0.000050390               0.000000000               0.000000000               0.000000000               0.000000000               0.000500526               0.000837959               0.000000000               0.000082951               0.000251667               0.000334618               0.000000000               0.000000000               0.000000000               0.000000000               0.000761599               0.001352159              -0.000000000               0.000116578               0.000411856               0.000528434               0.000000000               0.000000000               0.000000000               0.000000000               0.000844328               0.001805526               0.000000000               0.000090931               0.000571526               0.000662457               0.000000000               0.000000000               0.000000000               0.000000000               0.000831021               0.002188593               0.000000000               0.000038058               0.000716838               0.000754896               0.000000000               0.000000000               0.000000000               0.000000000               0.000776993               0.002511389              -0.000000000              -0.000022551               0.000844638               0.000822087               0.000000000               0.000000000               0.000000000               0.000000000               0.000716962               0.002786557              -0.000000000              -0.000079459               0.000955329               0.000875870               0.000000000               0.000000000               0.000000000               0.000000000               0.000667541               0.003019068              -0.000000000              -0.000127055               0.001048698               0.000921643               0.000000000               0.000000000               0.000000000               0.000000000               0.000628970               0.003209257               0.000000000              -0.000165293               0.001124839               0.000959546               0.000000000               0.000000000               0.000000000               0.000000000               0.000602345               0.003360462               0.000000000              -0.000194178               0.001184869               0.000990691               0.000000000               0.000000000               0.000000000               0.000000000               0.000585071               0.003479666               0.000000000              -0.000215556               0.001231729               0.001016173               0.000000000               0.000000000               0.000000000               0.000000000               0.000580671               0.003578940              -0.000000000              -0.000229616               0.001269507               0.001039891               0.000000000               0.000000000               0.000000000               0.000000000               0.000595926               0.003664252              -0.000000000              -0.000234559               0.001299591               0.001065033               0.000000000               0.000000000               0.000000000               0.000000000               0.000636262               0.003731082               0.000000000              -0.000227787               0.001319611               0.001091824               0.000000000               0.000000000               0.000000000               0.000000000               0.000711629               0.003776906               0.000000000              -0.000205252               0.001327373               0.001122121               0.000000000               0.000000000               0.000000000               0.000000000               0.000786599               0.003804022              -0.000000000              -0.000180528               0.001328170               0.001147643               0.000000000               0.000000000               0.000000000               0.000000000               0.000000000               0.000000000               0.000000000               0.000000000               0.000000000               0.000000000               0.000000000               0.000000000               0.000000000               0.000000000               0.000000000               0.000000000               0.000000000               0.000000000               0.000000000               0.000000000               0.000000000               0.000000000               0.000000000               0.000000000               0.000000000               0.000000000               0.000000000               0.000000000               0.000000000               0.000000000               0.000000000               0.000000000               0.000000000               0.000000000               0.000000000               0.000000000               0.000000000               0.000000000               0.000000000               0.000000000               0.000000000               0.000000000               0.000000000               0.000000000               0.000000000               0.000000000               0.000000000               0.000000000               0.000000000               0.000000000               0.000000000               0.000000000               0.000000000               0.000000000               0.000000000               0.000000000               0.000000000               0.000000000               0.000000000               0.000000000               0.000000000               0.000000000               0.000000000               0.000000000               0.000000000               0.000000000               0.000000000               0.000000000               0.000000000               0.000000000               0.000000000               0.000000000               0.000000000               0.000000000               0.000000000               0.000000000               0.000000000               0.000000000               0.000000000               0.000000000               0.000000000               0.000000000               0.000000000               0.000000000               0.000000000               0.000000000               0.000000000               0.000000000               0.000000000               0.000000000               0.000000000               0.000000000               0.000000000               0.000000000               0.000000000               0.000000000               0.000000000               0.000000000               0.000000000               0.000000000               0.000000000               0.000000000               0.000000000               0.000000000               0.000000000               0.000000000               0.000000000               0.000000000               0.000000000               0.000000000               0.000000000               0.000000000               0.000000000               0.000000000               0.000000000               0.000000000               0.000000000               0.000000000               0.000000000               0.000000000               0.000000000               0.000000000               0.000000000               0.000000000               0.000000000               0.000000000               0.000000000               0.000000000               0.000000000               0.000000000               0.000000000               0.000000000               0.000000000               0.000000000               0.000000000               0.000000000               0.000000000               0.000000000               0.000000000               0.000000000               0.000000000               0.000000000               0.000000000               0.000000000               0.000000000               0.000000000               0.000000000               0.000000000               0.000000000               0.000000000               0.000000000               0.000000000               0.000000000               0.000000000               0.000000000               0.000000000               0.000000000               0.000000000               0.000000000               0.000000000               0.000000000               0.000000000               0.000000000               0.000000000               0.000000000               0.000000000               0.000000000               0.000000000               0.000000000               0.000000000               0.000000000               0.000000000               0.000000000               0.000000000               0.000983159               0.010307443               0.000772318              -0.000919744               0.003742361               0.002822618               0.000000000               0.000000000               0.000000000               0.000000000               0.001016103               0.008440796               0.000466745              -0.000674059               0.003038257               0.002364198               0.000000000               0.000000000               0.000000000               0.000000000               0.001359006               0.006962089               0.000155872              -0.000360633               0.002440884               0.002080251               0.000000000               0.000000000               0.000000000               0.000000000               0.001386921               0.006145628               0.000013224              -0.000248108               0.002131225               0.001883117               0.000000000               0.000000000               0.000000000               0.000000000               0.001300515               0.005662290              -0.000056381              -0.000220093               0.001960775               0.001740683               0.000000000               0.000000000               0.000000000               0.000000000               0.001174708               0.005363474              -0.000088358              -0.000229918               0.001864446               0.001634528               0.000000000               0.000000000               0.000000000               0.000000000               0.001041561               0.005171212              -0.000099421              -0.000255815               0.001808992               0.001553177               0.000000000               0.000000000               0.000000000               0.000000000               0.000911623               0.005039974              -0.000100658              -0.000288137               0.001776020               0.001487883               0.000000000               0.000000000               0.000000000               0.000000000               0.000786964               0.004944767              -0.000099300              -0.000322984               0.001755900               0.001432917               0.000000000               0.000000000               0.000000000               0.000000000               0.000670903               0.004874977              -0.000097212              -0.000357783               0.001744237               0.001386454               0.000000000               0.000000000               0.000000000               0.000000000               0.000561038               0.004821669              -0.000094053              -0.000392319               0.001737980               0.001345661               0.000000000               0.000000000               0.000000000               0.000000000               0.000454666               0.004777080              -0.000089201              -0.000426634               0.001734555               0.001307921               0.000000000               0.000000000               0.000000000               0.000000000               0.000355467               0.004738351              -0.000082722              -0.000458992               0.001732432               0.001273440               0.000000000               0.000000000               0.000000000               0.000000000               0.000261566               0.004700597              -0.000072756              -0.000489486               0.001730012               0.001240526               0.000000000               0.000000000               0.000000000               0.000000000               0.000168701               0.004657294              -0.000057482              -0.000518898               0.001725382               0.001206484               0.000000000               0.000000000               0.000000000               0.000000000               0.000079640               0.004605334              -0.000033985              -0.000545800               0.001717029               0.001171229               0.000000000               0.000000000               0.000000000               0.000000000               0.000034985               0.004568274              -0.000019366              -0.000557914               0.001708714               0.001150800               0.000000000               0.000000000               0.000000000               0.000000000               0.001119186               0.009781389               0.001450834              -0.000802978               0.003528089               0.002725112               0.000000000               0.000000000               0.000000000               0.000000000               0.001035787               0.008089254               0.000877005              -0.000622736               0.002903970               0.002281234               0.000000000               0.000000000               0.000000000               0.000000000               0.001253633               0.006796209               0.000296022              -0.000379413               0.002391851               0.002012438               0.000000000               0.000000000               0.000000000               0.000000000               0.001230712               0.006081795               0.000037569              -0.000298707               0.002126814               0.001828107               0.000000000               0.000000000               0.000000000               0.000000000               0.001128555               0.005651560              -0.000084904              -0.000283236               0.001978247               0.001695011               0.000000000               0.000000000               0.000000000               0.000000000               0.001004398               0.005381412              -0.000140700              -0.000296026               0.001892462               0.001596435               0.000000000               0.000000000               0.000000000               0.000000000               0.000881879               0.005202692              -0.000160097              -0.000319631               0.001840757               0.001521126               0.000000000               0.000000000               0.000000000               0.000000000               0.000771234               0.005077222              -0.000161108              -0.000345439               0.001807537               0.001462098               0.000000000               0.000000000               0.000000000               0.000000000               0.000668697               0.004982982              -0.000157740              -0.000372111               0.001785014               0.001412904               0.000000000               0.000000000               0.000000000               0.000000000               0.000573663               0.004914398              -0.000153664              -0.000399175               0.001771175               0.001372000               0.000000000               0.000000000               0.000000000               0.000000000               0.000481489               0.004861059              -0.000147320              -0.000427073               0.001762694               0.001335621               0.000000000               0.000000000               0.000000000               0.000000000               0.000391335               0.004820114              -0.000138844              -0.000455763               0.001758609               0.001302847               0.000000000               0.000000000               0.000000000               0.000000000               0.000306667               0.004790598              -0.000127486              -0.000483824               0.001758125               0.001274301               0.000000000               0.000000000               0.000000000               0.000000000               0.000224607               0.004767695              -0.000110026              -0.000511733               0.001759794               0.001248061               0.000000000               0.000000000               0.000000000               0.000000000               0.000143980               0.004748367              -0.000085013              -0.000539552               0.001762624               0.001223072               0.000000000               0.000000000               0.000000000               0.000000000               0.000067387               0.004730941              -0.000048786              -0.000566096               0.001765663               0.001199567               0.000000000               0.000000000               0.000000000               0.000000000               0.000032640               0.004724710              -0.000025861              -0.000578347               0.001767670               0.001189323               0.000000000               0.000000000               0.000000000               0.000000000               0.001299756               0.008970388               0.001972687              -0.000633890               0.003201396               0.002567506               0.000000000               0.000000000               0.000000000               0.000000000               0.001047424               0.007547239               0.001199386              -0.000550620               0.002699261               0.002148641               0.000000000               0.000000000               0.000000000               0.000000000               0.001084692               0.006533666               0.000423465              -0.000409948               0.002314516               0.001904568               0.000000000               0.000000000               0.000000000               0.000000000               0.000997037               0.005962538               0.000093616              -0.000371428               0.002111302               0.001739874               0.000000000               0.000000000               0.000000000               0.000000000               0.000882131               0.005611259              -0.000056881              -0.000370607               0.001993937               0.001623329               0.000000000               0.000000000               0.000000000               0.000000000               0.000770076               0.005380105              -0.000124849              -0.000383734               0.001921262               0.001537528               0.000000000               0.000000000               0.000000000               0.000000000               0.000670227               0.005216154              -0.000148541              -0.000400683               0.001872262               0.001471579               0.000000000               0.000000000               0.000000000               0.000000000               0.000584741               0.005092873              -0.000150134              -0.000417330               0.001836717               0.001419387               0.000000000               0.000000000               0.000000000               0.000000000               0.000507356               0.004999469              -0.000147583              -0.000434674               0.001811364               0.001376690               0.000000000               0.000000000               0.000000000               0.000000000               0.000437033               0.004930362              -0.000142921              -0.000452407               0.001794240               0.001341833               0.000000000               0.000000000               0.000000000               0.000000000               0.000369308               0.004876320              -0.000134793              -0.000471048               0.001782440               0.001311392               0.000000000               0.000000000               0.000000000               0.000000000               0.000300050               0.004835379              -0.000126996              -0.000491902               0.001775744               0.001283842               0.000000000               0.000000000               0.000000000               0.000000000               0.000233140               0.004807857              -0.000115847              -0.000513553               0.001773787               0.001260234               0.000000000               0.000000000               0.000000000               0.000000000               0.000169265               0.004790910              -0.000098985              -0.000535388               0.001775417               0.001240029               0.000000000               0.000000000               0.000000000               0.000000000               0.000107682               0.004782813              -0.000074566              -0.000557470               0.001780078               0.001222609               0.000000000               0.000000000               0.000000000               0.000000000               0.000050220               0.004780981              -0.000040610              -0.000578789               0.001786574               0.001207785               0.000000000               0.000000000               0.000000000               0.000000000               0.000026357               0.004788159              -0.000020107              -0.000588634               0.001792249               0.001203614               0.000000000               0.000000000               0.000000000               0.000000000               0.001467845               0.007962546               0.002303332              -0.000444877               0.002802447               0.002357570               0.000000000               0.000000000               0.000000000               0.000000000               0.001031880               0.006879737               0.001421311              -0.000473012               0.002450893               0.001977881               0.000000000               0.000000000               0.000000000               0.000000000               0.000870761               0.006207035               0.000545883              -0.000449343               0.002218772               0.001769429               0.000000000               0.000000000               0.000000000               0.000000000               0.000727879               0.005799455               0.000190178              -0.000451976               0.002083791               0.001631815               0.000000000               0.000000000               0.000000000               0.000000000               0.000614326               0.005528052               0.000031260              -0.000460633               0.001996210               0.001535577               0.000000000               0.000000000               0.000000000               0.000000000               0.000524637               0.005330675              -0.000042022              -0.000469595               0.001933405               0.001463811               0.000000000               0.000000000               0.000000000               0.000000000               0.000455975               0.005178500              -0.000070640              -0.000476321               0.001884923               0.001408602               0.000000000               0.000000000               0.000000000               0.000000000               0.000401237               0.005060804              -0.000078256              -0.000482135               0.001847630               0.001365494               0.000000000               0.000000000               0.000000000               0.000000000               0.000349130               0.004971319              -0.000081640              -0.000490490               0.001820586               0.001330096               0.000000000               0.000000000               0.000000000               0.000000000               0.000298440               0.004899636              -0.000082307              -0.000500538               0.001800042               0.001299504               0.000000000               0.000000000               0.000000000               0.000000000               0.000250649               0.004842637              -0.000079675              -0.000511335               0.001784641               0.001273306               0.000000000               0.000000000               0.000000000               0.000000000               0.000201292               0.004798180              -0.000079313              -0.000524287               0.001774140               0.001249853               0.000000000               0.000000000               0.000000000               0.000000000               0.000151158               0.004766087              -0.000077223              -0.000539075               0.001768372               0.001229296               0.000000000               0.000000000               0.000000000               0.000000000               0.000106056               0.004745630              -0.000068981              -0.000553431               0.001766338               0.001212907               0.000000000               0.000000000               0.000000000               0.000000000               0.000065510               0.004731560              -0.000052417              -0.000566878               0.001766130               0.001199253               0.000000000               0.000000000               0.000000000               0.000000000               0.000029221               0.004723456              -0.000027889              -0.000579473               0.001767627               0.001188154               0.000000000               0.000000000               0.000000000               0.000000000               0.000014093               0.004723121              -0.000014089              -0.000585104               0.001769393               0.001184289               0.000000000               0.000000000               0.000000000               0.000000000               0.001567105               0.006851296               0.002437363              -0.000268749               0.002373325               0.002104576               0.000000000               0.000000000               0.000000000               0.000000000               0.000975385               0.006158715               0.001548682              -0.000404070               0.002187574               0.001783504               0.000000000               0.000000000               0.000000000               0.000000000               0.000642515               0.005848290               0.000669239              -0.000490092               0.002112775               0.001622682               0.000000000               0.000000000               0.000000000               0.000000000               0.000470067               0.005597498               0.000321348              -0.000523411               0.002040284               0.001516873               0.000000000               0.000000000               0.000000000               0.000000000               0.000374595               0.005395510               0.000164872              -0.000533964               0.001976473               0.001442509               0.000000000               0.000000000               0.000000000               0.000000000               0.000315971               0.005227589               0.000084968              -0.000534958               0.001920832               0.001385874               0.000000000               0.000000000               0.000000000               0.000000000               0.000278615               0.005089958               0.000043987              -0.000531763               0.001873890               0.001342127               0.000000000               0.000000000               0.000000000               0.000000000               0.000251027               0.004981929               0.000022759              -0.000528605               0.001836828               0.001308223               0.000000000               0.000000000               0.000000000               0.000000000               0.000219558               0.004894565               0.000008528              -0.000529485               0.001808000               0.001278515               0.000000000               0.000000000               0.000000000               0.000000000               0.000185227               0.004818961              -0.000002115              -0.000532909               0.001783941               0.001251032               0.000000000               0.000000000               0.000000000               0.000000000               0.000150661               0.004755291              -0.000011477              -0.000537912               0.001764385               0.001226473               0.000000000               0.000000000               0.000000000               0.000000000               0.000116470               0.004705348              -0.000023685              -0.000544491               0.001749931               0.001205440               0.000000000               0.000000000               0.000000000               0.000000000               0.000084502               0.004667244              -0.000034270              -0.000551716               0.001739638               0.001187922               0.000000000               0.000000000               0.000000000               0.000000000               0.000054884               0.004635129              -0.000036306              -0.000558808               0.001731297               0.001172489               0.000000000               0.000000000               0.000000000               0.000000000               0.000031036               0.004606533              -0.000029073              -0.000564177               0.001723554               0.001159378               0.000000000               0.000000000               0.000000000               0.000000000               0.000013250               0.004580827              -0.000014933              -0.000567633               0.001716138               0.001148505               0.000000000               0.000000000               0.000000000               0.000000000               0.000004334               0.004565299              -0.000007321              -0.000569036               0.001711429               0.001142394               0.000000000               0.000000000               0.000000000               0.000000000               0.001569379               0.005724381               0.002398022              -0.000127033               0.001950451               0.001823418               0.000000000               0.000000000               0.000000000               0.000000000               0.000882628               0.005440490               0.001601039              -0.000349076               0.001929837               0.001580761               0.000000000               0.000000000               0.000000000               0.000000000               0.000429677               0.005480015               0.000798308              -0.000523872               0.002001277               0.001477405               0.000000000               0.000000000               0.000000000               0.000000000               0.000259165               0.005364375               0.000472911              -0.000573359               0.001979227               0.001405868               0.000000000               0.000000000               0.000000000               0.000000000               0.000193014               0.005224996               0.000317638              -0.000580743               0.001935229               0.001354486               0.000000000               0.000000000               0.000000000               0.000000000               0.000169992               0.005087274               0.000225402              -0.000572161               0.001886461               0.001314300               0.000000000               0.000000000               0.000000000               0.000000000               0.000162604               0.004967550               0.000167426              -0.000559966               0.001842489               0.001282523               0.000000000               0.000000000               0.000000000               0.000000000               0.000153646               0.004865686               0.000129845              -0.000550592               0.001805410               0.001254818               0.000000000               0.000000000               0.000000000               0.000000000               0.000133542               0.004775958               0.000100668              -0.000546915               0.001774275               0.001227360               0.000000000               0.000000000               0.000000000               0.000000000               0.000108831               0.004697359               0.000076899              -0.000546357               0.001747890               0.001201533               0.000000000               0.000000000               0.000000000               0.000000000               0.000082820               0.004630959               0.000054344              -0.000547811               0.001726241               0.001178430               0.000000000               0.000000000               0.000000000               0.000000000               0.000056966               0.004576484               0.000029127              -0.000550697               0.001709045               0.001158348               0.000000000               0.000000000               0.000000000               0.000000000               0.000035685               0.004527766               0.000008933              -0.000552587               0.001693436               0.001140849               0.000000000               0.000000000               0.000000000               0.000000000               0.000020229               0.004477772              -0.000001785              -0.000552134               0.001676621               0.001124486               0.000000000               0.000000000               0.000000000               0.000000000               0.000010584               0.004426069              -0.000004383              -0.000549288               0.001658438               0.001109149               0.000000000               0.000000000               0.000000000               0.000000000               0.000004440               0.004373160              -0.000001660              -0.000544979               0.001639365               0.001094386               0.000000000               0.000000000               0.000000000               0.000000000              -0.000003280               0.004337802              -0.000003008              -0.000543454               0.001627071               0.001083617               0.000000000               0.000000000               0.000000000               0.000000000               0.001484693               0.004656051               0.002221035              -0.000025249               0.001560417               0.001535168               0.000000000               0.000000000               0.000000000               0.000000000               0.000769195               0.004768684               0.001593077              -0.000307638               0.001692091               0.001384453               0.000000000               0.000000000               0.000000000               0.000000000               0.000257502               0.005113693               0.000927189              -0.000542647               0.001885430               0.001342782               0.000000000               0.000000000               0.000000000               0.000000000               0.000113147               0.005112036               0.000623569              -0.000596573               0.001902853               0.001306279               0.000000000               0.000000000               0.000000000               0.000000000               0.000081439               0.005028251               0.000461964              -0.000597990               0.001875397               0.001277407               0.000000000               0.000000000               0.000000000               0.000000000               0.000086483               0.004920948               0.000357018              -0.000582686               0.001834528               0.001251842               0.000000000               0.000000000               0.000000000               0.000000000               0.000098321               0.004817287               0.000281877              -0.000565289               0.001794176               0.001228887               0.000000000               0.000000000               0.000000000               0.000000000               0.000102521               0.004721497               0.000225316              -0.000551741               0.001757730               0.001205990               0.000000000               0.000000000               0.000000000               0.000000000               0.000090314               0.004635637               0.000179219              -0.000545586               0.001727059               0.001181473               0.000000000               0.000000000               0.000000000               0.000000000               0.000066173               0.004558924               0.000141434              -0.000545049               0.001701309               0.001156260               0.000000000               0.000000000               0.000000000               0.000000000               0.000041137               0.004492949               0.000107162              -0.000546191               0.001679698               0.001133507               0.000000000               0.000000000               0.000000000               0.000000000               0.000016730               0.004430329               0.000072736              -0.000547516               0.001659267               0.001111751               0.000000000               0.000000000               0.000000000               0.000000000              -0.000002337               0.004361599               0.000043895              -0.000546075               0.001635877               0.001089802               0.000000000               0.000000000               0.000000000               0.000000000              -0.000010343               0.004287588               0.000023702              -0.000539826               0.001609124               0.001069298               0.000000000               0.000000000               0.000000000               0.000000000              -0.000011851               0.004210540               0.000010587              -0.000530760               0.001580419               0.001049659               0.000000000               0.000000000               0.000000000               0.000000000              -0.000009873               0.004136597               0.000002522              -0.000520776               0.001552444               0.001031668               0.000000000               0.000000000               0.000000000               0.000000000              -0.000013504               0.004088913              -0.000005249              -0.000516177               0.001535016               0.001018839               0.000000000               0.000000000               0.000000000               0.000000000               0.001356234               0.003732780               0.001954226               0.000041987               0.001230251               0.001272238               0.000000000               0.000000000               0.000000000               0.000000000               0.000674197               0.004165181               0.001551346              -0.000267825               0.001477654               0.001209829               0.000000000               0.000000000               0.000000000               0.000000000               0.000154133               0.004762451               0.001065973              -0.000537506               0.001766636               0.001229130               0.000000000               0.000000000               0.000000000               0.000000000               0.000038688               0.004873870               0.000778943              -0.000594725               0.001822849               0.001228124               0.000000000               0.000000000               0.000000000               0.000000000               0.000032268               0.004847231               0.000605963              -0.000593802               0.001813661               0.001219859               0.000000000               0.000000000               0.000000000               0.000000000               0.000056674               0.004778450               0.000487803              -0.000576052               0.001784818               0.001208766               0.000000000               0.000000000               0.000000000               0.000000000               0.000079087               0.004697693               0.000393910              -0.000557553               0.001751733               0.001194180               0.000000000               0.000000000               0.000000000               0.000000000               0.000087227               0.004616073               0.000317146              -0.000544297               0.001720108               0.001175810               0.000000000               0.000000000               0.000000000               0.000000000               0.000077455               0.004538400               0.000256119              -0.000538253               0.001692202               0.001153949               0.000000000               0.000000000               0.000000000               0.000000000               0.000055200               0.004464802               0.000206707              -0.000537399               0.001667386               0.001129986               0.000000000               0.000000000               0.000000000               0.000000000               0.000027398               0.004397670               0.000162787              -0.000539433               0.001645686               0.001106253               0.000000000               0.000000000               0.000000000               0.000000000              -0.000001391               0.004325818               0.000121604              -0.000541248               0.001622341               0.001081093               0.000000000               0.000000000               0.000000000               0.000000000              -0.000022806               0.004242153               0.000084672              -0.000538820               0.001593643               0.001054823               0.000000000               0.000000000               0.000000000               0.000000000              -0.000036471               0.004148488               0.000052103              -0.000532236               0.001560228               0.001027991               0.000000000               0.000000000               0.000000000               0.000000000              -0.000048513               0.004052080               0.000025506              -0.000524701               0.001525580               0.001000879               0.000000000               0.000000000               0.000000000               0.000000000              -0.000058600               0.003963010               0.000007264              -0.000517350               0.001493440               0.000976090               0.000000000               0.000000000               0.000000000               0.000000000              -0.000063980               0.003912920              -0.000002074              -0.000513106               0.001475329               0.000962223               0.000000000               0.000000000               0.000000000               0.000000000               0.001164914               0.002856653               0.001648032               0.000079758               0.000925621               0.001005380               0.000000000               0.000000000               0.000000000               0.000000000               0.000619780               0.003464947               0.001491605              -0.000200702               0.001221871               0.001021169               0.000000000               0.000000000               0.000000000               0.000000000               0.000144949               0.004237930               0.001219910              -0.000475385               0.001571091               0.001095706               0.000000000               0.000000000               0.000000000               0.000000000               0.000040785               0.004495255               0.000962645              -0.000546612               0.001680607               0.001133995               0.000000000               0.000000000               0.000000000               0.000000000               0.000035040               0.004568315               0.000775477              -0.000557898               0.001708722               0.001150824               0.000000000               0.000000000               0.000000000               0.000000000               0.000060017               0.004565676               0.000637553              -0.000548202               0.001704611               0.001156409               0.000000000               0.000000000               0.000000000               0.000000000               0.000080842               0.004527807               0.000525261              -0.000535659               0.001687807               0.001152148               0.000000000               0.000000000               0.000000000               0.000000000               0.000093938               0.004477188               0.000432277              -0.000524421               0.001667188               0.001142767               0.000000000               0.000000000               0.000000000               0.000000000               0.000090389               0.004418743               0.000357887              -0.000518446               0.001645715               0.001127269               0.000000000               0.000000000               0.000000000               0.000000000               0.000072280               0.004360098               0.000295451              -0.000517906               0.001625987               0.001108081               0.000000000               0.000000000               0.000000000               0.000000000               0.000040886               0.004300716               0.000237351              -0.000522256               0.001607643               0.001085387               0.000000000               0.000000000               0.000000000               0.000000000               0.000001145               0.004236227               0.000186019              -0.000529098               0.001588427               0.001059330               0.000000000               0.000000000               0.000000000               0.000000000              -0.000037757               0.004163289               0.000139340              -0.000534569               0.001565939               0.001031370               0.000000000               0.000000000               0.000000000               0.000000000              -0.000071851               0.004078069               0.000093142              -0.000536701               0.001538243               0.001001542               0.000000000               0.000000000               0.000000000               0.000000000              -0.000104570               0.003986530               0.000050893              -0.000537529               0.001508006               0.000970477               0.000000000               0.000000000               0.000000000               0.000000000              -0.000138766               0.003896500               0.000019114              -0.000539098               0.001478520               0.000939421               0.000000000               0.000000000               0.000000000               0.000000000              -0.000159350               0.003845375               0.000003948              -0.000540427               0.001461921               0.000921494               0.000000000               0.000000000               0.000000000               0.000000000               0.000866317               0.002045804               0.001315621               0.000069141               0.000658880               0.000728021               0.000000000               0.000000000               0.000000000               0.000000000               0.000556877               0.002763917               0.001387260              -0.000136662               0.000966850               0.000830188               0.000000000               0.000000000               0.000000000               0.000000000               0.000197815               0.003642374               0.001332402              -0.000381116               0.001341151               0.000960035               0.000000000               0.000000000               0.000000000               0.000000000               0.000103222               0.004040145               0.001134937              -0.000466309               0.001502138               0.001035828               0.000000000               0.000000000               0.000000000               0.000000000               0.000080812               0.004227914               0.000946658              -0.000498184               0.001575352               0.001077168               0.000000000               0.000000000               0.000000000               0.000000000               0.000094042               0.004304773               0.000794083              -0.000502830               0.001602520               0.001099690               0.000000000               0.000000000               0.000000000               0.000000000               0.000112488               0.004322046               0.000670259              -0.000498072               0.001606691               0.001108620               0.000000000               0.000000000               0.000000000               0.000000000               0.000128109               0.004313266               0.000568007              -0.000491116               0.001601446               0.001110330               0.000000000               0.000000000               0.000000000               0.000000000               0.000130938               0.004293597               0.000481128              -0.000487597               0.001593717               0.001106120               0.000000000               0.000000000               0.000000000               0.000000000               0.000113246               0.004261839               0.000404343              -0.000490261               0.001584019               0.001093758               0.000000000               0.000000000               0.000000000               0.000000000               0.000079962               0.004220800               0.000334229              -0.000497613               0.001572790               0.001075177               0.000000000               0.000000000               0.000000000               0.000000000               0.000035784               0.004172928               0.000272761              -0.000508196               0.001560361               0.001052165               0.000000000               0.000000000               0.000000000               0.000000000              -0.000015412               0.004118690               0.000217185              -0.000520614               0.001546421               0.001025807               0.000000000               0.000000000               0.000000000               0.000000000              -0.000065981               0.004054017               0.000161316              -0.000531494               0.001528490               0.000996996               0.000000000               0.000000000               0.000000000               0.000000000              -0.000117428               0.003978289               0.000102436              -0.000541320               0.001506523               0.000965203               0.000000000               0.000000000               0.000000000               0.000000000              -0.000179896               0.003894437               0.000046645              -0.000554264               0.001482888               0.000928623               0.000000000               0.000000000               0.000000000               0.000000000              -0.000227939               0.003839123               0.000015733              -0.000565366               0.001468150               0.000902784               0.000000000               0.000000000               0.000000000               0.000000000               0.000484931               0.001351900               0.000971853               0.000012860               0.000446341               0.000459202               0.000000000               0.000000000               0.000000000               0.000000000               0.000448832               0.002097961               0.001222084              -0.000093934               0.000730624               0.000636690               0.000000000               0.000000000               0.000000000               0.000000000               0.000271729               0.002991697               0.001345573              -0.000272064               0.001087910               0.000815846               0.000000000               0.000000000               0.000000000               0.000000000               0.000212953               0.003490649               0.001222767              -0.000356474               0.001282362               0.000925888               0.000000000               0.000000000               0.000000000               0.000000000               0.000181647               0.003778355               0.001061941              -0.000404176               0.001394164               0.000989988               0.000000000               0.000000000               0.000000000               0.000000000               0.000176942               0.003942067               0.000913657              -0.000426405               0.001456144               0.001029739               0.000000000               0.000000000               0.000000000               0.000000000               0.000188542               0.004031589               0.000786093              -0.000433245               0.001488265               0.001055020               0.000000000               0.000000000               0.000000000               0.000000000               0.000197387               0.004081000               0.000676897              -0.000436104               0.001505688               0.001069584               0.000000000               0.000000000               0.000000000               0.000000000               0.000197585               0.004108306               0.000581515              -0.000439443               0.001515903               0.001076460               0.000000000               0.000000000               0.000000000               0.000000000               0.000181242               0.004112344               0.000496276              -0.000446076               0.001519460               0.001073383               0.000000000               0.000000000               0.000000000               0.000000000               0.000149930               0.004099419               0.000420607              -0.000456203               0.001518527               0.001062324               0.000000000               0.000000000               0.000000000               0.000000000               0.000107106               0.004075164               0.000353336              -0.000469230               0.001514784               0.001045555               0.000000000               0.000000000               0.000000000               0.000000000               0.000056538               0.004043926               0.000293287              -0.000484288               0.001509391               0.001025103               0.000000000               0.000000000               0.000000000               0.000000000              -0.000001510               0.004001328               0.000232109              -0.000500731               0.001500673               0.000999942               0.000000000               0.000000000               0.000000000               0.000000000              -0.000066115               0.003945798               0.000160545              -0.000518017               0.001487925               0.000969908               0.000000000               0.000000000               0.000000000               0.000000000              -0.000144278               0.003878879               0.000079863              -0.000538963               0.001472601               0.000933638               0.000000000               0.000000000               0.000000000               0.000000000              -0.000207373               0.003830787               0.000031813              -0.000556612               0.001462453               0.000905842               0.000000000               0.000000000               0.000000000               0.000000000               0.000054283               0.000810592               0.000652029              -0.000080968               0.000297184               0.000216215               0.000000000               0.000000000               0.000000000               0.000000000               0.000307265               0.001500492               0.001007478              -0.000072338               0.000524271               0.000451933               0.000000000               0.000000000               0.000000000               0.000000000               0.000345104               0.002332804               0.001250866              -0.000162187               0.000831655               0.000669468               0.000000000               0.000000000               0.000000000               0.000000000               0.000351552               0.002888819               0.001198083              -0.000229271               0.001039353               0.000810082               0.000000000               0.000000000               0.000000000               0.000000000               0.000333163               0.003256725               0.001080353              -0.000282155               0.001179615               0.000897461               0.000000000               0.000000000               0.000000000               0.000000000               0.000312530               0.003500960               0.000957436              -0.000320421               0.001273782               0.000953361               0.000000000               0.000000000               0.000000000               0.000000000               0.000305721               0.003665015               0.000838797              -0.000343481               0.001336153               0.000992672               0.000000000               0.000000000               0.000000000               0.000000000               0.000302333               0.003779886               0.000729881              -0.000359110               0.001379653               0.001020542               0.000000000               0.000000000               0.000000000               0.000000000               0.000295599               0.003859180               0.000632839              -0.000371547               0.001410230               0.001038682               0.000000000               0.000000000               0.000000000               0.000000000               0.000279854               0.003906040               0.000546273              -0.000383309               0.001429770               0.001046461               0.000000000               0.000000000               0.000000000               0.000000000               0.000253854               0.003930137               0.000470198              -0.000396071               0.001442056               0.001045985               0.000000000               0.000000000               0.000000000               0.000000000               0.000218628               0.003935796               0.000405296              -0.000409988               0.001448582               0.001038594               0.000000000               0.000000000               0.000000000               0.000000000               0.000176782               0.003931788               0.000345363              -0.000425179               0.001452309               0.001027130               0.000000000               0.000000000               0.000000000               0.000000000               0.000122932               0.003919406               0.000280514              -0.000443825               0.001454398               0.001010572               0.000000000               0.000000000               0.000000000               0.000000000               0.000055835               0.003891629               0.000202284              -0.000465514               0.001452368               0.000986854               0.000000000               0.000000000               0.000000000               0.000000000              -0.000023251               0.003852309               0.000106436              -0.000490256               0.001447509               0.000957253               0.000000000               0.000000000               0.000000000               0.000000000              -0.000084002               0.003820721               0.000048699              -0.000509089               0.001443257               0.000934168               0.000000000               0.000000000               0.000000000               0.000000000              -0.000376298               0.000417189               0.000390519              -0.000193260               0.000203481               0.000010221               0.000000000               0.000000000               0.000000000               0.000000000               0.000150066               0.001005724               0.000761376              -0.000069441               0.000358385               0.000288943               0.000000000               0.000000000               0.000000000               0.000000000               0.000412492               0.001731406               0.001048458              -0.000061742               0.000597710               0.000535968               0.000000000               0.000000000               0.000000000               0.000000000               0.000497037               0.002300761               0.001050739              -0.000101207               0.000800648               0.000699441               0.000000000               0.000000000               0.000000000               0.000000000               0.000506706               0.002721509               0.000976338              -0.000150175               0.000957219               0.000807044               0.000000000               0.000000000               0.000000000               0.000000000               0.000485284               0.003031023               0.000887180              -0.000196897               0.001075963               0.000879066               0.000000000               0.000000000               0.000000000               0.000000000               0.000460189               0.003260898               0.000791075              -0.000235041               0.001165302               0.000930261               0.000000000               0.000000000               0.000000000               0.000000000               0.000439987               0.003435977               0.000695823              -0.000264502               0.001233482               0.000968980               0.000000000               0.000000000               0.000000000               0.000000000               0.000420784               0.003568888               0.000607855              -0.000288316               0.001285723               0.000997406               0.000000000               0.000000000               0.000000000               0.000000000               0.000400229               0.003666060               0.000529408              -0.000308171               0.001324731               0.001016560               0.000000000               0.000000000               0.000000000               0.000000000               0.000377710               0.003731684               0.000461866              -0.000324819               0.001352155               0.001027336               0.000000000               0.000000000               0.000000000               0.000000000               0.000351723               0.003774168               0.000405262              -0.000339874               0.001371335               0.001031461               0.000000000               0.000000000               0.000000000               0.000000000               0.000321075               0.003804261               0.000350250              -0.000355129               0.001386451               0.001031322               0.000000000               0.000000000               0.000000000               0.000000000               0.000283115               0.003820952               0.000287192              -0.000371450               0.001397455               0.001026004               0.000000000               0.000000000               0.000000000               0.000000000               0.000236231               0.003825319               0.000210184              -0.000389577               0.001404953               0.001015375               0.000000000               0.000000000               0.000000000               0.000000000               0.000183729               0.003822287               0.000114017              -0.000408887               0.001410379               0.001001492               0.000000000               0.000000000               0.000000000               0.000000000               0.000144342               0.003811543               0.000057390              -0.000422314               0.001411273               0.000988959               0.000000000               0.000000000               0.000000000               0.000000000              -0.000746110               0.000166332               0.000200873              -0.000300583               0.000155637              -0.000144946               0.000000000               0.000000000               0.000000000               0.000000000              -0.000002145               0.000643556               0.000504033              -0.000081250               0.000241599               0.000160350               0.000000000               0.000000000               0.000000000               0.000000000               0.000463262               0.001250873               0.000754445               0.000017363               0.000411165               0.000428528               0.000000000               0.000000000               0.000000000               0.000000000               0.000628682               0.001803292               0.000783674               0.000010343               0.000597644               0.000607986               0.000000000               0.000000000               0.000000000               0.000000000               0.000671672               0.002250427               0.000746497              -0.000029427               0.000759944               0.000730517               0.000000000               0.000000000               0.000000000               0.000000000               0.000657520               0.002603728               0.000690856              -0.000078897               0.000894200               0.000815303               0.000000000               0.000000000               0.000000000               0.000000000               0.000619551               0.002882395               0.000624244              -0.000127968               0.001003445               0.000875477               0.000000000               0.000000000               0.000000000               0.000000000               0.000580181               0.003108664               0.000553968              -0.000171015               0.001093216               0.000922201               0.000000000               0.000000000               0.000000000               0.000000000               0.000545333               0.003292670               0.000486643              -0.000207084               0.001166573               0.000959490               0.000000000               0.000000000               0.000000000               0.000000000               0.000516131               0.003435313               0.000427152              -0.000235865               0.001223714               0.000987850               0.000000000               0.000000000               0.000000000               0.000000000               0.000491322               0.003542022               0.000377416              -0.000258507               0.001266831               0.001008324               0.000000000               0.000000000               0.000000000               0.000000000               0.000470672               0.003623156               0.000335311              -0.000276392               0.001299837               0.001023445               0.000000000               0.000000000               0.000000000               0.000000000               0.000453508               0.003687646               0.000293613              -0.000290890               0.001326166               0.001035277               0.000000000               0.000000000               0.000000000               0.000000000               0.000440410               0.003735256               0.000244587              -0.000301753               0.001345657               0.001043905               0.000000000               0.000000000               0.000000000               0.000000000               0.000432447               0.003768903               0.000182854              -0.000308944               0.001359270               0.001050326               0.000000000               0.000000000               0.000000000               0.000000000               0.000431826               0.003794709               0.000101488              -0.000312403               0.001369025               0.001056622               0.000000000               0.000000000               0.000000000               0.000000000               0.000433411               0.003804038               0.000053774              -0.000312975               0.001372325               0.001059350               0.000000000               0.000000000               0.000000000               0.000000000              -0.000996076               0.000036646               0.000078077              -0.000378109               0.000138251              -0.000239858               0.000000000               0.000000000               0.000000000               0.000000000              -0.000114623               0.000427757               0.000248003              -0.000096453               0.000174735               0.000078282               0.000000000               0.000000000               0.000000000               0.000000000               0.000491661               0.000942239               0.000394095               0.000066592               0.000291879               0.000358471               0.000000000               0.000000000               0.000000000               0.000000000               0.000725002               0.001470124               0.000419942               0.000088109               0.000460666               0.000548776               0.000000000               0.000000000               0.000000000               0.000000000               0.000796887               0.001924021               0.000407031               0.000058329               0.000621891               0.000680220               0.000000000               0.000000000               0.000000000               0.000000000               0.000784559               0.002299291               0.000380722               0.000006798               0.000764157               0.000770955               0.000000000               0.000000000               0.000000000               0.000000000               0.000736016               0.002611977               0.000346147              -0.000050491               0.000887481               0.000836990               0.000000000               0.000000000               0.000000000               0.000000000               0.000680920               0.002873235               0.000308342              -0.000103809               0.000992338               0.000888529               0.000000000               0.000000000               0.000000000               0.000000000               0.000633326               0.003089625               0.000272620              -0.000148706               0.001079433               0.000930727               0.000000000               0.000000000               0.000000000               0.000000000               0.000597907               0.003268029               0.000241407              -0.000184288               0.001150761               0.000966473               0.000000000               0.000000000               0.000000000               0.000000000               0.000571867               0.003409267               0.000215366              -0.000211708               0.001206980               0.000995272               0.000000000               0.000000000               0.000000000               0.000000000               0.000553650               0.003517663               0.000194032              -0.000232089               0.001249906               0.001017817               0.000000000               0.000000000               0.000000000               0.000000000               0.000546467               0.003606481               0.000172437              -0.000245884               0.001284110               0.001038225               0.000000000               0.000000000               0.000000000               0.000000000               0.000554103               0.003680501               0.000146496              -0.000252273               0.001310913               0.001058639               0.000000000               0.000000000               0.000000000               0.000000000               0.000580931               0.003737328               0.000112772              -0.000249316               0.001328869               0.001079553               0.000000000               0.000000000               0.000000000               0.000000000               0.000633434               0.003779074               0.000064522              -0.000234846               0.001337961               0.001103115               0.000000000               0.000000000               0.000000000               0.000000000               0.000684569               0.003802269               0.000036033              -0.000218570               0.001340267               0.001121697               0.000000000               0.000000000               0.000000000               0.000000000              -0.001084376              -0.000003200               0.000000000              -0.000406241               0.000134346              -0.000271895               0.000000000               0.000000000               0.000000000               0.000000000              -0.000155881               0.000357446               0.000000000              -0.000103136               0.000153526               0.000050390               0.000000000               0.000000000               0.000000000               0.000000000               0.000500526               0.000837959              -0.000000000               0.000082951               0.000251667               0.000334618               0.000000000               0.000000000               0.000000000               0.000000000               0.000761599               0.001352159              -0.000000000               0.000116578               0.000411856               0.000528434               0.000000000               0.000000000               0.000000000               0.000000000               0.000844328               0.001805526              -0.000000000               0.000090931               0.000571526               0.000662457               0.000000000               0.000000000               0.000000000               0.000000000               0.000831021               0.002188593              -0.000000000               0.000038058               0.000716838               0.000754896               0.000000000               0.000000000               0.000000000               0.000000000               0.000776993               0.002511389              -0.000000000              -0.000022551               0.000844638               0.000822087               0.000000000               0.000000000               0.000000000               0.000000000               0.000716962               0.002786557              -0.000000000              -0.000079459               0.000955329               0.000875870               0.000000000               0.000000000               0.000000000               0.000000000               0.000667541               0.003019068               0.000000000              -0.000127055               0.001048698               0.000921643               0.000000000               0.000000000               0.000000000               0.000000000               0.000628970               0.003209257               0.000000000              -0.000165293               0.001124839               0.000959546               0.000000000               0.000000000               0.000000000               0.000000000               0.000602345               0.003360462               0.000000000              -0.000194178               0.001184869               0.000990691               0.000000000               0.000000000               0.000000000               0.000000000               0.000585071               0.003479666              -0.000000000              -0.000215556               0.001231729               0.001016173               0.000000000               0.000000000               0.000000000               0.000000000               0.000580671               0.003578940              -0.000000000              -0.000229616               0.001269507               0.001039891               0.000000000               0.000000000               0.000000000               0.000000000               0.000595926               0.003664252              -0.000000000              -0.000234559               0.001299591               0.001065033               0.000000000               0.000000000               0.000000000               0.000000000               0.000636262               0.003731082               0.000000000              -0.000227787               0.001319611               0.001091824               0.000000000               0.000000000               0.000000000               0.000000000               0.000711629               0.003776906               0.000000000              -0.000205252               0.001327373               0.001122121               0.000000000               0.000000000               0.000000000               0.000000000               0.000786599               0.003804022               0.000000000              -0.000180528               0.001328170               0.001147643               0.000000000               0.000000000               0.000000000               0.000000000               0.000931472               0.010489049               0.000000000              -0.000961827               0.003816924               0.002855097               0.000000000               0.000000000               0.000000000               0.000000000               0.001005456               0.008562170              -0.000000000              -0.000693224               0.003085103               0.002391879               0.000000000               0.000000000               0.000000000               0.000000000               0.001393678               0.007017687              -0.000000000              -0.000354581               0.002457399               0.002102818               0.000000000               0.000000000               0.000000000               0.000000000               0.001440835               0.006162972               0.000000000              -0.000230058               0.002130990               0.001900932               0.000000000               0.000000000               0.000000000               0.000000000               0.001361855               0.005662360               0.000000000              -0.000197099               0.001953134               0.001756035               0.000000000               0.000000000               0.000000000               0.000000000               0.001237788               0.005354457              -0.000000000              -0.000205136               0.001853180               0.001648044               0.000000000               0.000000000               0.000000000               0.000000000               0.001100789               0.005157176              -0.000000000              -0.000231851               0.001796325               0.001564474               0.000000000               0.000000000               0.000000000               0.000000000               0.000963276               0.005021774               0.000000000              -0.000266492               0.001762739               0.001496246               0.000000000               0.000000000               0.000000000               0.000000000               0.000831768               0.004926158               0.000000000              -0.000303856               0.001743322               0.001439465               0.000000000               0.000000000               0.000000000               0.000000000               0.000708740               0.004855916              -0.000000000              -0.000341211               0.001732359               0.001391148               0.000000000               0.000000000               0.000000000               0.000000000               0.000590831               0.004801070               0.000000000              -0.000378571               0.001726531               0.001347960               0.000000000               0.000000000               0.000000000               0.000000000               0.000475525               0.004752731              -0.000000000              -0.000415768               0.001722817               0.001307049               0.000000000               0.000000000               0.000000000               0.000000000               0.000371439               0.004707843              -0.000000000              -0.000449190               0.001718995               0.001269806               0.000000000               0.000000000               0.000000000               0.000000000               0.000275617               0.004661436               0.000000000              -0.000479322               0.001713570               0.001234248               0.000000000               0.000000000               0.000000000               0.000000000               0.000178713               0.004605808              -0.000000000              -0.000508707               0.001704823               0.001196116               0.000000000               0.000000000               0.000000000               0.000000000               0.000084110               0.004535313              -0.000000000              -0.000535372               0.001690213               0.001154841               0.000000000               0.000000000               0.000000000               0.000000000               0.000034779               0.004482167              -0.000000000              -0.000547227               0.001676450               0.001129223               0.000000000               0.000000000               0.000000000               0.000000000               0.000983159               0.010307443              -0.000772318              -0.000919744               0.003742361               0.002822618               0.000000000               0.000000000               0.000000000               0.000000000               0.001016103               0.008440796              -0.000466745              -0.000674059               0.003038257               0.002364198               0.000000000               0.000000000               0.000000000               0.000000000               0.001359006               0.006962089              -0.000155872              -0.000360633               0.002440884               0.002080251               0.000000000               0.000000000               0.000000000               0.000000000               0.001386921               0.006145628              -0.000013224              -0.000248108               0.002131225               0.001883117               0.000000000               0.000000000               0.000000000               0.000000000               0.001300515               0.005662290               0.000056381              -0.000220093               0.001960775               0.001740683               0.000000000               0.000000000               0.000000000               0.000000000               0.001174708               0.005363474               0.000088358              -0.000229918               0.001864446               0.001634528               0.000000000               0.000000000               0.000000000               0.000000000               0.001041561               0.005171212               0.000099421              -0.000255815               0.001808992               0.001553177               0.000000000               0.000000000               0.000000000               0.000000000               0.000911623               0.005039974               0.000100658              -0.000288137               0.001776020               0.001487883               0.000000000               0.000000000               0.000000000               0.000000000               0.000786964               0.004944767               0.000099300              -0.000322984               0.001755900               0.001432917               0.000000000               0.000000000               0.000000000               0.000000000               0.000670903               0.004874977               0.000097212              -0.000357783               0.001744237               0.001386454               0.000000000               0.000000000               0.000000000               0.000000000               0.000561038               0.004821669               0.000094053              -0.000392319               0.001737980               0.001345661               0.000000000               0.000000000               0.000000000               0.000000000               0.000454666               0.004777080               0.000089201              -0.000426634               0.001734555               0.001307921               0.000000000               0.000000000               0.000000000               0.000000000               0.000355467               0.004738351               0.000082722              -0.000458992               0.001732432               0.001273440               0.000000000               0.000000000               0.000000000               0.000000000               0.000261566               0.004700597               0.000072756              -0.000489486               0.001730012               0.001240526               0.000000000               0.000000000               0.000000000               0.000000000               0.000168701               0.004657294               0.000057482              -0.000518898               0.001725382               0.001206484               0.000000000               0.000000000               0.000000000               0.000000000               0.000079640               0.004605334               0.000033985              -0.000545800               0.001717029               0.001171229               0.000000000               0.000000000               0.000000000               0.000000000               0.000034985               0.004568274               0.000019366              -0.000557914               0.001708714               0.001150800               0.000000000               0.000000000               0.000000000               0.000000000               0.001119186               0.009781389              -0.001450834              -0.000802978               0.003528089               0.002725112               0.000000000               0.000000000               0.000000000               0.000000000               0.001035787               0.008089254              -0.000877005              -0.000622736               0.002903970               0.002281234               0.000000000               0.000000000               0.000000000               0.000000000               0.001253633               0.006796209              -0.000296022              -0.000379413               0.002391851               0.002012438               0.000000000               0.000000000               0.000000000               0.000000000               0.001230712               0.006081795              -0.000037569              -0.000298707               0.002126814               0.001828107               0.000000000               0.000000000               0.000000000               0.000000000               0.001128555               0.005651560               0.000084904              -0.000283236               0.001978247               0.001695011               0.000000000               0.000000000               0.000000000               0.000000000               0.001004398               0.005381412               0.000140700              -0.000296026               0.001892462               0.001596435               0.000000000               0.000000000               0.000000000               0.000000000               0.000881879               0.005202692               0.000160097              -0.000319631               0.001840757               0.001521126               0.000000000               0.000000000               0.000000000               0.000000000               0.000771234               0.005077222               0.000161108              -0.000345439               0.001807537               0.001462098               0.000000000               0.000000000               0.000000000               0.000000000               0.000668697               0.004982982               0.000157740              -0.000372111               0.001785014               0.001412904               0.000000000               0.000000000               0.000000000               0.000000000               0.000573663               0.004914398               0.000153664              -0.000399175               0.001771175               0.001372000               0.000000000               0.000000000               0.000000000               0.000000000               0.000481489               0.004861059               0.000147320              -0.000427073               0.001762694               0.001335621               0.000000000               0.000000000               0.000000000               0.000000000               0.000391335               0.004820114               0.000138844              -0.000455763               0.001758609               0.001302847               0.000000000               0.000000000               0.000000000               0.000000000               0.000306667               0.004790598               0.000127486              -0.000483824               0.001758125               0.001274301               0.000000000               0.000000000               0.000000000               0.000000000               0.000224607               0.004767695               0.000110026              -0.000511733               0.001759794               0.001248061               0.000000000               0.000000000               0.000000000               0.000000000               0.000143980               0.004748367               0.000085013              -0.000539552               0.001762624               0.001223072               0.000000000               0.000000000               0.000000000               0.000000000               0.000067387               0.004730941               0.000048786              -0.000566096               0.001765663               0.001199567               0.000000000               0.000000000               0.000000000               0.000000000               0.000032640               0.004724710               0.000025861              -0.000578347               0.001767670               0.001189323               0.000000000               0.000000000               0.000000000               0.000000000               0.001299756               0.008970388              -0.001972687              -0.000633890               0.003201396               0.002567506               0.000000000               0.000000000               0.000000000               0.000000000               0.001047424               0.007547239              -0.001199386              -0.000550620               0.002699261               0.002148641               0.000000000               0.000000000               0.000000000               0.000000000               0.001084692               0.006533666              -0.000423465              -0.000409948               0.002314516               0.001904568               0.000000000               0.000000000               0.000000000               0.000000000               0.000997037               0.005962538              -0.000093616              -0.000371428               0.002111302               0.001739874               0.000000000               0.000000000               0.000000000               0.000000000               0.000882131               0.005611259               0.000056881              -0.000370607               0.001993937               0.001623329               0.000000000               0.000000000               0.000000000               0.000000000               0.000770076               0.005380105               0.000124849              -0.000383734               0.001921262               0.001537528               0.000000000               0.000000000               0.000000000               0.000000000               0.000670227               0.005216154               0.000148541              -0.000400683               0.001872262               0.001471579               0.000000000               0.000000000               0.000000000               0.000000000               0.000584741               0.005092873               0.000150134              -0.000417330               0.001836717               0.001419387               0.000000000               0.000000000               0.000000000               0.000000000               0.000507356               0.004999469               0.000147583              -0.000434674               0.001811364               0.001376690               0.000000000               0.000000000               0.000000000               0.000000000               0.000437033               0.004930362               0.000142921              -0.000452407               0.001794240               0.001341833               0.000000000               0.000000000               0.000000000               0.000000000               0.000369308               0.004876320               0.000134793              -0.000471048               0.001782440               0.001311392               0.000000000               0.000000000               0.000000000               0.000000000               0.000300050               0.004835379               0.000126996              -0.000491902               0.001775744               0.001283842               0.000000000               0.000000000               0.000000000               0.000000000               0.000233140               0.004807857               0.000115847              -0.000513553               0.001773787               0.001260234               0.000000000               0.000000000               0.000000000               0.000000000               0.000169265               0.004790910               0.000098985              -0.000535388               0.001775417               0.001240029               0.000000000               0.000000000               0.000000000               0.000000000               0.000107682               0.004782813               0.000074566              -0.000557470               0.001780078               0.001222609               0.000000000               0.000000000               0.000000000               0.000000000               0.000050220               0.004780981               0.000040610              -0.000578789               0.001786574               0.001207785               0.000000000               0.000000000               0.000000000               0.000000000               0.000026357               0.004788159               0.000020107              -0.000588634               0.001792249               0.001203614               0.000000000               0.000000000               0.000000000               0.000000000               0.001467845               0.007962546              -0.002303332              -0.000444877               0.002802447               0.002357570               0.000000000               0.000000000               0.000000000               0.000000000               0.001031880               0.006879737              -0.001421311              -0.000473012               0.002450893               0.001977881               0.000000000               0.000000000               0.000000000               0.000000000               0.000870761               0.006207035              -0.000545883              -0.000449343               0.002218772               0.001769429               0.000000000               0.000000000               0.000000000               0.000000000               0.000727879               0.005799455              -0.000190178              -0.000451976               0.002083791               0.001631815               0.000000000               0.000000000               0.000000000               0.000000000               0.000614326               0.005528052              -0.000031260              -0.000460633               0.001996210               0.001535577               0.000000000               0.000000000               0.000000000               0.000000000               0.000524637               0.005330675               0.000042022              -0.000469595               0.001933405               0.001463811               0.000000000               0.000000000               0.000000000               0.000000000               0.000455975               0.005178500               0.000070640              -0.000476321               0.001884923               0.001408602               0.000000000               0.000000000               0.000000000               0.000000000               0.000401237               0.005060804               0.000078256              -0.000482135               0.001847630               0.001365494               0.000000000               0.000000000               0.000000000               0.000000000               0.000349130               0.004971319               0.000081640              -0.000490490               0.001820586               0.001330096               0.000000000               0.000000000               0.000000000               0.000000000               0.000298440               0.004899636               0.000082307              -0.000500538               0.001800042               0.001299504               0.000000000               0.000000000               0.000000000               0.000000000               0.000250649               0.004842637               0.000079675              -0.000511335               0.001784641               0.001273306               0.000000000               0.000000000               0.000000000               0.000000000               0.000201292               0.004798180               0.000079313              -0.000524287               0.001774140               0.001249853               0.000000000               0.000000000               0.000000000               0.000000000               0.000151158               0.004766087               0.000077223              -0.000539075               0.001768372               0.001229296               0.000000000               0.000000000               0.000000000               0.000000000               0.000106056               0.004745630               0.000068981              -0.000553431               0.001766338               0.001212907               0.000000000               0.000000000               0.000000000               0.000000000               0.000065510               0.004731560               0.000052417              -0.000566878               0.001766130               0.001199253               0.000000000               0.000000000               0.000000000               0.000000000               0.000029221               0.004723456               0.000027889              -0.000579473               0.001767627               0.001188154               0.000000000               0.000000000               0.000000000               0.000000000               0.000014093               0.004723121               0.000014089              -0.000585104               0.001769393               0.001184289               0.000000000               0.000000000               0.000000000               0.000000000               0.001567105               0.006851296              -0.002437363              -0.000268749               0.002373325               0.002104576               0.000000000               0.000000000               0.000000000               0.000000000               0.000975385               0.006158715              -0.001548682              -0.000404070               0.002187574               0.001783504               0.000000000               0.000000000               0.000000000               0.000000000               0.000642515               0.005848290              -0.000669239              -0.000490092               0.002112775               0.001622682               0.000000000               0.000000000               0.000000000               0.000000000               0.000470067               0.005597498              -0.000321348              -0.000523411               0.002040284               0.001516873               0.000000000               0.000000000               0.000000000               0.000000000               0.000374595               0.005395510              -0.000164872              -0.000533964               0.001976473               0.001442509               0.000000000               0.000000000               0.000000000               0.000000000               0.000315971               0.005227589              -0.000084968              -0.000534958               0.001920832               0.001385874               0.000000000               0.000000000               0.000000000               0.000000000               0.000278615               0.005089958              -0.000043987              -0.000531763               0.001873890               0.001342127               0.000000000               0.000000000               0.000000000               0.000000000               0.000251027               0.004981929              -0.000022759              -0.000528605               0.001836828               0.001308223               0.000000000               0.000000000               0.000000000               0.000000000               0.000219558               0.004894565              -0.000008528              -0.000529485               0.001808000               0.001278515               0.000000000               0.000000000               0.000000000               0.000000000               0.000185227               0.004818961               0.000002115              -0.000532909               0.001783941               0.001251032               0.000000000               0.000000000               0.000000000               0.000000000               0.000150661               0.004755291               0.000011477              -0.000537912               0.001764385               0.001226473               0.000000000               0.000000000               0.000000000               0.000000000               0.000116470               0.004705348               0.000023685              -0.000544491               0.001749931               0.001205440               0.000000000               0.000000000               0.000000000               0.000000000               0.000084502               0.004667244               0.000034270              -0.000551716               0.001739638               0.001187922               0.000000000               0.000000000               0.000000000               0.000000000               0.000054884               0.004635129               0.000036306              -0.000558808               0.001731297               0.001172489               0.000000000               0.000000000               0.000000000               0.000000000               0.000031036               0.004606533               0.000029073              -0.000564177               0.001723554               0.001159378               0.000000000               0.000000000               0.000000000               0.000000000               0.000013250               0.004580827               0.000014933              -0.000567633               0.001716138               0.001148505               0.000000000               0.000000000               0.000000000               0.000000000               0.000004334               0.004565299               0.000007321              -0.000569036               0.001711429               0.001142394               0.000000000               0.000000000               0.000000000               0.000000000               0.001569379               0.005724381              -0.002398022              -0.000127033               0.001950451               0.001823418               0.000000000               0.000000000               0.000000000               0.000000000               0.000882628               0.005440490              -0.001601039              -0.000349076               0.001929837               0.001580761               0.000000000               0.000000000               0.000000000               0.000000000               0.000429677               0.005480015              -0.000798308              -0.000523872               0.002001277               0.001477405               0.000000000               0.000000000               0.000000000               0.000000000               0.000259165               0.005364375              -0.000472911              -0.000573359               0.001979227               0.001405868               0.000000000               0.000000000               0.000000000               0.000000000               0.000193014               0.005224996              -0.000317638              -0.000580743               0.001935229               0.001354486               0.000000000               0.000000000               0.000000000               0.000000000               0.000169992               0.005087274              -0.000225402              -0.000572161               0.001886461               0.001314300               0.000000000               0.000000000               0.000000000               0.000000000               0.000162604               0.004967550              -0.000167426              -0.000559966               0.001842489               0.001282523               0.000000000               0.000000000               0.000000000               0.000000000               0.000153646               0.004865686              -0.000129845              -0.000550592               0.001805410               0.001254818               0.000000000               0.000000000               0.000000000               0.000000000               0.000133542               0.004775958              -0.000100668              -0.000546915               0.001774275               0.001227360               0.000000000               0.000000000               0.000000000               0.000000000               0.000108831               0.004697359              -0.000076899              -0.000546357               0.001747890               0.001201533               0.000000000               0.000000000               0.000000000               0.000000000               0.000082820               0.004630959              -0.000054344              -0.000547811               0.001726241               0.001178430               0.000000000               0.000000000               0.000000000               0.000000000               0.000056966               0.004576484              -0.000029127              -0.000550697               0.001709045               0.001158348               0.000000000               0.000000000               0.000000000               0.000000000               0.000035685               0.004527766              -0.000008933              -0.000552587               0.001693436               0.001140849               0.000000000               0.000000000               0.000000000               0.000000000               0.000020229               0.004477772               0.000001785              -0.000552134               0.001676621               0.001124486               0.000000000               0.000000000               0.000000000               0.000000000               0.000010584               0.004426069               0.000004383              -0.000549288               0.001658438               0.001109149               0.000000000               0.000000000               0.000000000               0.000000000               0.000004440               0.004373160               0.000001660              -0.000544979               0.001639365               0.001094386               0.000000000               0.000000000               0.000000000               0.000000000              -0.000003280               0.004337802               0.000003008              -0.000543454               0.001627071               0.001083617               0.000000000               0.000000000               0.000000000               0.000000000               0.001484693               0.004656051              -0.002221035              -0.000025249               0.001560417               0.001535168               0.000000000               0.000000000               0.000000000               0.000000000               0.000769195               0.004768684              -0.001593077              -0.000307638               0.001692091               0.001384453               0.000000000               0.000000000               0.000000000               0.000000000               0.000257502               0.005113693              -0.000927189              -0.000542647               0.001885430               0.001342782               0.000000000               0.000000000               0.000000000               0.000000000               0.000113147               0.005112036              -0.000623569              -0.000596573               0.001902853               0.001306279               0.000000000               0.000000000               0.000000000               0.000000000               0.000081439               0.005028251              -0.000461964              -0.000597990               0.001875397               0.001277407               0.000000000               0.000000000               0.000000000               0.000000000               0.000086483               0.004920948              -0.000357018              -0.000582686               0.001834528               0.001251842               0.000000000               0.000000000               0.000000000               0.000000000               0.000098321               0.004817287              -0.000281877              -0.000565289               0.001794176               0.001228887               0.000000000               0.000000000               0.000000000               0.000000000               0.000102521               0.004721497              -0.000225316              -0.000551741               0.001757730               0.001205990               0.000000000               0.000000000               0.000000000               0.000000000               0.000090314               0.004635637              -0.000179219              -0.000545586               0.001727059               0.001181473               0.000000000               0.000000000               0.000000000               0.000000000               0.000066173               0.004558924              -0.000141434              -0.000545049               0.001701309               0.001156260               0.000000000               0.000000000               0.000000000               0.000000000               0.000041137               0.004492949              -0.000107162              -0.000546191               0.001679698               0.001133507               0.000000000               0.000000000               0.000000000               0.000000000               0.000016730               0.004430329              -0.000072736              -0.000547516               0.001659267               0.001111751               0.000000000               0.000000000               0.000000000               0.000000000              -0.000002337               0.004361599              -0.000043895              -0.000546075               0.001635877               0.001089802               0.000000000               0.000000000               0.000000000               0.000000000              -0.000010343               0.004287588              -0.000023702              -0.000539826               0.001609124               0.001069298               0.000000000               0.000000000               0.000000000               0.000000000              -0.000011851               0.004210540              -0.000010587              -0.000530760               0.001580419               0.001049659               0.000000000               0.000000000               0.000000000               0.000000000              -0.000009873               0.004136597              -0.000002522              -0.000520776               0.001552444               0.001031668               0.000000000               0.000000000               0.000000000               0.000000000              -0.000013504               0.004088913               0.000005249              -0.000516177               0.001535016               0.001018839               0.000000000               0.000000000               0.000000000               0.000000000               0.001356234               0.003732780              -0.001954226               0.000041987               0.001230251               0.001272238               0.000000000               0.000000000               0.000000000               0.000000000               0.000674197               0.004165181              -0.001551346              -0.000267825               0.001477654               0.001209829               0.000000000               0.000000000               0.000000000               0.000000000               0.000154133               0.004762451              -0.001065973              -0.000537506               0.001766636               0.001229130               0.000000000               0.000000000               0.000000000               0.000000000               0.000038688               0.004873870              -0.000778943              -0.000594725               0.001822849               0.001228124               0.000000000               0.000000000               0.000000000               0.000000000               0.000032268               0.004847231              -0.000605963              -0.000593802               0.001813661               0.001219859               0.000000000               0.000000000               0.000000000               0.000000000               0.000056674               0.004778450              -0.000487803              -0.000576052               0.001784818               0.001208766               0.000000000               0.000000000               0.000000000               0.000000000               0.000079087               0.004697693              -0.000393910              -0.000557553               0.001751733               0.001194180               0.000000000               0.000000000               0.000000000               0.000000000               0.000087227               0.004616073              -0.000317146              -0.000544297               0.001720108               0.001175810               0.000000000               0.000000000               0.000000000               0.000000000               0.000077455               0.004538400              -0.000256119              -0.000538253               0.001692202               0.001153949               0.000000000               0.000000000               0.000000000               0.000000000               0.000055200               0.004464802              -0.000206707              -0.000537399               0.001667386               0.001129986               0.000000000               0.000000000               0.000000000               0.000000000               0.000027398               0.004397670              -0.000162787              -0.000539433               0.001645686               0.001106253               0.000000000               0.000000000               0.000000000               0.000000000              -0.000001391               0.004325818              -0.000121604              -0.000541248               0.001622341               0.001081093               0.000000000               0.000000000               0.000000000               0.000000000              -0.000022806               0.004242153              -0.000084672              -0.000538820               0.001593643               0.001054823               0.000000000               0.000000000               0.000000000               0.000000000              -0.000036471               0.004148488              -0.000052103              -0.000532236               0.001560228               0.001027991               0.000000000               0.000000000               0.000000000               0.000000000              -0.000048513               0.004052080              -0.000025506              -0.000524701               0.001525580               0.001000879               0.000000000               0.000000000               0.000000000               0.000000000              -0.000058600               0.003963010              -0.000007264              -0.000517350               0.001493440               0.000976090               0.000000000               0.000000000               0.000000000               0.000000000              -0.000063980               0.003912920               0.000002074              -0.000513106               0.001475329               0.000962223               0.000000000               0.000000000               0.000000000               0.000000000               0.001164914               0.002856653              -0.001648032               0.000079758               0.000925621               0.001005380               0.000000000               0.000000000               0.000000000               0.000000000               0.000619780               0.003464947              -0.001491605              -0.000200702               0.001221871               0.001021169               0.000000000               0.000000000               0.000000000               0.000000000               0.000144949               0.004237930              -0.001219910              -0.000475385               0.001571091               0.001095706               0.000000000               0.000000000               0.000000000               0.000000000               0.000040785               0.004495255              -0.000962645              -0.000546612               0.001680607               0.001133995               0.000000000               0.000000000               0.000000000               0.000000000               0.000035040               0.004568315              -0.000775477              -0.000557898               0.001708722               0.001150824               0.000000000               0.000000000               0.000000000               0.000000000               0.000060017               0.004565676              -0.000637553              -0.000548202               0.001704611               0.001156409               0.000000000               0.000000000               0.000000000               0.000000000               0.000080842               0.004527807              -0.000525261              -0.000535659               0.001687807               0.001152148               0.000000000               0.000000000               0.000000000               0.000000000               0.000093938               0.004477188              -0.000432277              -0.000524421               0.001667188               0.001142767               0.000000000               0.000000000               0.000000000               0.000000000               0.000090389               0.004418743              -0.000357887              -0.000518446               0.001645715               0.001127269               0.000000000               0.000000000               0.000000000               0.000000000               0.000072280               0.004360098              -0.000295451              -0.000517906               0.001625987               0.001108081               0.000000000               0.000000000               0.000000000               0.000000000               0.000040886               0.004300716              -0.000237351              -0.000522256               0.001607643               0.001085387               0.000000000               0.000000000               0.000000000               0.000000000               0.000001145               0.004236227              -0.000186019              -0.000529098               0.001588427               0.001059330               0.000000000               0.000000000               0.000000000               0.000000000              -0.000037757               0.004163289              -0.000139340              -0.000534569               0.001565939               0.001031370               0.000000000               0.000000000               0.000000000               0.000000000              -0.000071851               0.004078069              -0.000093142              -0.000536701               0.001538243               0.001001542               0.000000000               0.000000000               0.000000000               0.000000000              -0.000104570               0.003986530              -0.000050893              -0.000537529               0.001508006               0.000970477               0.000000000               0.000000000               0.000000000               0.000000000              -0.000138766               0.003896500              -0.000019114              -0.000539098               0.001478520               0.000939421               0.000000000               0.000000000               0.000000000               0.000000000              -0.000159350               0.003845375              -0.000003948              -0.000540427               0.001461921               0.000921494               0.000000000               0.000000000               0.000000000               0.000000000               0.000866317               0.002045804              -0.001315621               0.000069141               0.000658880               0.000728021               0.000000000               0.000000000               0.000000000               0.000000000               0.000556877               0.002763917              -0.001387260              -0.000136662               0.000966850               0.000830188               0.000000000               0.000000000               0.000000000               0.000000000               0.000197815               0.003642374              -0.001332402              -0.000381116               0.001341151               0.000960035               0.000000000               0.000000000               0.000000000               0.000000000               0.000103222               0.004040145              -0.001134937              -0.000466309               0.001502138               0.001035828               0.000000000               0.000000000               0.000000000               0.000000000               0.000080812               0.004227914              -0.000946658              -0.000498184               0.001575352               0.001077168               0.000000000               0.000000000               0.000000000               0.000000000               0.000094042               0.004304773              -0.000794083              -0.000502830               0.001602520               0.001099690               0.000000000               0.000000000               0.000000000               0.000000000               0.000112488               0.004322046              -0.000670259              -0.000498072               0.001606691               0.001108620               0.000000000               0.000000000               0.000000000               0.000000000               0.000128109               0.004313266              -0.000568007              -0.000491116               0.001601446               0.001110330               0.000000000               0.000000000               0.000000000               0.000000000               0.000130938               0.004293597              -0.000481128              -0.000487597               0.001593717               0.001106120               0.000000000               0.000000000               0.000000000               0.000000000               0.000113246               0.004261839              -0.000404343              -0.000490261               0.001584019               0.001093758               0.000000000               0.000000000               0.000000000               0.000000000               0.000079962               0.004220800              -0.000334229              -0.000497613               0.001572790               0.001075177               0.000000000               0.000000000               0.000000000               0.000000000               0.000035784               0.004172928              -0.000272761              -0.000508196               0.001560361               0.001052165               0.000000000               0.000000000               0.000000000               0.000000000              -0.000015412               0.004118690              -0.000217185              -0.000520614               0.001546421               0.001025807               0.000000000               0.000000000               0.000000000               0.000000000              -0.000065981               0.004054017              -0.000161316              -0.000531494               0.001528490               0.000996996               0.000000000               0.000000000               0.000000000               0.000000000              -0.000117428               0.003978289              -0.000102436              -0.000541320               0.001506523               0.000965203               0.000000000               0.000000000               0.000000000               0.000000000              -0.000179896               0.003894437              -0.000046645              -0.000554264               0.001482888               0.000928623               0.000000000               0.000000000               0.000000000               0.000000000              -0.000227939               0.003839123              -0.000015733              -0.000565366               0.001468150               0.000902784               0.000000000               0.000000000               0.000000000               0.000000000               0.000484931               0.001351900              -0.000971853               0.000012860               0.000446341               0.000459202               0.000000000               0.000000000               0.000000000               0.000000000               0.000448832               0.002097961              -0.001222084              -0.000093934               0.000730624               0.000636690               0.000000000               0.000000000               0.000000000               0.000000000               0.000271729               0.002991697              -0.001345573              -0.000272064               0.001087910               0.000815846               0.000000000               0.000000000               0.000000000               0.000000000               0.000212953               0.003490649              -0.001222767              -0.000356474               0.001282362               0.000925888               0.000000000               0.000000000               0.000000000               0.000000000               0.000181647               0.003778355              -0.001061941              -0.000404176               0.001394164               0.000989988               0.000000000               0.000000000               0.000000000               0.000000000               0.000176942               0.003942067              -0.000913657              -0.000426405               0.001456144               0.001029739               0.000000000               0.000000000               0.000000000               0.000000000               0.000188542               0.004031589              -0.000786093              -0.000433245               0.001488265               0.001055020               0.000000000               0.000000000               0.000000000               0.000000000               0.000197387               0.004081000              -0.000676897              -0.000436104               0.001505688               0.001069584               0.000000000               0.000000000               0.000000000               0.000000000               0.000197585               0.004108306              -0.000581515              -0.000439443               0.001515903               0.001076460               0.000000000               0.000000000               0.000000000               0.000000000               0.000181242               0.004112344              -0.000496276              -0.000446076               0.001519460               0.001073383               0.000000000               0.000000000               0.000000000               0.000000000               0.000149930               0.004099419              -0.000420607              -0.000456203               0.001518527               0.001062324               0.000000000               0.000000000               0.000000000               0.000000000               0.000107106               0.004075164              -0.000353336              -0.000469230               0.001514784               0.001045555               0.000000000               0.000000000               0.000000000               0.000000000               0.000056538               0.004043926              -0.000293287              -0.000484288               0.001509391               0.001025103               0.000000000               0.000000000               0.000000000               0.000000000              -0.000001510               0.004001328              -0.000232109              -0.000500731               0.001500673               0.000999942               0.000000000               0.000000000               0.000000000               0.000000000              -0.000066115               0.003945798              -0.000160545              -0.000518017               0.001487925               0.000969908               0.000000000               0.000000000               0.000000000               0.000000000              -0.000144278               0.003878879              -0.000079863              -0.000538963               0.001472601               0.000933638               0.000000000               0.000000000               0.000000000               0.000000000              -0.000207373               0.003830787              -0.000031813              -0.000556612               0.001462453               0.000905842               0.000000000               0.000000000               0.000000000               0.000000000               0.000054283               0.000810592              -0.000652029              -0.000080968               0.000297184               0.000216215               0.000000000               0.000000000               0.000000000               0.000000000               0.000307265               0.001500492              -0.001007478              -0.000072338               0.000524271               0.000451933               0.000000000               0.000000000               0.000000000               0.000000000               0.000345104               0.002332804              -0.001250866              -0.000162187               0.000831655               0.000669468               0.000000000               0.000000000               0.000000000               0.000000000               0.000351552               0.002888819              -0.001198083              -0.000229271               0.001039353               0.000810082               0.000000000               0.000000000               0.000000000               0.000000000               0.000333163               0.003256725              -0.001080353              -0.000282155               0.001179615               0.000897461               0.000000000               0.000000000               0.000000000               0.000000000               0.000312530               0.003500960              -0.000957436              -0.000320421               0.001273782               0.000953361               0.000000000               0.000000000               0.000000000               0.000000000               0.000305721               0.003665015              -0.000838797              -0.000343481               0.001336153               0.000992672               0.000000000               0.000000000               0.000000000               0.000000000               0.000302333               0.003779886              -0.000729881              -0.000359110               0.001379653               0.001020542               0.000000000               0.000000000               0.000000000               0.000000000               0.000295599               0.003859180              -0.000632839              -0.000371547               0.001410230               0.001038682               0.000000000               0.000000000               0.000000000               0.000000000               0.000279854               0.003906040              -0.000546273              -0.000383309               0.001429770               0.001046461               0.000000000               0.000000000               0.000000000               0.000000000               0.000253854               0.003930137              -0.000470198              -0.000396071               0.001442056               0.001045985               0.000000000               0.000000000               0.000000000               0.000000000               0.000218628               0.003935796              -0.000405296              -0.000409988               0.001448582               0.001038594               0.000000000               0.000000000               0.000000000               0.000000000               0.000176782               0.003931788              -0.000345363              -0.000425179               0.001452309               0.001027130               0.000000000               0.000000000               0.000000000               0.000000000               0.000122932               0.003919406              -0.000280514              -0.000443825               0.001454398               0.001010572               0.000000000               0.000000000               0.000000000               0.000000000               0.000055835               0.003891629              -0.000202284              -0.000465514               0.001452368               0.000986854               0.000000000               0.000000000               0.000000000               0.000000000              -0.000023251               0.003852309              -0.000106436              -0.000490256               0.001447509               0.000957253               0.000000000               0.000000000               0.000000000               0.000000000              -0.000084002               0.003820721              -0.000048699              -0.000509089               0.001443257               0.000934168               0.000000000               0.000000000               0.000000000               0.000000000              -0.000376298               0.000417189              -0.000390519              -0.000193260               0.000203481               0.000010221               0.000000000               0.000000000               0.000000000               0.000000000               0.000150066               0.001005724              -0.000761376              -0.000069441               0.000358385               0.000288943               0.000000000               0.000000000               0.000000000               0.000000000               0.000412492               0.001731406              -0.001048458              -0.000061742               0.000597710               0.000535968               0.000000000               0.000000000               0.000000000               0.000000000               0.000497037               0.002300761              -0.001050739              -0.000101207               0.000800648               0.000699441               0.000000000               0.000000000               0.000000000               0.000000000               0.000506706               0.002721509              -0.000976338              -0.000150175               0.000957219               0.000807044               0.000000000               0.000000000               0.000000000               0.000000000               0.000485284               0.003031023              -0.000887180              -0.000196897               0.001075963               0.000879066               0.000000000               0.000000000               0.000000000               0.000000000               0.000460189               0.003260898              -0.000791075              -0.000235041               0.001165302               0.000930261               0.000000000               0.000000000               0.000000000               0.000000000               0.000439987               0.003435977              -0.000695823              -0.000264502               0.001233482               0.000968980               0.000000000               0.000000000               0.000000000               0.000000000               0.000420784               0.003568888              -0.000607855              -0.000288316               0.001285723               0.000997406               0.000000000               0.000000000               0.000000000               0.000000000               0.000400229               0.003666060              -0.000529408              -0.000308171               0.001324731               0.001016560               0.000000000               0.000000000               0.000000000               0.000000000               0.000377710               0.003731684              -0.000461866              -0.000324819               0.001352155               0.001027336               0.000000000               0.000000000               0.000000000               0.000000000               0.000351723               0.003774168              -0.000405262              -0.000339874               0.001371335               0.001031461               0.000000000               0.000000000               0.000000000               0.000000000               0.000321075               0.003804261              -0.000350250              -0.000355129               0.001386451               0.001031322               0.000000000               0.000000000               0.000000000               0.000000000               0.000283115               0.003820952              -0.000287192              -0.000371450               0.001397455               0.001026004               0.000000000               0.000000000               0.000000000               0.000000000               0.000236231               0.003825319              -0.000210184              -0.000389577               0.001404953               0.001015375               0.000000000               0.000000000               0.000000000               0.000000000               0.000183729               0.003822287              -0.000114017              -0.000408887               0.001410379               0.001001492               0.000000000               0.000000000               0.000000000               0.000000000               0.000144342               0.003811543              -0.000057390              -0.000422314               0.001411273               0.000988959               0.000000000               0.000000000               0.000000000               0.000000000              -0.000746110               0.000166332              -0.000200873              -0.000300583               0.000155637              -0.000144946               0.000000000               0.000000000               0.000000000               0.000000000              -0.000002145               0.000643556              -0.000504033              -0.000081250               0.000241599               0.000160350               0.000000000               0.000000000               0.000000000               0.000000000               0.000463262               0.001250873              -0.000754445               0.000017363               0.000411165               0.000428528               0.000000000               0.000000000               0.000000000               0.000000000               0.000628682               0.001803292              -0.000783674               0.000010343               0.000597644               0.000607986               0.000000000               0.000000000               0.000000000               0.000000000               0.000671672               0.002250427              -0.000746497              -0.000029427               0.000759944               0.000730517               0.000000000               0.000000000               0.000000000               0.000000000               0.000657520               0.002603728              -0.000690856              -0.000078897               0.000894200               0.000815303               0.000000000               0.000000000               0.000000000               0.000000000               0.000619551               0.002882395              -0.000624244              -0.000127968               0.001003445               0.000875477               0.000000000               0.000000000               0.000000000               0.000000000               0.000580181               0.003108664              -0.000553968              -0.000171015               0.001093216               0.000922201               0.000000000               0.000000000               0.000000000               0.000000000               0.000545333               0.003292670              -0.000486643              -0.000207084               0.001166573               0.000959490               0.000000000               0.000000000               0.000000000               0.000000000               0.000516131               0.003435313              -0.000427152              -0.000235865               0.001223714               0.000987850               0.000000000               0.000000000               0.000000000               0.000000000               0.000491322               0.003542022              -0.000377416              -0.000258507               0.001266831               0.001008324               0.000000000               0.000000000               0.000000000               0.000000000               0.000470672               0.003623156              -0.000335311              -0.000276392               0.001299837               0.001023445               0.000000000               0.000000000               0.000000000               0.000000000               0.000453508               0.003687646              -0.000293613              -0.000290890               0.001326166               0.001035277               0.000000000               0.000000000               0.000000000               0.000000000               0.000440410               0.003735256              -0.000244587              -0.000301753               0.001345657               0.001043905               0.000000000               0.000000000               0.000000000               0.000000000               0.000432447               0.003768903              -0.000182854              -0.000308944               0.001359270               0.001050326               0.000000000               0.000000000               0.000000000               0.000000000               0.000431826               0.003794709              -0.000101488              -0.000312403               0.001369025               0.001056622               0.000000000               0.000000000               0.000000000               0.000000000               0.000433411               0.003804038              -0.000053774              -0.000312975               0.001372325               0.001059350               0.000000000               0.000000000               0.000000000               0.000000000              -0.000996076               0.000036646              -0.000078077              -0.000378109               0.000138251              -0.000239858               0.000000000               0.000000000               0.000000000               0.000000000              -0.000114623               0.000427757              -0.000248003              -0.000096453               0.000174735               0.000078282               0.000000000               0.000000000               0.000000000               0.000000000               0.000491661               0.000942239              -0.000394095               0.000066592               0.000291879               0.000358471               0.000000000               0.000000000               0.000000000               0.000000000               0.000725002               0.001470124              -0.000419942               0.000088109               0.000460666               0.000548776               0.000000000               0.000000000               0.000000000               0.000000000               0.000796887               0.001924021              -0.000407031               0.000058329               0.000621891               0.000680220               0.000000000               0.000000000               0.000000000               0.000000000               0.000784559               0.002299291              -0.000380722               0.000006798               0.000764157               0.000770955               0.000000000               0.000000000               0.000000000               0.000000000               0.000736016               0.002611977              -0.000346147              -0.000050491               0.000887481               0.000836990               0.000000000               0.000000000               0.000000000               0.000000000               0.000680920               0.002873235              -0.000308342              -0.000103809               0.000992338               0.000888529               0.000000000               0.000000000               0.000000000               0.000000000               0.000633326               0.003089625              -0.000272620              -0.000148706               0.001079433               0.000930727               0.000000000               0.000000000               0.000000000               0.000000000               0.000597907               0.003268029              -0.000241407              -0.000184288               0.001150761               0.000966473               0.000000000               0.000000000               0.000000000               0.000000000               0.000571867               0.003409267              -0.000215366              -0.000211708               0.001206980               0.000995272               0.000000000               0.000000000               0.000000000               0.000000000               0.000553650               0.003517663              -0.000194032              -0.000232089               0.001249906               0.001017817               0.000000000               0.000000000               0.000000000               0.000000000               0.000546467               0.003606481              -0.000172437              -0.000245884               0.001284110               0.001038225               0.000000000               0.000000000               0.000000000               0.000000000               0.000554103               0.003680501              -0.000146496              -0.000252273               0.001310913               0.001058639               0.000000000               0.000000000               0.000000000               0.000000000               0.000580931               0.003737328              -0.000112772              -0.000249316               0.001328869               0.001079553               0.000000000               0.000000000               0.000000000               0.000000000               0.000633434               0.003779074              -0.000064522              -0.000234846               0.001337961               0.001103115               0.000000000               0.000000000               0.000000000               0.000000000               0.000684569               0.003802269              -0.000036033              -0.000218570               0.001340267               0.001121697               0.000000000               0.000000000               0.000000000               0.000000000               0.000000000               0.000000000               0.000000000               0.000000000               0.000000000               0.000000000               0.000000000               0.000000000               0.000000000               0.000000000               0.000000000               0.000000000               0.000000000               0.000000000               0.000000000               0.000000000               0.000000000               0.000000000               0.000000000               0.000000000               0.000000000               0.000000000               0.000000000               0.000000000               0.000000000               0.000000000               0.000000000               0.000000000               0.000000000               0.000000000               0.000000000               0.000000000               0.000000000               0.000000000               0.000000000               0.000000000               0.000000000               0.000000000               0.000000000               0.000000000               0.000000000               0.000000000               0.000000000               0.000000000               0.000000000               0.000000000               0.000000000               0.000000000               0.000000000               0.000000000               0.000000000               0.000000000               0.000000000               0.000000000               0.000000000               0.000000000               0.000000000               0.000000000               0.000000000               0.000000000               0.000000000               0.000000000               0.000000000               0.000000000               0.000000000               0.000000000               0.000000000               0.000000000               0.000000000               0.000000000               0.000000000               0.000000000               0.000000000               0.000000000               0.000000000               0.000000000               0.000000000               0.000000000               0.000000000               0.000000000               0.000000000               0.000000000               0.000000000               0.000000000               0.000000000               0.000000000               0.000000000               0.000000000               0.000000000               0.000000000               0.000000000               0.000000000               0.000000000               0.000000000               0.000000000               0.000000000               0.000000000               0.000000000               0.000000000               0.000000000               0.000000000               0.000000000               0.000000000               0.000000000               0.000000000               0.000000000               0.000000000               0.000000000               0.000000000               0.000000000               0.000000000               0.000000000               0.000000000               0.000000000               0.000000000               0.000000000               0.000000000               0.000000000               0.000000000               0.000000000               0.000000000               0.000000000               0.000000000               0.000000000               0.000000000               0.000000000               0.000000000               0.000000000               0.000000000               0.000000000               0.000000000               0.000000000               0.000000000               0.000000000               0.000000000               0.000000000               0.000000000               0.000000000               0.000000000               0.000000000               0.000000000               0.000000000               0.000000000               0.000000000               0.000000000               0.000000000               0.000000000               0.000000000               0.000000000               0.000000000               0.000000000               0.000000000               0.000000000               0.000000000               0.000000000               0.000000000               0.000000000               0.000000000               0.000000000               0.000000000               0.000000000               0.000000000               0.000000000               0.000000000               0.000000000               0.000000000               0.000000000               0.000000000               0.000000000               0.000000000               0.000000000               0.000000000               0.000000000               0.000000000               0.000000000               0.000000000               0.000000000               0.000000000               0.000000000               0.000000000               0.000000000               0.000000000               0.000000000               0.000000000               0.000000000               0.000000000               0.000000000               0.000000000               0.000000000               0.000000000               0.000000000               0.000000000               0.000000000               0.000000000               0.000000000               0.000000000               0.000000000               0.000000000               0.000000000               0.000000000               0.000000000               0.000000000               0.000000000               0.000000000               0.000000000               0.000000000               0.000000000               0.000000000               0.000000000               0.000000000               0.000000000               0.000000000               0.000000000               0.000000000               0.000000000               0.000000000               0.000000000               0.000000000               0.000000000               0.000000000               0.000000000               0.000000000               0.000000000               0.000000000               0.000000000               0.000000000               0.000000000               0.000000000               0.000000000               0.000000000               0.000000000               0.000000000               0.000000000               0.000000000               0.000000000               0.000000000               0.000000000               0.000000000               0.000000000               0.000000000               0.000000000               0.000000000               0.000000000               0.000000000               0.000000000               0.000000000               0.000000000               0.000000000               0.000000000               0.000000000               0.000000000               0.000000000               0.000000000               0.000000000               0.000000000               0.000000000               0.000000000               0.000000000               0.000000000               0.000000000               0.000000000               0.000000000               0.000000000               0.000000000               0.000000000               0.000000000               0.000000000               0.000000000               0.000000000               0.000000000               0.000000000               0.000000000               0.000000000               0.000000000               0.000000000               0.000000000               0.000000000               0.000000000               0.000000000               0.000000000               0.000000000               0.000000000               0.000000000               0.000000000               0.000000000               0.000000000               0.000000000               0.000000000               0.000000000               0.000000000               0.000000000               0.000000000               0.000000000               0.000000000               0.000000000               0.000000000               0.000000000               0.000000000               0.000000000               0.000000000               0.000000000               0.000000000               0.000000000               0.000000000               0.000000000               0.000000000               0.000000000               0.000000000               0.000000000               0.000000000               0.000000000               0.000000000               0.000000000               0.000000000               0.000000000               0.000000000               0.000000000               0.000000000               0.000000000               0.000000000               0.000000000               0.000000000               0.000000000               0.000000000               0.000000000               0.000000000               0.000000000               0.000000000               0.000000000               0.000000000               0.000000000               0.000000000               0.000000000               0.000000000               0.000000000               0.000000000               0.000000000               0.000000000               0.000000000               0.000000000               0.000983159               0.010307443               0.000772318              -0.000919744               0.003742361               0.002822618               0.000000000               0.000000000               0.000000000               0.000000000               0.001016103               0.008440796               0.000466745              -0.000674059               0.003038257               0.002364198               0.000000000               0.000000000               0.000000000               0.000000000               0.001359006               0.006962089               0.000155872              -0.000360633               0.002440884               0.002080251               0.000000000               0.000000000               0.000000000               0.000000000               0.001386921               0.006145628               0.000013224              -0.000248108               0.002131225               0.001883117               0.000000000               0.000000000               0.000000000               0.000000000               0.001300515               0.005662290              -0.000056381              -0.000220093               0.001960775               0.001740683               0.000000000               0.000000000               0.000000000               0.000000000               0.001174708               0.005363474              -0.000088358              -0.000229918               0.001864446               0.001634528               0.000000000               0.000000000               0.000000000               0.000000000               0.001041561               0.005171212              -0.000099421              -0.000255815               0.001808992               0.001553177               0.000000000               0.000000000               0.000000000               0.000000000               0.000911623               0.005039974              -0.000100658              -0.000288137               0.001776020               0.001487883               0.000000000               0.000000000               0.000000000               0.000000000               0.000786964               0.004944767              -0.000099300              -0.000322984               0.001755900               0.001432917               0.000000000               0.000000000               0.000000000               0.000000000               0.000670903               0.004874977              -0.000097212              -0.000357783               0.001744237               0.001386454               0.000000000               0.000000000               0.000000000               0.000000000               0.000561038               0.004821669              -0.000094053              -0.000392319               0.001737980               0.001345661               0.000000000               0.000000000               0.000000000               0.000000000               0.000454666               0.004777080              -0.000089201              -0.000426634               0.001734555               0.001307921               0.000000000               0.000000000               0.000000000               0.000000000               0.000355467               0.004738351              -0.000082722              -0.000458992               0.001732432               0.001273440               0.000000000               0.000000000               0.000000000               0.000000000               0.000261566               0.004700597              -0.000072756              -0.000489486               0.001730012               0.001240526               0.000000000               0.000000000               0.000000000               0.000000000               0.000168701               0.004657294              -0.000057482              -0.000518898               0.001725382               0.001206484               0.000000000               0.000000000               0.000000000               0.000000000               0.000079640               0.004605334              -0.000033985              -0.000545800               0.001717029               0.001171229               0.000000000               0.000000000               0.000000000               0.000000000               0.000034985               0.004568274              -0.000019366              -0.000557914               0.001708714               0.001150800               0.000000000               0.000000000               0.000000000               0.000000000               0.001119186               0.009781389               0.001450834              -0.000802978               0.003528089               0.002725112               0.000000000               0.000000000               0.000000000               0.000000000               0.001035787               0.008089254               0.000877005              -0.000622736               0.002903970               0.002281234               0.000000000               0.000000000               0.000000000               0.000000000               0.001253633               0.006796209               0.000296022              -0.000379413               0.002391851               0.002012438               0.000000000               0.000000000               0.000000000               0.000000000               0.001230712               0.006081795               0.000037569              -0.000298707               0.002126814               0.001828107               0.000000000               0.000000000               0.000000000               0.000000000               0.001128555               0.005651560              -0.000084904              -0.000283236               0.001978247               0.001695011               0.000000000               0.000000000               0.000000000               0.000000000               0.001004398               0.005381412              -0.000140700              -0.000296026               0.001892462               0.001596435               0.000000000               0.000000000               0.000000000               0.000000000               0.000881879               0.005202692              -0.000160097              -0.000319631               0.001840757               0.001521126               0.000000000               0.000000000               0.000000000               0.000000000               0.000771234               0.005077222              -0.000161108              -0.000345439               0.001807537               0.001462098               0.000000000               0.000000000               0.000000000               0.000000000               0.000668697               0.004982982              -0.000157740              -0.000372111               0.001785014               0.001412904               0.000000000               0.000000000               0.000000000               0.000000000               0.000573663               0.004914398              -0.000153664              -0.000399175               0.001771175               0.001372000               0.000000000               0.000000000               0.000000000               0.000000000               0.000481489               0.004861059              -0.000147320              -0.000427073               0.001762694               0.001335621               0.000000000               0.000000000               0.000000000               0.000000000               0.000391335               0.004820114              -0.000138844              -0.000455763               0.001758609               0.001302847               0.000000000               0.000000000               0.000000000               0.000000000               0.000306667               0.004790598              -0.000127486              -0.000483824               0.001758125               0.001274301               0.000000000               0.000000000               0.000000000               0.000000000               0.000224607               0.004767695              -0.000110026              -0.000511733               0.001759794               0.001248061               0.000000000               0.000000000               0.000000000               0.000000000               0.000143980               0.004748367              -0.000085013              -0.000539552               0.001762624               0.001223072               0.000000000               0.000000000               0.000000000               0.000000000               0.000067387               0.004730941              -0.000048786              -0.000566096               0.001765663               0.001199567               0.000000000               0.000000000               0.000000000               0.000000000               0.000032640               0.004724710              -0.000025861              -0.000578347               0.001767670               0.001189323               0.000000000               0.000000000               0.000000000               0.000000000               0.001299756               0.008970388               0.001972687              -0.000633890               0.003201396               0.002567506               0.000000000               0.000000000               0.000000000               0.000000000               0.001047424               0.007547239               0.001199386              -0.000550620               0.002699261               0.002148641               0.000000000               0.000000000               0.000000000               0.000000000               0.001084692               0.006533666               0.000423465              -0.000409948               0.002314516               0.001904568               0.000000000               0.000000000               0.000000000               0.000000000               0.000997037               0.005962538               0.000093616              -0.000371428               0.002111302               0.001739874               0.000000000               0.000000000               0.000000000               0.000000000               0.000882131               0.005611259              -0.000056881              -0.000370607               0.001993937               0.001623329               0.000000000               0.000000000               0.000000000               0.000000000               0.000770076               0.005380105              -0.000124849              -0.000383734               0.001921262               0.001537528               0.000000000               0.000000000               0.000000000               0.000000000               0.000670227               0.005216154              -0.000148541              -0.000400683               0.001872262               0.001471579               0.000000000               0.000000000               0.000000000               0.000000000               0.000584741               0.005092873              -0.000150134              -0.000417330               0.001836717               0.001419387               0.000000000               0.000000000               0.000000000               0.000000000               0.000507356               0.004999469              -0.000147583              -0.000434674               0.001811364               0.001376690               0.000000000               0.000000000               0.000000000               0.000000000               0.000437033               0.004930362              -0.000142921              -0.000452407               0.001794240               0.001341833               0.000000000               0.000000000               0.000000000               0.000000000               0.000369308               0.004876320              -0.000134793              -0.000471048               0.001782440               0.001311392               0.000000000               0.000000000               0.000000000               0.000000000               0.000300050               0.004835379              -0.000126996              -0.000491902               0.001775744               0.001283842               0.000000000               0.000000000               0.000000000               0.000000000               0.000233140               0.004807857              -0.000115847              -0.000513553               0.001773787               0.001260234               0.000000000               0.000000000               0.000000000               0.000000000               0.000169265               0.004790910              -0.000098985              -0.000535388               0.001775417               0.001240029               0.000000000               0.000000000               0.000000000               0.000000000               0.000107682               0.004782813              -0.000074566              -0.000557470               0.001780078               0.001222609               0.000000000               0.000000000               0.000000000               0.000000000               0.000050220               0.004780981              -0.000040610              -0.000578789               0.001786574               0.001207785               0.000000000               0.000000000               0.000000000               0.000000000               0.000026357               0.004788159              -0.000020107              -0.000588634               0.001792249               0.001203614               0.000000000               0.000000000               0.000000000               0.000000000               0.001467845               0.007962546               0.002303332              -0.000444877               0.002802447               0.002357570               0.000000000               0.000000000               0.000000000               0.000000000               0.001031880               0.006879737               0.001421311              -0.000473012               0.002450893               0.001977881               0.000000000               0.000000000               0.000000000               0.000000000               0.000870761               0.006207035               0.000545883              -0.000449343               0.002218772               0.001769429               0.000000000               0.000000000               0.000000000               0.000000000               0.000727879               0.005799455               0.000190178              -0.000451976               0.002083791               0.001631815               0.000000000               0.000000000               0.000000000               0.000000000               0.000614326               0.005528052               0.000031260              -0.000460633               0.001996210               0.001535577               0.000000000               0.000000000               0.000000000               0.000000000               0.000524637               0.005330675              -0.000042022              -0.000469595               0.001933405               0.001463811               0.000000000               0.000000000               0.000000000               0.000000000               0.000455975               0.005178500              -0.000070640              -0.000476321               0.001884923               0.001408602               0.000000000               0.000000000               0.000000000               0.000000000               0.000401237               0.005060804              -0.000078256              -0.000482135               0.001847630               0.001365494               0.000000000               0.000000000               0.000000000               0.000000000               0.000349130               0.004971319              -0.000081640              -0.000490490               0.001820586               0.001330096               0.000000000               0.000000000               0.000000000               0.000000000               0.000298440               0.004899636              -0.000082307              -0.000500538               0.001800042               0.001299504               0.000000000               0.000000000               0.000000000               0.000000000               0.000250649               0.004842637              -0.000079675              -0.000511335               0.001784641               0.001273306               0.000000000               0.000000000               0.000000000               0.000000000               0.000201292               0.004798180              -0.000079313              -0.000524287               0.001774140               0.001249853               0.000000000               0.000000000               0.000000000               0.000000000               0.000151158               0.004766087              -0.000077223              -0.000539075               0.001768372               0.001229296               0.000000000               0.000000000               0.000000000               0.000000000               0.000106056               0.004745630              -0.000068981              -0.000553431               0.001766338               0.001212907               0.000000000               0.000000000               0.000000000               0.000000000               0.000065510               0.004731560              -0.000052417              -0.000566878               0.001766130               0.001199253               0.000000000               0.000000000               0.000000000               0.000000000               0.000029221               0.004723456              -0.000027889              -0.000579473               0.001767627               0.001188154               0.000000000               0.000000000               0.000000000               0.000000000               0.000014093               0.004723121              -0.000014089              -0.000585104               0.001769393               0.001184289               0.000000000               0.000000000               0.000000000               0.000000000               0.001567105               0.006851296               0.002437363              -0.000268749               0.002373325               0.002104576               0.000000000               0.000000000               0.000000000               0.000000000               0.000975385               0.006158715               0.001548682              -0.000404070               0.002187574               0.001783504               0.000000000               0.000000000               0.000000000               0.000000000               0.000642515               0.005848290               0.000669239              -0.000490092               0.002112775               0.001622682               0.000000000               0.000000000               0.000000000               0.000000000               0.000470067               0.005597498               0.000321348              -0.000523411               0.002040284               0.001516873               0.000000000               0.000000000               0.000000000               0.000000000               0.000374595               0.005395510               0.000164872              -0.000533964               0.001976473               0.001442509               0.000000000               0.000000000               0.000000000               0.000000000               0.000315971               0.005227589               0.000084968              -0.000534958               0.001920832               0.001385874               0.000000000               0.000000000               0.000000000               0.000000000               0.000278615               0.005089958               0.000043987              -0.000531763               0.001873890               0.001342127               0.000000000               0.000000000               0.000000000               0.000000000               0.000251027               0.004981929               0.000022759              -0.000528605               0.001836828               0.001308223               0.000000000               0.000000000               0.000000000               0.000000000               0.000219558               0.004894565               0.000008528              -0.000529485               0.001808000               0.001278515               0.000000000               0.000000000               0.000000000               0.000000000               0.000185227               0.004818961              -0.000002115              -0.000532909               0.001783941               0.001251032               0.000000000               0.000000000               0.000000000               0.000000000               0.000150661               0.004755291              -0.000011477              -0.000537912               0.001764385               0.001226473               0.000000000               0.000000000               0.000000000               0.000000000               0.000116470               0.004705348              -0.000023685              -0.000544491               0.001749931               0.001205440               0.000000000               0.000000000               0.000000000               0.000000000               0.000084502               0.004667244              -0.000034270              -0.000551716               0.001739638               0.001187922               0.000000000               0.000000000               0.000000000               0.000000000               0.000054884               0.004635129              -0.000036306              -0.000558808               0.001731297               0.001172489               0.000000000               0.000000000               0.000000000               0.000000000               0.000031036               0.004606533              -0.000029073              -0.000564177               0.001723554               0.001159378               0.000000000               0.000000000               0.000000000               0.000000000               0.000013250               0.004580827              -0.000014933              -0.000567633               0.001716138               0.001148505               0.000000000               0.000000000               0.000000000               0.000000000               0.000004334               0.004565299              -0.000007321              -0.000569036               0.001711429               0.001142394               0.000000000               0.000000000               0.000000000               0.000000000               0.001569379               0.005724381               0.002398022              -0.000127033               0.001950451               0.001823418               0.000000000               0.000000000               0.000000000               0.000000000               0.000882628               0.005440490               0.001601039              -0.000349076               0.001929837               0.001580761               0.000000000               0.000000000               0.000000000               0.000000000               0.000429677               0.005480015               0.000798308              -0.000523872               0.002001277               0.001477405               0.000000000               0.000000000               0.000000000               0.000000000               0.000259165               0.005364375               0.000472911              -0.000573359               0.001979227               0.001405868               0.000000000               0.000000000               0.000000000               0.000000000               0.000193014               0.005224996               0.000317638              -0.000580743               0.001935229               0.001354486               0.000000000               0.000000000               0.000000000               0.000000000               0.000169992               0.005087274               0.000225402              -0.000572161               0.001886461               0.001314300               0.000000000               0.000000000               0.000000000               0.000000000               0.000162604               0.004967550               0.000167426              -0.000559966               0.001842489               0.001282523               0.000000000               0.000000000               0.000000000               0.000000000               0.000153646               0.004865686               0.000129845              -0.000550592               0.001805410               0.001254818               0.000000000               0.000000000               0.000000000               0.000000000               0.000133542               0.004775958               0.000100668              -0.000546915               0.001774275               0.001227360               0.000000000               0.000000000               0.000000000               0.000000000               0.000108831               0.004697359               0.000076899              -0.000546357               0.001747890               0.001201533               0.000000000               0.000000000               0.000000000               0.000000000               0.000082820               0.004630959               0.000054344              -0.000547811               0.001726241               0.001178430               0.000000000               0.000000000               0.000000000               0.000000000               0.000056966               0.004576484               0.000029127              -0.000550697               0.001709045               0.001158348               0.000000000               0.000000000               0.000000000               0.000000000               0.000035685               0.004527766               0.000008933              -0.000552587               0.001693436               0.001140849               0.000000000               0.000000000               0.000000000               0.000000000               0.000020229               0.004477772              -0.000001785              -0.000552134               0.001676621               0.001124486               0.000000000               0.000000000               0.000000000               0.000000000               0.000010584               0.004426069              -0.000004383              -0.000549288               0.001658438               0.001109149               0.000000000               0.000000000               0.000000000               0.000000000               0.000004440               0.004373160              -0.000001660              -0.000544979               0.001639365               0.001094386               0.000000000               0.000000000               0.000000000               0.000000000              -0.000003280               0.004337802              -0.000003008              -0.000543454               0.001627071               0.001083617               0.000000000               0.000000000               0.000000000               0.000000000               0.001484693               0.004656051               0.002221035              -0.000025249               0.001560417               0.001535168               0.000000000               0.000000000               0.000000000               0.000000000               0.000769195               0.004768684               0.001593077              -0.000307638               0.001692091               0.001384453               0.000000000               0.000000000               0.000000000               0.000000000               0.000257502               0.005113693               0.000927189              -0.000542647               0.001885430               0.001342782               0.000000000               0.000000000               0.000000000               0.000000000               0.000113147               0.005112036               0.000623569              -0.000596573               0.001902853               0.001306279               0.000000000               0.000000000               0.000000000               0.000000000               0.000081439               0.005028251               0.000461964              -0.000597990               0.001875397               0.001277407               0.000000000               0.000000000               0.000000000               0.000000000               0.000086483               0.004920948               0.000357018              -0.000582686               0.001834528               0.001251842               0.000000000               0.000000000               0.000000000               0.000000000               0.000098321               0.004817287               0.000281877              -0.000565289               0.001794176               0.001228887               0.000000000               0.000000000               0.000000000               0.000000000               0.000102521               0.004721497               0.000225316              -0.000551741               0.001757730               0.001205990               0.000000000               0.000000000               0.000000000               0.000000000               0.000090314               0.004635637               0.000179219              -0.000545586               0.001727059               0.001181473               0.000000000               0.000000000               0.000000000               0.000000000               0.000066173               0.004558924               0.000141434              -0.000545049               0.001701309               0.001156260               0.000000000               0.000000000               0.000000000               0.000000000               0.000041137               0.004492949               0.000107162              -0.000546191               0.001679698               0.001133507               0.000000000               0.000000000               0.000000000               0.000000000               0.000016730               0.004430329               0.000072736              -0.000547516               0.001659267               0.001111751               0.000000000               0.000000000               0.000000000               0.000000000              -0.000002337               0.004361599               0.000043895              -0.000546075               0.001635877               0.001089802               0.000000000               0.000000000               0.000000000               0.000000000              -0.000010343               0.004287588               0.000023702              -0.000539826               0.001609124               0.001069298               0.000000000               0.000000000               0.000000000               0.000000000              -0.000011851               0.004210540               0.000010587              -0.000530760               0.001580419               0.001049659               0.000000000               0.000000000               0.000000000               0.000000000              -0.000009873               0.004136597               0.000002522              -0.000520776               0.001552444               0.001031668               0.000000000               0.000000000               0.000000000               0.000000000              -0.000013504               0.004088913              -0.000005249              -0.000516177               0.001535016               0.001018839               0.000000000               0.000000000               0.000000000               0.000000000               0.001356234               0.003732780               0.001954226               0.000041987               0.001230251               0.001272238               0.000000000               0.000000000               0.000000000               0.000000000               0.000674197               0.004165181               0.001551346              -0.000267825               0.001477654               0.001209829               0.000000000               0.000000000               0.000000000               0.000000000               0.000154133               0.004762451               0.001065973              -0.000537506               0.001766636               0.001229130               0.000000000               0.000000000               0.000000000               0.000000000               0.000038688               0.004873870               0.000778943              -0.000594725               0.001822849               0.001228124               0.000000000               0.000000000               0.000000000               0.000000000               0.000032268               0.004847231               0.000605963              -0.000593802               0.001813661               0.001219859               0.000000000               0.000000000               0.000000000               0.000000000               0.000056674               0.004778450               0.000487803              -0.000576052               0.001784818               0.001208766               0.000000000               0.000000000               0.000000000               0.000000000               0.000079087               0.004697693               0.000393910              -0.000557553               0.001751733               0.001194180               0.000000000               0.000000000               0.000000000               0.000000000               0.000087227               0.004616073               0.000317146              -0.000544297               0.001720108               0.001175810               0.000000000               0.000000000               0.000000000               0.000000000               0.000077455               0.004538400               0.000256119              -0.000538253               0.001692202               0.001153949               0.000000000               0.000000000               0.000000000               0.000000000               0.000055200               0.004464802               0.000206707              -0.000537399               0.001667386               0.001129986               0.000000000               0.000000000               0.000000000               0.000000000               0.000027398               0.004397670               0.000162787              -0.000539433               0.001645686               0.001106253               0.000000000               0.000000000               0.000000000               0.000000000              -0.000001391               0.004325818               0.000121604              -0.000541248               0.001622341               0.001081093               0.000000000               0.000000000               0.000000000               0.000000000              -0.000022806               0.004242153               0.000084672              -0.000538820               0.001593643               0.001054823               0.000000000               0.000000000               0.000000000               0.000000000              -0.000036471               0.004148488               0.000052103              -0.000532236               0.001560228               0.001027991               0.000000000               0.000000000               0.000000000               0.000000000              -0.000048513               0.004052080               0.000025506              -0.000524701               0.001525580               0.001000879               0.000000000               0.000000000               0.000000000               0.000000000              -0.000058600               0.003963010               0.000007264              -0.000517350               0.001493440               0.000976090               0.000000000               0.000000000               0.000000000               0.000000000              -0.000063980               0.003912920              -0.000002074              -0.000513106               0.001475329               0.000962223               0.000000000               0.000000000               0.000000000               0.000000000               0.001164914               0.002856653               0.001648032               0.000079758               0.000925621               0.001005380               0.000000000               0.000000000               0.000000000               0.000000000               0.000619780               0.003464947               0.001491605              -0.000200702               0.001221871               0.001021169               0.000000000               0.000000000               0.000000000               0.000000000               0.000144949               0.004237930               0.001219910              -0.000475385               0.001571091               0.001095706               0.000000000               0.000000000               0.000000000               0.000000000               0.000040785               0.004495255               0.000962645              -0.000546612               0.001680607               0.001133995               0.000000000               0.000000000               0.000000000               0.000000000               0.000035040               0.004568315               0.000775477              -0.000557898               0.001708722               0.001150824               0.000000000               0.000000000               0.000000000               0.000000000               0.000060017               0.004565676               0.000637553              -0.000548202               0.001704611               0.001156409               0.000000000               0.000000000               0.000000000               0.000000000               0.000080842               0.004527807               0.000525261              -0.000535659               0.001687807               0.001152148               0.000000000               0.000000000               0.000000000               0.000000000               0.000093938               0.004477188               0.000432277              -0.000524421               0.001667188               0.001142767               0.000000000               0.000000000               0.000000000               0.000000000               0.000090389               0.004418743               0.000357887              -0.000518446               0.001645715               0.001127269               0.000000000               0.000000000               0.000000000               0.000000000               0.000072280               0.004360098               0.000295451              -0.000517906               0.001625987               0.001108081               0.000000000               0.000000000               0.000000000               0.000000000               0.000040886               0.004300716               0.000237351              -0.000522256               0.001607643               0.001085387               0.000000000               0.000000000               0.000000000               0.000000000               0.000001145               0.004236227               0.000186019              -0.000529098               0.001588427               0.001059330               0.000000000               0.000000000               0.000000000               0.000000000              -0.000037757               0.004163289               0.000139340              -0.000534569               0.001565939               0.001031370               0.000000000               0.000000000               0.000000000               0.000000000              -0.000071851               0.004078069               0.000093142              -0.000536701               0.001538243               0.001001542               0.000000000               0.000000000               0.000000000               0.000000000              -0.000104570               0.003986530               0.000050893              -0.000537529               0.001508006               0.000970477               0.000000000               0.000000000               0.000000000               0.000000000              -0.000138766               0.003896500               0.000019114              -0.000539098               0.001478520               0.000939421               0.000000000               0.000000000               0.000000000               0.000000000              -0.000159350               0.003845375               0.000003948              -0.000540427               0.001461921               0.000921494               0.000000000               0.000000000               0.000000000               0.000000000               0.000866317               0.002045804               0.001315621               0.000069141               0.000658880               0.000728021               0.000000000               0.000000000               0.000000000               0.000000000               0.000556877               0.002763917               0.001387260              -0.000136662               0.000966850               0.000830188               0.000000000               0.000000000               0.000000000               0.000000000               0.000197815               0.003642374               0.001332402              -0.000381116               0.001341151               0.000960035               0.000000000               0.000000000               0.000000000               0.000000000               0.000103222               0.004040145               0.001134937              -0.000466309               0.001502138               0.001035828               0.000000000               0.000000000               0.000000000               0.000000000               0.000080812               0.004227914               0.000946658              -0.000498184               0.001575352               0.001077168               0.000000000               0.000000000               0.000000000               0.000000000               0.000094042               0.004304773               0.000794083              -0.000502830               0.001602520               0.001099690               0.000000000               0.000000000               0.000000000               0.000000000               0.000112488               0.004322046               0.000670259              -0.000498072               0.001606691               0.001108620               0.000000000               0.000000000               0.000000000               0.000000000               0.000128109               0.004313266               0.000568007              -0.000491116               0.001601446               0.001110330               0.000000000               0.000000000               0.000000000               0.000000000               0.000130938               0.004293597               0.000481128              -0.000487597               0.001593717               0.001106120               0.000000000               0.000000000               0.000000000               0.000000000               0.000113246               0.004261839               0.000404343              -0.000490261               0.001584019               0.001093758               0.000000000               0.000000000               0.000000000               0.000000000               0.000079962               0.004220800               0.000334229              -0.000497613               0.001572790               0.001075177               0.000000000               0.000000000               0.000000000               0.000000000               0.000035784               0.004172928               0.000272761              -0.000508196               0.001560361               0.001052165               0.000000000               0.000000000               0.000000000               0.000000000              -0.000015412               0.004118690               0.000217185              -0.000520614               0.001546421               0.001025807               0.000000000               0.000000000               0.000000000               0.000000000              -0.000065981               0.004054017               0.000161316              -0.000531494               0.001528490               0.000996996               0.000000000               0.000000000               0.000000000               0.000000000              -0.000117428               0.003978289               0.000102436              -0.000541320               0.001506523               0.000965203               0.000000000               0.000000000               0.000000000               0.000000000              -0.000179896               0.003894437               0.000046645              -0.000554264               0.001482888               0.000928623               0.000000000               0.000000000               0.000000000               0.000000000              -0.000227939               0.003839123               0.000015733              -0.000565366               0.001468150               0.000902784               0.000000000               0.000000000               0.000000000               0.000000000               0.000484931               0.001351900               0.000971853               0.000012860               0.000446341               0.000459202               0.000000000               0.000000000               0.000000000               0.000000000               0.000448832               0.002097961               0.001222084              -0.000093934               0.000730624               0.000636690               0.000000000               0.000000000               0.000000000               0.000000000               0.000271729               0.002991697               0.001345573              -0.000272064               0.001087910               0.000815846               0.000000000               0.000000000               0.000000000               0.000000000               0.000212953               0.003490649               0.001222767              -0.000356474               0.001282362               0.000925888               0.000000000               0.000000000               0.000000000               0.000000000               0.000181647               0.003778355               0.001061941              -0.000404176               0.001394164               0.000989988               0.000000000               0.000000000               0.000000000               0.000000000               0.000176942               0.003942067               0.000913657              -0.000426405               0.001456144               0.001029739               0.000000000               0.000000000               0.000000000               0.000000000               0.000188542               0.004031589               0.000786093              -0.000433245               0.001488265               0.001055020               0.000000000               0.000000000               0.000000000               0.000000000               0.000197387               0.004081000               0.000676897              -0.000436104               0.001505688               0.001069584               0.000000000               0.000000000               0.000000000               0.000000000               0.000197585               0.004108306               0.000581515              -0.000439443               0.001515903               0.001076460               0.000000000               0.000000000               0.000000000               0.000000000               0.000181242               0.004112344               0.000496276              -0.000446076               0.001519460               0.001073383               0.000000000               0.000000000               0.000000000               0.000000000               0.000149930               0.004099419               0.000420607              -0.000456203               0.001518527               0.001062324               0.000000000               0.000000000               0.000000000               0.000000000               0.000107106               0.004075164               0.000353336              -0.000469230               0.001514784               0.001045555               0.000000000               0.000000000               0.000000000               0.000000000               0.000056538               0.004043926               0.000293287              -0.000484288               0.001509391               0.001025103               0.000000000               0.000000000               0.000000000               0.000000000              -0.000001510               0.004001328               0.000232109              -0.000500731               0.001500673               0.000999942               0.000000000               0.000000000               0.000000000               0.000000000              -0.000066115               0.003945798               0.000160545              -0.000518017               0.001487925               0.000969908               0.000000000               0.000000000               0.000000000               0.000000000              -0.000144278               0.003878879               0.000079863              -0.000538963               0.001472601               0.000933638               0.000000000               0.000000000               0.000000000               0.000000000              -0.000207373               0.003830787               0.000031813              -0.000556612               0.001462453               0.000905842               0.000000000               0.000000000               0.000000000               0.000000000               0.000054283               0.000810592               0.000652029              -0.000080968               0.000297184               0.000216215               0.000000000               0.000000000               0.000000000               0.000000000               0.000307265               0.001500492               0.001007478              -0.000072338               0.000524271               0.000451933               0.000000000               0.000000000               0.000000000               0.000000000               0.000345104               0.002332804               0.001250866              -0.000162187               0.000831655               0.000669468               0.000000000               0.000000000               0.000000000               0.000000000               0.000351552               0.002888819               0.001198083              -0.000229271               0.001039353               0.000810082               0.000000000               0.000000000               0.000000000               0.000000000               0.000333163               0.003256725               0.001080353              -0.000282155               0.001179615               0.000897461               0.000000000               0.000000000               0.000000000               0.000000000               0.000312530               0.003500960               0.000957436              -0.000320421               0.001273782               0.000953361               0.000000000               0.000000000               0.000000000               0.000000000               0.000305721               0.003665015               0.000838797              -0.000343481               0.001336153               0.000992672               0.000000000               0.000000000               0.000000000               0.000000000               0.000302333               0.003779886               0.000729881              -0.000359110               0.001379653               0.001020542               0.000000000               0.000000000               0.000000000               0.000000000               0.000295599               0.003859180               0.000632839              -0.000371547               0.001410230               0.001038682               0.000000000               0.000000000               0.000000000               0.000000000               0.000279854               0.003906040               0.000546273              -0.000383309               0.001429770               0.001046461               0.000000000               0.000000000               0.000000000               0.000000000               0.000253854               0.003930137               0.000470198              -0.000396071               0.001442056               0.001045985               0.000000000               0.000000000               0.000000000               0.000000000               0.000218628               0.003935796               0.000405296              -0.000409988               0.001448582               0.001038594               0.000000000               0.000000000               0.000000000               0.000000000               0.000176782               0.003931788               0.000345363              -0.000425179               0.001452309               0.001027130               0.000000000               0.000000000               0.000000000               0.000000000               0.000122932               0.003919406               0.000280514              -0.000443825               0.001454398               0.001010572               0.000000000               0.000000000               0.000000000               0.000000000               0.000055835               0.003891629               0.000202284              -0.000465514               0.001452368               0.000986854               0.000000000               0.000000000               0.000000000               0.000000000              -0.000023251               0.003852309               0.000106436              -0.000490256               0.001447509               0.000957253               0.000000000               0.000000000               0.000000000               0.000000000              -0.000084002               0.003820721               0.000048699              -0.000509089               0.001443257               0.000934168               0.000000000               0.000000000               0.000000000               0.000000000              -0.000376298               0.000417189               0.000390519              -0.000193260               0.000203481               0.000010221               0.000000000               0.000000000               0.000000000               0.000000000               0.000150066               0.001005724               0.000761376              -0.000069441               0.000358385               0.000288943               0.000000000               0.000000000               0.000000000               0.000000000               0.000412492               0.001731406               0.001048458              -0.000061742               0.000597710               0.000535968               0.000000000               0.000000000               0.000000000               0.000000000               0.000497037               0.002300761               0.001050739              -0.000101207               0.000800648               0.000699441               0.000000000               0.000000000               0.000000000               0.000000000               0.000506706               0.002721509               0.000976338              -0.000150175               0.000957219               0.000807044               0.000000000               0.000000000               0.000000000               0.000000000               0.000485284               0.003031023               0.000887180              -0.000196897               0.001075963               0.000879066               0.000000000               0.000000000               0.000000000               0.000000000               0.000460189               0.003260898               0.000791075              -0.000235041               0.001165302               0.000930261               0.000000000               0.000000000               0.000000000               0.000000000               0.000439987               0.003435977               0.000695823              -0.000264502               0.001233482               0.000968980               0.000000000               0.000000000               0.000000000               0.000000000               0.000420784               0.003568888               0.000607855              -0.000288316               0.001285723               0.000997406               0.000000000               0.000000000               0.000000000               0.000000000               0.000400229               0.003666060               0.000529408              -0.000308171               0.001324731               0.001016560               0.000000000               0.000000000               0.000000000               0.000000000               0.000377710               0.003731684               0.000461866              -0.000324819               0.001352155               0.001027336               0.000000000               0.000000000               0.000000000               0.000000000               0.000351723               0.003774168               0.000405262              -0.000339874               0.001371335               0.001031461               0.000000000               0.000000000               0.000000000               0.000000000               0.000321075               0.003804261               0.000350250              -0.000355129               0.001386451               0.001031322               0.000000000               0.000000000               0.000000000               0.000000000               0.000283115               0.003820952               0.000287192              -0.000371450               0.001397455               0.001026004               0.000000000               0.000000000               0.000000000               0.000000000               0.000236231               0.003825319               0.000210184              -0.000389577               0.001404953               0.001015375               0.000000000               0.000000000               0.000000000               0.000000000               0.000183729               0.003822287               0.000114017              -0.000408887               0.001410379               0.001001492               0.000000000               0.000000000               0.000000000               0.000000000               0.000144342               0.003811543               0.000057390              -0.000422314               0.001411273               0.000988959               0.000000000               0.000000000               0.000000000               0.000000000              -0.000746110               0.000166332               0.000200873              -0.000300583               0.000155637              -0.000144946               0.000000000               0.000000000               0.000000000               0.000000000              -0.000002145               0.000643556               0.000504033              -0.000081250               0.000241599               0.000160350               0.000000000               0.000000000               0.000000000               0.000000000               0.000463262               0.001250873               0.000754445               0.000017363               0.000411165               0.000428528               0.000000000               0.000000000               0.000000000               0.000000000               0.000628682               0.001803292               0.000783674               0.000010343               0.000597644               0.000607986               0.000000000               0.000000000               0.000000000               0.000000000               0.000671672               0.002250427               0.000746497              -0.000029427               0.000759944               0.000730517               0.000000000               0.000000000               0.000000000               0.000000000               0.000657520               0.002603728               0.000690856              -0.000078897               0.000894200               0.000815303               0.000000000               0.000000000               0.000000000               0.000000000               0.000619551               0.002882395               0.000624244              -0.000127968               0.001003445               0.000875477               0.000000000               0.000000000               0.000000000               0.000000000               0.000580181               0.003108664               0.000553968              -0.000171015               0.001093216               0.000922201               0.000000000               0.000000000               0.000000000               0.000000000               0.000545333               0.003292670               0.000486643              -0.000207084               0.001166573               0.000959490               0.000000000               0.000000000               0.000000000               0.000000000               0.000516131               0.003435313               0.000427152              -0.000235865               0.001223714               0.000987850               0.000000000               0.000000000               0.000000000               0.000000000               0.000491322               0.003542022               0.000377416              -0.000258507               0.001266831               0.001008324               0.000000000               0.000000000               0.000000000               0.000000000               0.000470672               0.003623156               0.000335311              -0.000276392               0.001299837               0.001023445               0.000000000               0.000000000               0.000000000               0.000000000               0.000453508               0.003687646               0.000293613              -0.000290890               0.001326166               0.001035277               0.000000000               0.000000000               0.000000000               0.000000000               0.000440410               0.003735256               0.000244587              -0.000301753               0.001345657               0.001043905               0.000000000               0.000000000               0.000000000               0.000000000               0.000432447               0.003768903               0.000182854              -0.000308944               0.001359270               0.001050326               0.000000000               0.000000000               0.000000000               0.000000000               0.000431826               0.003794709               0.000101488              -0.000312403               0.001369025               0.001056622               0.000000000               0.000000000               0.000000000               0.000000000               0.000433411               0.003804038               0.000053774              -0.000312975               0.001372325               0.001059350               0.000000000               0.000000000               0.000000000               0.000000000              -0.000996076               0.000036646               0.000078077              -0.000378109               0.000138251              -0.000239858               0.000000000               0.000000000               0.000000000               0.000000000              -0.000114623               0.000427757               0.000248003              -0.000096453               0.000174735               0.000078282               0.000000000               0.000000000               0.000000000               0.000000000               0.000491661               0.000942239               0.000394095               0.000066592               0.000291879               0.000358471               0.000000000               0.000000000               0.000000000               0.000000000               0.000725002               0.001470124               0.000419942               0.000088109               0.000460666               0.000548776               0.000000000               0.000000000               0.000000000               0.000000000               0.000796887               0.001924021               0.000407031               0.000058329               0.000621891               0.000680220               0.000000000               0.000000000               0.000000000               0.000000000               0.000784559               0.002299291               0.000380722               0.000006798               0.000764157               0.000770955               0.000000000               0.000000000               0.000000000               0.000000000               0.000736016               0.002611977               0.000346147              -0.000050491               0.000887481               0.000836990               0.000000000               0.000000000               0.000000000               0.000000000               0.000680920               0.002873235               0.000308342              -0.000103809               0.000992338               0.000888529               0.000000000               0.000000000               0.000000000               0.000000000               0.000633326               0.003089625               0.000272620              -0.000148706               0.001079433               0.000930727               0.000000000               0.000000000               0.000000000               0.000000000               0.000597907               0.003268029               0.000241407              -0.000184288               0.001150761               0.000966473               0.000000000               0.000000000               0.000000000               0.000000000               0.000571867               0.003409267               0.000215366              -0.000211708               0.001206980               0.000995272               0.000000000               0.000000000               0.000000000               0.000000000               0.000553650               0.003517663               0.000194032              -0.000232089               0.001249906               0.001017817               0.000000000               0.000000000               0.000000000               0.000000000               0.000546467               0.003606481               0.000172437              -0.000245884               0.001284110               0.001038225               0.000000000               0.000000000               0.000000000               0.000000000               0.000554103               0.003680501               0.000146496              -0.000252273               0.001310913               0.001058639               0.000000000               0.000000000               0.000000000               0.000000000               0.000580931               0.003737328               0.000112772              -0.000249316               0.001328869               0.001079553               0.000000000               0.000000000               0.000000000               0.000000000               0.000633434               0.003779074               0.000064522              -0.000234846               0.001337961               0.001103115               0.000000000               0.000000000               0.000000000               0.000000000               0.000684569               0.003802269               0.000036033              -0.000218570               0.001340267               0.001121697               0.000000000               0.000000000               0.000000000               0.000000000               0.000000000               0.000000000               0.000000000               0.000000000               0.000000000               0.000000000               0.000000000               0.000000000               0.000000000               0.000000000               0.000000000               0.000000000               0.000000000               0.000000000               0.000000000               0.000000000               0.000000000               0.000000000               0.000000000               0.000000000               0.000000000               0.000000000               0.000000000               0.000000000               0.000000000               0.000000000               0.000000000               0.000000000               0.000000000               0.000000000               0.000000000               0.000000000               0.000000000               0.000000000               0.000000000               0.000000000               0.000000000               0.000000000               0.000000000               0.000000000               0.000000000               0.000000000               0.000000000               0.000000000               0.000000000               0.000000000               0.000000000               0.000000000               0.000000000               0.000000000               0.000000000               0.000000000               0.000000000               0.000000000               0.000000000               0.000000000               0.000000000               0.000000000               0.000000000               0.000000000               0.000000000               0.000000000               0.000000000               0.000000000               0.000000000               0.000000000               0.000000000               0.000000000               0.000000000               0.000000000               0.000000000               0.000000000               0.000000000               0.000000000               0.000000000               0.000000000               0.000000000               0.000000000               0.000000000               0.000000000               0.000000000               0.000000000               0.000000000               0.000000000               0.000000000               0.000000000               0.000000000               0.000000000               0.000000000               0.000000000               0.000000000               0.000000000               0.000000000               0.000000000               0.000000000               0.000000000               0.000000000               0.000000000               0.000000000               0.000000000               0.000000000               0.000000000               0.000000000               0.000000000               0.000000000               0.000000000               0.000000000               0.000000000               0.000000000               0.000000000               0.000000000               0.000000000               0.000000000               0.000000000               0.000000000               0.000000000               0.000000000               0.000000000               0.000000000               0.000000000               0.000000000               0.000000000               0.000000000               0.000000000               0.000000000               0.000000000               0.000000000               0.000000000               0.000000000               0.000000000               0.000000000               0.000000000               0.000000000               0.000000000               0.000000000               0.000000000               0.000000000               0.000000000               0.000000000               0.000000000               0.000000000               0.000000000               0.000000000               0.000000000               0.000000000               0.000000000               0.000000000               0.000000000               0.000000000               0.000000000               0.000000000               0.000000000               0.000000000               0.000000000               0.000000000               0.000000000               0.000000000               0.000000000               0.000000000               0.000000000               0.000000000               0.000000000               0.000000000               0.000000000               0.000000000               0.000000000               0.000000000               0.000000000               0.000000000               0.000000000 </DataArray>
</PointData>
</Piece>
</UnstructuredGrid> </VTKFile>
