<?xml version="1.0"?>
<VTKFile type="UnstructuredGrid" version="0.1">
<UnstructuredGrid>
<Piece NumberOfPoints="      1156" NumberOfCells="      1024">
<Points>
<DataArray type="Float64"                                    Name="coordinates"                                                      NumberOfComponents=" 3" format="ascii">
              0.133000000               0.000000000               0.000000000               0.155937500               0.000000000               0.000000000               0.178875000               0.000000000               0.000000000               0.201812500               0.000000000               0.000000000               0.224750000               0.000000000               0.000000000               0.247687500               0.000000000               0.000000000               0.270625000               0.000000000               0.000000000               0.293562500               0.000000000               0.000000000               0.316500000               0.000000000               0.000000000               0.339437500               0.000000000               0.000000000               0.362375000               0.000000000               0.000000000               0.385312500               0.000000000               0.000000000               0.408250000               0.000000000               0.000000000               0.431187500               0.000000000               0.000000000               0.454125000               0.000000000               0.000000000               0.477062500               0.000000000               0.000000000               0.500000000               0.000000000               0.000000000               0.132359569               0.013036280               0.000000000               0.155337096               0.016127762               0.000000000               0.178314623               0.019219245               0.000000000               0.201292150               0.022310727               0.000000000               0.224269676               0.025402210               0.000000000               0.247247203               0.028493692               0.000000000               0.270224730               0.031585175               0.000000000               0.293202257               0.034676657               0.000000000               0.316179784               0.037768140               0.000000000               0.339157311               0.040859622               0.000000000               0.362134838               0.043951105               0.000000000               0.385112365               0.047042587               0.000000000               0.408089892               0.050134070               0.000000000               0.431067419               0.053225552               0.000000000               0.454044946               0.056317035               0.000000000               0.477022473               0.059408517               0.000000000               0.500000000               0.062500000               0.000000000               0.130444442               0.025947013               0.000000000               0.153541665               0.032137825               0.000000000               0.176638887               0.038328636               0.000000000               0.199736109               0.044519448               0.000000000               0.222833332               0.050710260               0.000000000               0.245930554               0.056901071               0.000000000               0.269027776               0.063091883               0.000000000               0.292124999               0.069282695               0.000000000               0.315222221               0.075473506               0.000000000               0.338319444               0.081664318               0.000000000               0.361416666               0.087855130               0.000000000               0.384513888               0.094045942               0.000000000               0.407611111               0.100236753               0.000000000               0.430708333               0.106427565               0.000000000               0.453805555               0.112618377               0.000000000               0.476902778               0.118809188               0.000000000               0.500000000               0.125000000               0.000000000               0.127273065               0.038607862               0.000000000               0.150568498               0.047913621               0.000000000               0.173863932               0.057219379               0.000000000               0.197159365               0.066525138               0.000000000               0.220454798               0.075830897               0.000000000               0.243750232               0.085136655               0.000000000               0.267045665               0.094442414               0.000000000               0.290341099               0.103748172               0.000000000               0.313636532               0.113053931               0.000000000               0.336931966               0.122359690               0.000000000               0.360227399               0.131665448               0.000000000               0.383522833               0.140971207               0.000000000               0.406818266               0.150276966               0.000000000               0.430113700               0.159582724               0.000000000               0.453409133               0.168888483               0.000000000               0.476704567               0.178194241               0.000000000               0.500000000               0.187500000               0.000000000               0.122875978               0.050896897               0.000000000               0.146446229               0.063340840               0.000000000               0.170016481               0.075784784               0.000000000               0.193586732               0.088228728               0.000000000               0.217156983               0.100672672               0.000000000               0.240727235               0.113116616               0.000000000               0.264297486               0.125560560               0.000000000               0.287867738               0.138004504               0.000000000               0.311437989               0.150448448               0.000000000               0.335008240               0.162892392               0.000000000               0.358578492               0.175336336               0.000000000               0.382148743               0.187780280               0.000000000               0.405718994               0.200224224               0.000000000               0.429289246               0.212668168               0.000000000               0.452859497               0.225112112               0.000000000               0.476429749               0.237556056               0.000000000               0.500000000               0.250000000               0.000000000               0.117295528               0.062695766               0.000000000               0.141214558               0.078308531               0.000000000               0.165133587               0.093921295               0.000000000               0.189052617               0.109534060               0.000000000               0.212971646               0.125146824               0.000000000               0.236890676               0.140759589               0.000000000               0.260809705               0.156372354               0.000000000               0.284728735               0.171985118               0.000000000               0.308647764               0.187597883               0.000000000               0.332566794               0.203210648               0.000000000               0.356485823               0.218823412               0.000000000               0.380404853               0.234436177               0.000000000               0.404323882               0.250048941               0.000000000               0.428242912               0.265661706               0.000000000               0.452161941               0.281274471               0.000000000               0.476080971               0.296887235               0.000000000               0.500000000               0.312500000               0.000000000               0.110585458               0.073890841               0.000000000               0.134923867               0.092710163               0.000000000               0.159262276               0.111529486               0.000000000               0.183600685               0.130348808               0.000000000               0.207939094               0.149168131               0.000000000               0.232277503               0.167987453               0.000000000               0.256615912               0.186806776               0.000000000               0.280954320               0.205626098               0.000000000               0.305292729               0.224445420               0.000000000               0.329631138               0.243264743               0.000000000               0.353969547               0.262084065               0.000000000               0.378307956               0.280903388               0.000000000               0.402646365               0.299722710               0.000000000               0.426984773               0.318542033               0.000000000               0.451323182               0.337361355               0.000000000               0.475661591               0.356180678               0.000000000               0.500000000               0.375000000               0.000000000               0.102810390               0.084374307               0.000000000               0.127634741               0.106444663               0.000000000               0.152459092               0.128515018               0.000000000               0.177283442               0.150585374               0.000000000               0.202107793               0.172655730               0.000000000               0.226932143               0.194726086               0.000000000               0.251756494               0.216796442               0.000000000               0.276580845               0.238866798               0.000000000               0.301405195               0.260937153               0.000000000               0.326229546               0.283007509               0.000000000               0.351053896               0.305077865               0.000000000               0.375878247               0.327148221               0.000000000               0.400702598               0.349218577               0.000000000               0.425526948               0.371288933               0.000000000               0.450351299               0.393359288               0.000000000               0.475175649               0.415429644               0.000000000               0.500000000               0.437500000               0.000000000               0.094045202               0.094045202               0.000000000               0.119417377               0.119417377               0.000000000               0.144789552               0.144789552               0.000000000               0.170161727               0.170161727               0.000000000               0.195533901               0.195533901               0.000000000               0.220906076               0.220906076               0.000000000               0.246278251               0.246278251               0.000000000               0.271650426               0.271650426               0.000000000               0.297022601               0.297022601               0.000000000               0.322394776               0.322394776               0.000000000               0.347766951               0.347766951               0.000000000               0.373139126               0.373139126               0.000000000               0.398511300               0.398511300               0.000000000               0.423883475               0.423883475               0.000000000               0.449255650               0.449255650               0.000000000               0.474627825               0.474627825               0.000000000               0.500000000               0.500000000               0.000000000               0.084374307               0.102810390               0.000000000               0.106444663               0.127634741               0.000000000               0.128515018               0.152459092               0.000000000               0.150585374               0.177283442               0.000000000               0.172655730               0.202107793               0.000000000               0.194726086               0.226932143               0.000000000               0.216796442               0.251756494               0.000000000               0.238866798               0.276580845               0.000000000               0.260937153               0.301405195               0.000000000               0.283007509               0.326229546               0.000000000               0.305077865               0.351053896               0.000000000               0.327148221               0.375878247               0.000000000               0.349218577               0.400702598               0.000000000               0.371288933               0.425526948               0.000000000               0.393359288               0.450351299               0.000000000               0.415429644               0.475175649               0.000000000               0.437500000               0.500000000               0.000000000               0.073890841               0.110585458               0.000000000               0.092710163               0.134923867               0.000000000               0.111529486               0.159262276               0.000000000               0.130348808               0.183600685               0.000000000               0.149168131               0.207939094               0.000000000               0.167987453               0.232277503               0.000000000               0.186806776               0.256615912               0.000000000               0.205626098               0.280954320               0.000000000               0.224445420               0.305292729               0.000000000               0.243264743               0.329631138               0.000000000               0.262084065               0.353969547               0.000000000               0.280903388               0.378307956               0.000000000               0.299722710               0.402646365               0.000000000               0.318542033               0.426984773               0.000000000               0.337361355               0.451323182               0.000000000               0.356180678               0.475661591               0.000000000               0.375000000               0.500000000               0.000000000               0.062695766               0.117295528               0.000000000               0.078308531               0.141214558               0.000000000               0.093921295               0.165133587               0.000000000               0.109534060               0.189052617               0.000000000               0.125146824               0.212971646               0.000000000               0.140759589               0.236890676               0.000000000               0.156372354               0.260809705               0.000000000               0.171985118               0.284728735               0.000000000               0.187597883               0.308647764               0.000000000               0.203210648               0.332566794               0.000000000               0.218823412               0.356485823               0.000000000               0.234436177               0.380404853               0.000000000               0.250048941               0.404323882               0.000000000               0.265661706               0.428242912               0.000000000               0.281274471               0.452161941               0.000000000               0.296887235               0.476080971               0.000000000               0.312500000               0.500000000               0.000000000               0.050896897               0.122875978               0.000000000               0.063340840               0.146446229               0.000000000               0.075784784               0.170016481               0.000000000               0.088228728               0.193586732               0.000000000               0.100672672               0.217156983               0.000000000               0.113116616               0.240727235               0.000000000               0.125560560               0.264297486               0.000000000               0.138004504               0.287867738               0.000000000               0.150448448               0.311437989               0.000000000               0.162892392               0.335008240               0.000000000               0.175336336               0.358578492               0.000000000               0.187780280               0.382148743               0.000000000               0.200224224               0.405718994               0.000000000               0.212668168               0.429289246               0.000000000               0.225112112               0.452859497               0.000000000               0.237556056               0.476429749               0.000000000               0.250000000               0.500000000               0.000000000               0.038607862               0.127273065               0.000000000               0.047913621               0.150568498               0.000000000               0.057219379               0.173863932               0.000000000               0.066525138               0.197159365               0.000000000               0.075830897               0.220454798               0.000000000               0.085136655               0.243750232               0.000000000               0.094442414               0.267045665               0.000000000               0.103748172               0.290341099               0.000000000               0.113053931               0.313636532               0.000000000               0.122359690               0.336931966               0.000000000               0.131665448               0.360227399               0.000000000               0.140971207               0.383522833               0.000000000               0.150276966               0.406818266               0.000000000               0.159582724               0.430113700               0.000000000               0.168888483               0.453409133               0.000000000               0.178194241               0.476704567               0.000000000               0.187500000               0.500000000               0.000000000               0.025947013               0.130444442               0.000000000               0.032137825               0.153541665               0.000000000               0.038328636               0.176638887               0.000000000               0.044519448               0.199736109               0.000000000               0.050710260               0.222833332               0.000000000               0.056901071               0.245930554               0.000000000               0.063091883               0.269027776               0.000000000               0.069282695               0.292124999               0.000000000               0.075473506               0.315222221               0.000000000               0.081664318               0.338319444               0.000000000               0.087855130               0.361416666               0.000000000               0.094045942               0.384513888               0.000000000               0.100236753               0.407611111               0.000000000               0.106427565               0.430708333               0.000000000               0.112618377               0.453805555               0.000000000               0.118809188               0.476902778               0.000000000               0.125000000               0.500000000               0.000000000               0.013036280               0.132359569               0.000000000               0.016127762               0.155337096               0.000000000               0.019219245               0.178314623               0.000000000               0.022310727               0.201292150               0.000000000               0.025402210               0.224269676               0.000000000               0.028493692               0.247247203               0.000000000               0.031585175               0.270224730               0.000000000               0.034676657               0.293202257               0.000000000               0.037768140               0.316179784               0.000000000               0.040859622               0.339157311               0.000000000               0.043951105               0.362134838               0.000000000               0.047042587               0.385112365               0.000000000               0.050134070               0.408089892               0.000000000               0.053225552               0.431067419               0.000000000               0.056317035               0.454044946               0.000000000               0.059408517               0.477022473               0.000000000               0.062500000               0.500000000               0.000000000               0.000000000               0.133000000               0.000000000               0.000000000               0.155937500               0.000000000               0.000000000               0.178875000               0.000000000               0.000000000               0.201812500               0.000000000               0.000000000               0.224750000               0.000000000               0.000000000               0.247687500               0.000000000               0.000000000               0.270625000               0.000000000               0.000000000               0.293562500               0.000000000               0.000000000               0.316500000               0.000000000               0.000000000               0.339437500               0.000000000               0.000000000               0.362375000               0.000000000               0.000000000               0.385312500               0.000000000               0.000000000               0.408250000               0.000000000               0.000000000               0.431187500               0.000000000               0.000000000               0.454125000               0.000000000               0.000000000               0.477062500               0.000000000               0.000000000               0.500000000               0.000000000               0.133000000               0.000000000               0.000000000               0.155937500               0.000000000               0.000000000               0.178875000               0.000000000               0.000000000               0.201812500               0.000000000               0.000000000               0.224750000               0.000000000               0.000000000               0.247687500               0.000000000               0.000000000               0.270625000               0.000000000               0.000000000               0.293562500               0.000000000               0.000000000               0.316500000               0.000000000               0.000000000               0.339437500               0.000000000               0.000000000               0.362375000               0.000000000               0.000000000               0.385312500               0.000000000               0.000000000               0.408250000               0.000000000               0.000000000               0.431187500               0.000000000               0.000000000               0.454125000               0.000000000               0.000000000               0.477062500               0.000000000               0.000000000               0.500000000               0.000000000               0.000000000               0.132359569              -0.013036280               0.000000000               0.155337096              -0.016127762               0.000000000               0.178314623              -0.019219245               0.000000000               0.201292150              -0.022310727               0.000000000               0.224269676              -0.025402210               0.000000000               0.247247203              -0.028493692               0.000000000               0.270224730              -0.031585175               0.000000000               0.293202257              -0.034676657               0.000000000               0.316179784              -0.037768140               0.000000000               0.339157311              -0.040859622               0.000000000               0.362134838              -0.043951105               0.000000000               0.385112365              -0.047042587               0.000000000               0.408089892              -0.050134070               0.000000000               0.431067419              -0.053225552               0.000000000               0.454044946              -0.056317035               0.000000000               0.477022473              -0.059408517               0.000000000               0.500000000              -0.062500000               0.000000000               0.130444442              -0.025947013               0.000000000               0.153541665              -0.032137825               0.000000000               0.176638887              -0.038328636               0.000000000               0.199736109              -0.044519448               0.000000000               0.222833332              -0.050710260               0.000000000               0.245930554              -0.056901071               0.000000000               0.269027776              -0.063091883               0.000000000               0.292124999              -0.069282695               0.000000000               0.315222221              -0.075473506               0.000000000               0.338319444              -0.081664318               0.000000000               0.361416666              -0.087855130               0.000000000               0.384513888              -0.094045942               0.000000000               0.407611111              -0.100236753               0.000000000               0.430708333              -0.106427565               0.000000000               0.453805555              -0.112618377               0.000000000               0.476902778              -0.118809188               0.000000000               0.500000000              -0.125000000               0.000000000               0.127273065              -0.038607862               0.000000000               0.150568498              -0.047913621               0.000000000               0.173863932              -0.057219379               0.000000000               0.197159365              -0.066525138               0.000000000               0.220454798              -0.075830897               0.000000000               0.243750232              -0.085136655               0.000000000               0.267045665              -0.094442414               0.000000000               0.290341099              -0.103748172               0.000000000               0.313636532              -0.113053931               0.000000000               0.336931966              -0.122359690               0.000000000               0.360227399              -0.131665448               0.000000000               0.383522833              -0.140971207               0.000000000               0.406818266              -0.150276966               0.000000000               0.430113700              -0.159582724               0.000000000               0.453409133              -0.168888483               0.000000000               0.476704567              -0.178194241               0.000000000               0.500000000              -0.187500000               0.000000000               0.122875978              -0.050896897               0.000000000               0.146446229              -0.063340840               0.000000000               0.170016481              -0.075784784               0.000000000               0.193586732              -0.088228728               0.000000000               0.217156983              -0.100672672               0.000000000               0.240727235              -0.113116616               0.000000000               0.264297486              -0.125560560               0.000000000               0.287867738              -0.138004504               0.000000000               0.311437989              -0.150448448               0.000000000               0.335008240              -0.162892392               0.000000000               0.358578492              -0.175336336               0.000000000               0.382148743              -0.187780280               0.000000000               0.405718994              -0.200224224               0.000000000               0.429289246              -0.212668168               0.000000000               0.452859497              -0.225112112               0.000000000               0.476429749              -0.237556056               0.000000000               0.500000000              -0.250000000               0.000000000               0.117295528              -0.062695766               0.000000000               0.141214558              -0.078308531               0.000000000               0.165133587              -0.093921295               0.000000000               0.189052617              -0.109534060               0.000000000               0.212971646              -0.125146824               0.000000000               0.236890676              -0.140759589               0.000000000               0.260809705              -0.156372354               0.000000000               0.284728735              -0.171985118               0.000000000               0.308647764              -0.187597883               0.000000000               0.332566794              -0.203210648               0.000000000               0.356485823              -0.218823412               0.000000000               0.380404853              -0.234436177               0.000000000               0.404323882              -0.250048941               0.000000000               0.428242912              -0.265661706               0.000000000               0.452161941              -0.281274471               0.000000000               0.476080971              -0.296887235               0.000000000               0.500000000              -0.312500000               0.000000000               0.110585458              -0.073890841               0.000000000               0.134923867              -0.092710163               0.000000000               0.159262276              -0.111529486               0.000000000               0.183600685              -0.130348808               0.000000000               0.207939094              -0.149168131               0.000000000               0.232277503              -0.167987453               0.000000000               0.256615912              -0.186806776               0.000000000               0.280954320              -0.205626098               0.000000000               0.305292729              -0.224445420               0.000000000               0.329631138              -0.243264743               0.000000000               0.353969547              -0.262084065               0.000000000               0.378307956              -0.280903388               0.000000000               0.402646365              -0.299722710               0.000000000               0.426984773              -0.318542033               0.000000000               0.451323182              -0.337361355               0.000000000               0.475661591              -0.356180678               0.000000000               0.500000000              -0.375000000               0.000000000               0.102810390              -0.084374307               0.000000000               0.127634741              -0.106444663               0.000000000               0.152459092              -0.128515018               0.000000000               0.177283442              -0.150585374               0.000000000               0.202107793              -0.172655730               0.000000000               0.226932143              -0.194726086               0.000000000               0.251756494              -0.216796442               0.000000000               0.276580845              -0.238866798               0.000000000               0.301405195              -0.260937153               0.000000000               0.326229546              -0.283007509               0.000000000               0.351053896              -0.305077865               0.000000000               0.375878247              -0.327148221               0.000000000               0.400702598              -0.349218577               0.000000000               0.425526948              -0.371288933               0.000000000               0.450351299              -0.393359288               0.000000000               0.475175649              -0.415429644               0.000000000               0.500000000              -0.437500000               0.000000000               0.094045202              -0.094045202               0.000000000               0.119417377              -0.119417377               0.000000000               0.144789552              -0.144789552               0.000000000               0.170161727              -0.170161727               0.000000000               0.195533901              -0.195533901               0.000000000               0.220906076              -0.220906076               0.000000000               0.246278251              -0.246278251               0.000000000               0.271650426              -0.271650426               0.000000000               0.297022601              -0.297022601               0.000000000               0.322394776              -0.322394776               0.000000000               0.347766951              -0.347766951               0.000000000               0.373139126              -0.373139126               0.000000000               0.398511300              -0.398511300               0.000000000               0.423883475              -0.423883475               0.000000000               0.449255650              -0.449255650               0.000000000               0.474627825              -0.474627825               0.000000000               0.500000000              -0.500000000               0.000000000               0.084374307              -0.102810390               0.000000000               0.106444663              -0.127634741               0.000000000               0.128515018              -0.152459092               0.000000000               0.150585374              -0.177283442               0.000000000               0.172655730              -0.202107793               0.000000000               0.194726086              -0.226932143               0.000000000               0.216796442              -0.251756494               0.000000000               0.238866798              -0.276580845               0.000000000               0.260937153              -0.301405195               0.000000000               0.283007509              -0.326229546               0.000000000               0.305077865              -0.351053896               0.000000000               0.327148221              -0.375878247               0.000000000               0.349218577              -0.400702598               0.000000000               0.371288933              -0.425526948               0.000000000               0.393359288              -0.450351299               0.000000000               0.415429644              -0.475175649               0.000000000               0.437500000              -0.500000000               0.000000000               0.073890841              -0.110585458               0.000000000               0.092710163              -0.134923867               0.000000000               0.111529486              -0.159262276               0.000000000               0.130348808              -0.183600685               0.000000000               0.149168131              -0.207939094               0.000000000               0.167987453              -0.232277503               0.000000000               0.186806776              -0.256615912               0.000000000               0.205626098              -0.280954320               0.000000000               0.224445420              -0.305292729               0.000000000               0.243264743              -0.329631138               0.000000000               0.262084065              -0.353969547               0.000000000               0.280903388              -0.378307956               0.000000000               0.299722710              -0.402646365               0.000000000               0.318542033              -0.426984773               0.000000000               0.337361355              -0.451323182               0.000000000               0.356180678              -0.475661591               0.000000000               0.375000000              -0.500000000               0.000000000               0.062695766              -0.117295528               0.000000000               0.078308531              -0.141214558               0.000000000               0.093921295              -0.165133587               0.000000000               0.109534060              -0.189052617               0.000000000               0.125146824              -0.212971646               0.000000000               0.140759589              -0.236890676               0.000000000               0.156372354              -0.260809705               0.000000000               0.171985118              -0.284728735               0.000000000               0.187597883              -0.308647764               0.000000000               0.203210648              -0.332566794               0.000000000               0.218823412              -0.356485823               0.000000000               0.234436177              -0.380404853               0.000000000               0.250048941              -0.404323882               0.000000000               0.265661706              -0.428242912               0.000000000               0.281274471              -0.452161941               0.000000000               0.296887235              -0.476080971               0.000000000               0.312500000              -0.500000000               0.000000000               0.050896897              -0.122875978               0.000000000               0.063340840              -0.146446229               0.000000000               0.075784784              -0.170016481               0.000000000               0.088228728              -0.193586732               0.000000000               0.100672672              -0.217156983               0.000000000               0.113116616              -0.240727235               0.000000000               0.125560560              -0.264297486               0.000000000               0.138004504              -0.287867738               0.000000000               0.150448448              -0.311437989               0.000000000               0.162892392              -0.335008240               0.000000000               0.175336336              -0.358578492               0.000000000               0.187780280              -0.382148743               0.000000000               0.200224224              -0.405718994               0.000000000               0.212668168              -0.429289246               0.000000000               0.225112112              -0.452859497               0.000000000               0.237556056              -0.476429749               0.000000000               0.250000000              -0.500000000               0.000000000               0.038607862              -0.127273065               0.000000000               0.047913621              -0.150568498               0.000000000               0.057219379              -0.173863932               0.000000000               0.066525138              -0.197159365               0.000000000               0.075830897              -0.220454798               0.000000000               0.085136655              -0.243750232               0.000000000               0.094442414              -0.267045665               0.000000000               0.103748172              -0.290341099               0.000000000               0.113053931              -0.313636532               0.000000000               0.122359690              -0.336931966               0.000000000               0.131665448              -0.360227399               0.000000000               0.140971207              -0.383522833               0.000000000               0.150276966              -0.406818266               0.000000000               0.159582724              -0.430113700               0.000000000               0.168888483              -0.453409133               0.000000000               0.178194241              -0.476704567               0.000000000               0.187500000              -0.500000000               0.000000000               0.025947013              -0.130444442               0.000000000               0.032137825              -0.153541665               0.000000000               0.038328636              -0.176638887               0.000000000               0.044519448              -0.199736109               0.000000000               0.050710260              -0.222833332               0.000000000               0.056901071              -0.245930554               0.000000000               0.063091883              -0.269027776               0.000000000               0.069282695              -0.292124999               0.000000000               0.075473506              -0.315222221               0.000000000               0.081664318              -0.338319444               0.000000000               0.087855130              -0.361416666               0.000000000               0.094045942              -0.384513888               0.000000000               0.100236753              -0.407611111               0.000000000               0.106427565              -0.430708333               0.000000000               0.112618377              -0.453805555               0.000000000               0.118809188              -0.476902778               0.000000000               0.125000000              -0.500000000               0.000000000               0.013036280              -0.132359569               0.000000000               0.016127762              -0.155337096               0.000000000               0.019219245              -0.178314623               0.000000000               0.022310727              -0.201292150               0.000000000               0.025402210              -0.224269676               0.000000000               0.028493692              -0.247247203               0.000000000               0.031585175              -0.270224730               0.000000000               0.034676657              -0.293202257               0.000000000               0.037768140              -0.316179784               0.000000000               0.040859622              -0.339157311               0.000000000               0.043951105              -0.362134838               0.000000000               0.047042587              -0.385112365               0.000000000               0.050134070              -0.408089892               0.000000000               0.053225552              -0.431067419               0.000000000               0.056317035              -0.454044946               0.000000000               0.059408517              -0.477022473               0.000000000               0.062500000              -0.500000000               0.000000000               0.000000000              -0.133000000               0.000000000               0.000000000              -0.155937500               0.000000000               0.000000000              -0.178875000               0.000000000               0.000000000              -0.201812500               0.000000000               0.000000000              -0.224750000               0.000000000               0.000000000              -0.247687500               0.000000000               0.000000000              -0.270625000               0.000000000               0.000000000              -0.293562500               0.000000000               0.000000000              -0.316500000               0.000000000               0.000000000              -0.339437500               0.000000000               0.000000000              -0.362375000               0.000000000               0.000000000              -0.385312500               0.000000000               0.000000000              -0.408250000               0.000000000               0.000000000              -0.431187500               0.000000000               0.000000000              -0.454125000               0.000000000               0.000000000              -0.477062500               0.000000000               0.000000000              -0.500000000               0.000000000              -0.133000000               0.000000000               0.000000000              -0.155937500               0.000000000               0.000000000              -0.178875000               0.000000000               0.000000000              -0.201812500               0.000000000               0.000000000              -0.224750000               0.000000000               0.000000000              -0.247687500               0.000000000               0.000000000              -0.270625000               0.000000000               0.000000000              -0.293562500               0.000000000               0.000000000              -0.316500000               0.000000000               0.000000000              -0.339437500               0.000000000               0.000000000              -0.362375000               0.000000000               0.000000000              -0.385312500               0.000000000               0.000000000              -0.408250000               0.000000000               0.000000000              -0.431187500               0.000000000               0.000000000              -0.454125000               0.000000000               0.000000000              -0.477062500               0.000000000               0.000000000              -0.500000000               0.000000000               0.000000000              -0.132359569              -0.013036280               0.000000000              -0.155337096              -0.016127762               0.000000000              -0.178314623              -0.019219245               0.000000000              -0.201292150              -0.022310727               0.000000000              -0.224269676              -0.025402210               0.000000000              -0.247247203              -0.028493692               0.000000000              -0.270224730              -0.031585175               0.000000000              -0.293202257              -0.034676657               0.000000000              -0.316179784              -0.037768140               0.000000000              -0.339157311              -0.040859622               0.000000000              -0.362134838              -0.043951105               0.000000000              -0.385112365              -0.047042587               0.000000000              -0.408089892              -0.050134070               0.000000000              -0.431067419              -0.053225552               0.000000000              -0.454044946              -0.056317035               0.000000000              -0.477022473              -0.059408517               0.000000000              -0.500000000              -0.062500000               0.000000000              -0.130444442              -0.025947013               0.000000000              -0.153541665              -0.032137825               0.000000000              -0.176638887              -0.038328636               0.000000000              -0.199736109              -0.044519448               0.000000000              -0.222833332              -0.050710260               0.000000000              -0.245930554              -0.056901071               0.000000000              -0.269027776              -0.063091883               0.000000000              -0.292124999              -0.069282695               0.000000000              -0.315222221              -0.075473506               0.000000000              -0.338319444              -0.081664318               0.000000000              -0.361416666              -0.087855130               0.000000000              -0.384513888              -0.094045942               0.000000000              -0.407611111              -0.100236753               0.000000000              -0.430708333              -0.106427565               0.000000000              -0.453805555              -0.112618377               0.000000000              -0.476902778              -0.118809188               0.000000000              -0.500000000              -0.125000000               0.000000000              -0.127273065              -0.038607862               0.000000000              -0.150568498              -0.047913621               0.000000000              -0.173863932              -0.057219379               0.000000000              -0.197159365              -0.066525138               0.000000000              -0.220454798              -0.075830897               0.000000000              -0.243750232              -0.085136655               0.000000000              -0.267045665              -0.094442414               0.000000000              -0.290341099              -0.103748172               0.000000000              -0.313636532              -0.113053931               0.000000000              -0.336931966              -0.122359690               0.000000000              -0.360227399              -0.131665448               0.000000000              -0.383522833              -0.140971207               0.000000000              -0.406818266              -0.150276966               0.000000000              -0.430113700              -0.159582724               0.000000000              -0.453409133              -0.168888483               0.000000000              -0.476704567              -0.178194241               0.000000000              -0.500000000              -0.187500000               0.000000000              -0.122875978              -0.050896897               0.000000000              -0.146446229              -0.063340840               0.000000000              -0.170016481              -0.075784784               0.000000000              -0.193586732              -0.088228728               0.000000000              -0.217156983              -0.100672672               0.000000000              -0.240727235              -0.113116616               0.000000000              -0.264297486              -0.125560560               0.000000000              -0.287867738              -0.138004504               0.000000000              -0.311437989              -0.150448448               0.000000000              -0.335008240              -0.162892392               0.000000000              -0.358578492              -0.175336336               0.000000000              -0.382148743              -0.187780280               0.000000000              -0.405718994              -0.200224224               0.000000000              -0.429289246              -0.212668168               0.000000000              -0.452859497              -0.225112112               0.000000000              -0.476429749              -0.237556056               0.000000000              -0.500000000              -0.250000000               0.000000000              -0.117295528              -0.062695766               0.000000000              -0.141214558              -0.078308531               0.000000000              -0.165133587              -0.093921295               0.000000000              -0.189052617              -0.109534060               0.000000000              -0.212971646              -0.125146824               0.000000000              -0.236890676              -0.140759589               0.000000000              -0.260809705              -0.156372354               0.000000000              -0.284728735              -0.171985118               0.000000000              -0.308647764              -0.187597883               0.000000000              -0.332566794              -0.203210648               0.000000000              -0.356485823              -0.218823412               0.000000000              -0.380404853              -0.234436177               0.000000000              -0.404323882              -0.250048941               0.000000000              -0.428242912              -0.265661706               0.000000000              -0.452161941              -0.281274471               0.000000000              -0.476080971              -0.296887235               0.000000000              -0.500000000              -0.312500000               0.000000000              -0.110585458              -0.073890841               0.000000000              -0.134923867              -0.092710163               0.000000000              -0.159262276              -0.111529486               0.000000000              -0.183600685              -0.130348808               0.000000000              -0.207939094              -0.149168131               0.000000000              -0.232277503              -0.167987453               0.000000000              -0.256615912              -0.186806776               0.000000000              -0.280954320              -0.205626098               0.000000000              -0.305292729              -0.224445420               0.000000000              -0.329631138              -0.243264743               0.000000000              -0.353969547              -0.262084065               0.000000000              -0.378307956              -0.280903388               0.000000000              -0.402646365              -0.299722710               0.000000000              -0.426984773              -0.318542033               0.000000000              -0.451323182              -0.337361355               0.000000000              -0.475661591              -0.356180678               0.000000000              -0.500000000              -0.375000000               0.000000000              -0.102810390              -0.084374307               0.000000000              -0.127634741              -0.106444663               0.000000000              -0.152459092              -0.128515018               0.000000000              -0.177283442              -0.150585374               0.000000000              -0.202107793              -0.172655730               0.000000000              -0.226932143              -0.194726086               0.000000000              -0.251756494              -0.216796442               0.000000000              -0.276580845              -0.238866798               0.000000000              -0.301405195              -0.260937153               0.000000000              -0.326229546              -0.283007509               0.000000000              -0.351053896              -0.305077865               0.000000000              -0.375878247              -0.327148221               0.000000000              -0.400702598              -0.349218577               0.000000000              -0.425526948              -0.371288933               0.000000000              -0.450351299              -0.393359288               0.000000000              -0.475175649              -0.415429644               0.000000000              -0.500000000              -0.437500000               0.000000000              -0.094045202              -0.094045202               0.000000000              -0.119417377              -0.119417377               0.000000000              -0.144789552              -0.144789552               0.000000000              -0.170161727              -0.170161727               0.000000000              -0.195533901              -0.195533901               0.000000000              -0.220906076              -0.220906076               0.000000000              -0.246278251              -0.246278251               0.000000000              -0.271650426              -0.271650426               0.000000000              -0.297022601              -0.297022601               0.000000000              -0.322394776              -0.322394776               0.000000000              -0.347766951              -0.347766951               0.000000000              -0.373139126              -0.373139126               0.000000000              -0.398511300              -0.398511300               0.000000000              -0.423883475              -0.423883475               0.000000000              -0.449255650              -0.449255650               0.000000000              -0.474627825              -0.474627825               0.000000000              -0.500000000              -0.500000000               0.000000000              -0.084374307              -0.102810390               0.000000000              -0.106444663              -0.127634741               0.000000000              -0.128515018              -0.152459092               0.000000000              -0.150585374              -0.177283442               0.000000000              -0.172655730              -0.202107793               0.000000000              -0.194726086              -0.226932143               0.000000000              -0.216796442              -0.251756494               0.000000000              -0.238866798              -0.276580845               0.000000000              -0.260937153              -0.301405195               0.000000000              -0.283007509              -0.326229546               0.000000000              -0.305077865              -0.351053896               0.000000000              -0.327148221              -0.375878247               0.000000000              -0.349218577              -0.400702598               0.000000000              -0.371288933              -0.425526948               0.000000000              -0.393359288              -0.450351299               0.000000000              -0.415429644              -0.475175649               0.000000000              -0.437500000              -0.500000000               0.000000000              -0.073890841              -0.110585458               0.000000000              -0.092710163              -0.134923867               0.000000000              -0.111529486              -0.159262276               0.000000000              -0.130348808              -0.183600685               0.000000000              -0.149168131              -0.207939094               0.000000000              -0.167987453              -0.232277503               0.000000000              -0.186806776              -0.256615912               0.000000000              -0.205626098              -0.280954320               0.000000000              -0.224445420              -0.305292729               0.000000000              -0.243264743              -0.329631138               0.000000000              -0.262084065              -0.353969547               0.000000000              -0.280903388              -0.378307956               0.000000000              -0.299722710              -0.402646365               0.000000000              -0.318542033              -0.426984773               0.000000000              -0.337361355              -0.451323182               0.000000000              -0.356180678              -0.475661591               0.000000000              -0.375000000              -0.500000000               0.000000000              -0.062695766              -0.117295528               0.000000000              -0.078308531              -0.141214558               0.000000000              -0.093921295              -0.165133587               0.000000000              -0.109534060              -0.189052617               0.000000000              -0.125146824              -0.212971646               0.000000000              -0.140759589              -0.236890676               0.000000000              -0.156372354              -0.260809705               0.000000000              -0.171985118              -0.284728735               0.000000000              -0.187597883              -0.308647764               0.000000000              -0.203210648              -0.332566794               0.000000000              -0.218823412              -0.356485823               0.000000000              -0.234436177              -0.380404853               0.000000000              -0.250048941              -0.404323882               0.000000000              -0.265661706              -0.428242912               0.000000000              -0.281274471              -0.452161941               0.000000000              -0.296887235              -0.476080971               0.000000000              -0.312500000              -0.500000000               0.000000000              -0.050896897              -0.122875978               0.000000000              -0.063340840              -0.146446229               0.000000000              -0.075784784              -0.170016481               0.000000000              -0.088228728              -0.193586732               0.000000000              -0.100672672              -0.217156983               0.000000000              -0.113116616              -0.240727235               0.000000000              -0.125560560              -0.264297486               0.000000000              -0.138004504              -0.287867738               0.000000000              -0.150448448              -0.311437989               0.000000000              -0.162892392              -0.335008240               0.000000000              -0.175336336              -0.358578492               0.000000000              -0.187780280              -0.382148743               0.000000000              -0.200224224              -0.405718994               0.000000000              -0.212668168              -0.429289246               0.000000000              -0.225112112              -0.452859497               0.000000000              -0.237556056              -0.476429749               0.000000000              -0.250000000              -0.500000000               0.000000000              -0.038607862              -0.127273065               0.000000000              -0.047913621              -0.150568498               0.000000000              -0.057219379              -0.173863932               0.000000000              -0.066525138              -0.197159365               0.000000000              -0.075830897              -0.220454798               0.000000000              -0.085136655              -0.243750232               0.000000000              -0.094442414              -0.267045665               0.000000000              -0.103748172              -0.290341099               0.000000000              -0.113053931              -0.313636532               0.000000000              -0.122359690              -0.336931966               0.000000000              -0.131665448              -0.360227399               0.000000000              -0.140971207              -0.383522833               0.000000000              -0.150276966              -0.406818266               0.000000000              -0.159582724              -0.430113700               0.000000000              -0.168888483              -0.453409133               0.000000000              -0.178194241              -0.476704567               0.000000000              -0.187500000              -0.500000000               0.000000000              -0.025947013              -0.130444442               0.000000000              -0.032137825              -0.153541665               0.000000000              -0.038328636              -0.176638887               0.000000000              -0.044519448              -0.199736109               0.000000000              -0.050710260              -0.222833332               0.000000000              -0.056901071              -0.245930554               0.000000000              -0.063091883              -0.269027776               0.000000000              -0.069282695              -0.292124999               0.000000000              -0.075473506              -0.315222221               0.000000000              -0.081664318              -0.338319444               0.000000000              -0.087855130              -0.361416666               0.000000000              -0.094045942              -0.384513888               0.000000000              -0.100236753              -0.407611111               0.000000000              -0.106427565              -0.430708333               0.000000000              -0.112618377              -0.453805555               0.000000000              -0.118809188              -0.476902778               0.000000000              -0.125000000              -0.500000000               0.000000000              -0.013036280              -0.132359569               0.000000000              -0.016127762              -0.155337096               0.000000000              -0.019219245              -0.178314623               0.000000000              -0.022310727              -0.201292150               0.000000000              -0.025402210              -0.224269676               0.000000000              -0.028493692              -0.247247203               0.000000000              -0.031585175              -0.270224730               0.000000000              -0.034676657              -0.293202257               0.000000000              -0.037768140              -0.316179784               0.000000000              -0.040859622              -0.339157311               0.000000000              -0.043951105              -0.362134838               0.000000000              -0.047042587              -0.385112365               0.000000000              -0.050134070              -0.408089892               0.000000000              -0.053225552              -0.431067419               0.000000000              -0.056317035              -0.454044946               0.000000000              -0.059408517              -0.477022473               0.000000000              -0.062500000              -0.500000000               0.000000000               0.000000000              -0.133000000               0.000000000               0.000000000              -0.155937500               0.000000000               0.000000000              -0.178875000               0.000000000               0.000000000              -0.201812500               0.000000000               0.000000000              -0.224750000               0.000000000               0.000000000              -0.247687500               0.000000000               0.000000000              -0.270625000               0.000000000               0.000000000              -0.293562500               0.000000000               0.000000000              -0.316500000               0.000000000               0.000000000              -0.339437500               0.000000000               0.000000000              -0.362375000               0.000000000               0.000000000              -0.385312500               0.000000000               0.000000000              -0.408250000               0.000000000               0.000000000              -0.431187500               0.000000000               0.000000000              -0.454125000               0.000000000               0.000000000              -0.477062500               0.000000000               0.000000000              -0.500000000               0.000000000              -0.133000000               0.000000000               0.000000000              -0.155937500               0.000000000               0.000000000              -0.178875000               0.000000000               0.000000000              -0.201812500               0.000000000               0.000000000              -0.224750000               0.000000000               0.000000000              -0.247687500               0.000000000               0.000000000              -0.270625000               0.000000000               0.000000000              -0.293562500               0.000000000               0.000000000              -0.316500000               0.000000000               0.000000000              -0.339437500               0.000000000               0.000000000              -0.362375000               0.000000000               0.000000000              -0.385312500               0.000000000               0.000000000              -0.408250000               0.000000000               0.000000000              -0.431187500               0.000000000               0.000000000              -0.454125000               0.000000000               0.000000000              -0.477062500               0.000000000               0.000000000              -0.500000000               0.000000000               0.000000000              -0.132359569               0.013036280               0.000000000              -0.155337096               0.016127762               0.000000000              -0.178314623               0.019219245               0.000000000              -0.201292150               0.022310727               0.000000000              -0.224269676               0.025402210               0.000000000              -0.247247203               0.028493692               0.000000000              -0.270224730               0.031585175               0.000000000              -0.293202257               0.034676657               0.000000000              -0.316179784               0.037768140               0.000000000              -0.339157311               0.040859622               0.000000000              -0.362134838               0.043951105               0.000000000              -0.385112365               0.047042587               0.000000000              -0.408089892               0.050134070               0.000000000              -0.431067419               0.053225552               0.000000000              -0.454044946               0.056317035               0.000000000              -0.477022473               0.059408517               0.000000000              -0.500000000               0.062500000               0.000000000              -0.130444442               0.025947013               0.000000000              -0.153541665               0.032137825               0.000000000              -0.176638887               0.038328636               0.000000000              -0.199736109               0.044519448               0.000000000              -0.222833332               0.050710260               0.000000000              -0.245930554               0.056901071               0.000000000              -0.269027776               0.063091883               0.000000000              -0.292124999               0.069282695               0.000000000              -0.315222221               0.075473506               0.000000000              -0.338319444               0.081664318               0.000000000              -0.361416666               0.087855130               0.000000000              -0.384513888               0.094045942               0.000000000              -0.407611111               0.100236753               0.000000000              -0.430708333               0.106427565               0.000000000              -0.453805555               0.112618377               0.000000000              -0.476902778               0.118809188               0.000000000              -0.500000000               0.125000000               0.000000000              -0.127273065               0.038607862               0.000000000              -0.150568498               0.047913621               0.000000000              -0.173863932               0.057219379               0.000000000              -0.197159365               0.066525138               0.000000000              -0.220454798               0.075830897               0.000000000              -0.243750232               0.085136655               0.000000000              -0.267045665               0.094442414               0.000000000              -0.290341099               0.103748172               0.000000000              -0.313636532               0.113053931               0.000000000              -0.336931966               0.122359690               0.000000000              -0.360227399               0.131665448               0.000000000              -0.383522833               0.140971207               0.000000000              -0.406818266               0.150276966               0.000000000              -0.430113700               0.159582724               0.000000000              -0.453409133               0.168888483               0.000000000              -0.476704567               0.178194241               0.000000000              -0.500000000               0.187500000               0.000000000              -0.122875978               0.050896897               0.000000000              -0.146446229               0.063340840               0.000000000              -0.170016481               0.075784784               0.000000000              -0.193586732               0.088228728               0.000000000              -0.217156983               0.100672672               0.000000000              -0.240727235               0.113116616               0.000000000              -0.264297486               0.125560560               0.000000000              -0.287867738               0.138004504               0.000000000              -0.311437989               0.150448448               0.000000000              -0.335008240               0.162892392               0.000000000              -0.358578492               0.175336336               0.000000000              -0.382148743               0.187780280               0.000000000              -0.405718994               0.200224224               0.000000000              -0.429289246               0.212668168               0.000000000              -0.452859497               0.225112112               0.000000000              -0.476429749               0.237556056               0.000000000              -0.500000000               0.250000000               0.000000000              -0.117295528               0.062695766               0.000000000              -0.141214558               0.078308531               0.000000000              -0.165133587               0.093921295               0.000000000              -0.189052617               0.109534060               0.000000000              -0.212971646               0.125146824               0.000000000              -0.236890676               0.140759589               0.000000000              -0.260809705               0.156372354               0.000000000              -0.284728735               0.171985118               0.000000000              -0.308647764               0.187597883               0.000000000              -0.332566794               0.203210648               0.000000000              -0.356485823               0.218823412               0.000000000              -0.380404853               0.234436177               0.000000000              -0.404323882               0.250048941               0.000000000              -0.428242912               0.265661706               0.000000000              -0.452161941               0.281274471               0.000000000              -0.476080971               0.296887235               0.000000000              -0.500000000               0.312500000               0.000000000              -0.110585458               0.073890841               0.000000000              -0.134923867               0.092710163               0.000000000              -0.159262276               0.111529486               0.000000000              -0.183600685               0.130348808               0.000000000              -0.207939094               0.149168131               0.000000000              -0.232277503               0.167987453               0.000000000              -0.256615912               0.186806776               0.000000000              -0.280954320               0.205626098               0.000000000              -0.305292729               0.224445420               0.000000000              -0.329631138               0.243264743               0.000000000              -0.353969547               0.262084065               0.000000000              -0.378307956               0.280903388               0.000000000              -0.402646365               0.299722710               0.000000000              -0.426984773               0.318542033               0.000000000              -0.451323182               0.337361355               0.000000000              -0.475661591               0.356180678               0.000000000              -0.500000000               0.375000000               0.000000000              -0.102810390               0.084374307               0.000000000              -0.127634741               0.106444663               0.000000000              -0.152459092               0.128515018               0.000000000              -0.177283442               0.150585374               0.000000000              -0.202107793               0.172655730               0.000000000              -0.226932143               0.194726086               0.000000000              -0.251756494               0.216796442               0.000000000              -0.276580845               0.238866798               0.000000000              -0.301405195               0.260937153               0.000000000              -0.326229546               0.283007509               0.000000000              -0.351053896               0.305077865               0.000000000              -0.375878247               0.327148221               0.000000000              -0.400702598               0.349218577               0.000000000              -0.425526948               0.371288933               0.000000000              -0.450351299               0.393359288               0.000000000              -0.475175649               0.415429644               0.000000000              -0.500000000               0.437500000               0.000000000              -0.094045202               0.094045202               0.000000000              -0.119417377               0.119417377               0.000000000              -0.144789552               0.144789552               0.000000000              -0.170161727               0.170161727               0.000000000              -0.195533901               0.195533901               0.000000000              -0.220906076               0.220906076               0.000000000              -0.246278251               0.246278251               0.000000000              -0.271650426               0.271650426               0.000000000              -0.297022601               0.297022601               0.000000000              -0.322394776               0.322394776               0.000000000              -0.347766951               0.347766951               0.000000000              -0.373139126               0.373139126               0.000000000              -0.398511300               0.398511300               0.000000000              -0.423883475               0.423883475               0.000000000              -0.449255650               0.449255650               0.000000000              -0.474627825               0.474627825               0.000000000              -0.500000000               0.500000000               0.000000000              -0.084374307               0.102810390               0.000000000              -0.106444663               0.127634741               0.000000000              -0.128515018               0.152459092               0.000000000              -0.150585374               0.177283442               0.000000000              -0.172655730               0.202107793               0.000000000              -0.194726086               0.226932143               0.000000000              -0.216796442               0.251756494               0.000000000              -0.238866798               0.276580845               0.000000000              -0.260937153               0.301405195               0.000000000              -0.283007509               0.326229546               0.000000000              -0.305077865               0.351053896               0.000000000              -0.327148221               0.375878247               0.000000000              -0.349218577               0.400702598               0.000000000              -0.371288933               0.425526948               0.000000000              -0.393359288               0.450351299               0.000000000              -0.415429644               0.475175649               0.000000000              -0.437500000               0.500000000               0.000000000              -0.073890841               0.110585458               0.000000000              -0.092710163               0.134923867               0.000000000              -0.111529486               0.159262276               0.000000000              -0.130348808               0.183600685               0.000000000              -0.149168131               0.207939094               0.000000000              -0.167987453               0.232277503               0.000000000              -0.186806776               0.256615912               0.000000000              -0.205626098               0.280954320               0.000000000              -0.224445420               0.305292729               0.000000000              -0.243264743               0.329631138               0.000000000              -0.262084065               0.353969547               0.000000000              -0.280903388               0.378307956               0.000000000              -0.299722710               0.402646365               0.000000000              -0.318542033               0.426984773               0.000000000              -0.337361355               0.451323182               0.000000000              -0.356180678               0.475661591               0.000000000              -0.375000000               0.500000000               0.000000000              -0.062695766               0.117295528               0.000000000              -0.078308531               0.141214558               0.000000000              -0.093921295               0.165133587               0.000000000              -0.109534060               0.189052617               0.000000000              -0.125146824               0.212971646               0.000000000              -0.140759589               0.236890676               0.000000000              -0.156372354               0.260809705               0.000000000              -0.171985118               0.284728735               0.000000000              -0.187597883               0.308647764               0.000000000              -0.203210648               0.332566794               0.000000000              -0.218823412               0.356485823               0.000000000              -0.234436177               0.380404853               0.000000000              -0.250048941               0.404323882               0.000000000              -0.265661706               0.428242912               0.000000000              -0.281274471               0.452161941               0.000000000              -0.296887235               0.476080971               0.000000000              -0.312500000               0.500000000               0.000000000              -0.050896897               0.122875978               0.000000000              -0.063340840               0.146446229               0.000000000              -0.075784784               0.170016481               0.000000000              -0.088228728               0.193586732               0.000000000              -0.100672672               0.217156983               0.000000000              -0.113116616               0.240727235               0.000000000              -0.125560560               0.264297486               0.000000000              -0.138004504               0.287867738               0.000000000              -0.150448448               0.311437989               0.000000000              -0.162892392               0.335008240               0.000000000              -0.175336336               0.358578492               0.000000000              -0.187780280               0.382148743               0.000000000              -0.200224224               0.405718994               0.000000000              -0.212668168               0.429289246               0.000000000              -0.225112112               0.452859497               0.000000000              -0.237556056               0.476429749               0.000000000              -0.250000000               0.500000000               0.000000000              -0.038607862               0.127273065               0.000000000              -0.047913621               0.150568498               0.000000000              -0.057219379               0.173863932               0.000000000              -0.066525138               0.197159365               0.000000000              -0.075830897               0.220454798               0.000000000              -0.085136655               0.243750232               0.000000000              -0.094442414               0.267045665               0.000000000              -0.103748172               0.290341099               0.000000000              -0.113053931               0.313636532               0.000000000              -0.122359690               0.336931966               0.000000000              -0.131665448               0.360227399               0.000000000              -0.140971207               0.383522833               0.000000000              -0.150276966               0.406818266               0.000000000              -0.159582724               0.430113700               0.000000000              -0.168888483               0.453409133               0.000000000              -0.178194241               0.476704567               0.000000000              -0.187500000               0.500000000               0.000000000              -0.025947013               0.130444442               0.000000000              -0.032137825               0.153541665               0.000000000              -0.038328636               0.176638887               0.000000000              -0.044519448               0.199736109               0.000000000              -0.050710260               0.222833332               0.000000000              -0.056901071               0.245930554               0.000000000              -0.063091883               0.269027776               0.000000000              -0.069282695               0.292124999               0.000000000              -0.075473506               0.315222221               0.000000000              -0.081664318               0.338319444               0.000000000              -0.087855130               0.361416666               0.000000000              -0.094045942               0.384513888               0.000000000              -0.100236753               0.407611111               0.000000000              -0.106427565               0.430708333               0.000000000              -0.112618377               0.453805555               0.000000000              -0.118809188               0.476902778               0.000000000              -0.125000000               0.500000000               0.000000000              -0.013036280               0.132359569               0.000000000              -0.016127762               0.155337096               0.000000000              -0.019219245               0.178314623               0.000000000              -0.022310727               0.201292150               0.000000000              -0.025402210               0.224269676               0.000000000              -0.028493692               0.247247203               0.000000000              -0.031585175               0.270224730               0.000000000              -0.034676657               0.293202257               0.000000000              -0.037768140               0.316179784               0.000000000              -0.040859622               0.339157311               0.000000000              -0.043951105               0.362134838               0.000000000              -0.047042587               0.385112365               0.000000000              -0.050134070               0.408089892               0.000000000              -0.053225552               0.431067419               0.000000000              -0.056317035               0.454044946               0.000000000              -0.059408517               0.477022473               0.000000000              -0.062500000               0.500000000               0.000000000               0.000000000               0.133000000               0.000000000               0.000000000               0.155937500               0.000000000               0.000000000               0.178875000               0.000000000               0.000000000               0.201812500               0.000000000               0.000000000               0.224750000               0.000000000               0.000000000               0.247687500               0.000000000               0.000000000               0.270625000               0.000000000               0.000000000               0.293562500               0.000000000               0.000000000               0.316500000               0.000000000               0.000000000               0.339437500               0.000000000               0.000000000               0.362375000               0.000000000               0.000000000               0.385312500               0.000000000               0.000000000               0.408250000               0.000000000               0.000000000               0.431187500               0.000000000               0.000000000               0.454125000               0.000000000               0.000000000               0.477062500               0.000000000               0.000000000               0.500000000               0.000000000 </DataArray>
</Points>
<Cells>
<DataArray type="Int32"                                    Name="connectivity"                                                      NumberOfComponents=" 1" format="ascii">
         0          1         18         17          1          2         19         18          2          3         20         19          3          4         21         20          4          5         22         21          5          6         23         22          6          7         24         23          7          8         25         24          8          9         26         25          9         10         27         26         10         11         28         27         11         12         29         28         12         13         30         29         13         14         31         30         14         15         32         31         15         16         33         32         17         18         35         34         18         19         36         35         19         20         37         36         20         21         38         37         21         22         39         38         22         23         40         39         23         24         41         40         24         25         42         41         25         26         43         42         26         27         44         43         27         28         45         44         28         29         46         45         29         30         47         46         30         31         48         47         31         32         49         48         32         33         50         49         34         35         52         51         35         36         53         52         36         37         54         53         37         38         55         54         38         39         56         55         39         40         57         56         40         41         58         57         41         42         59         58         42         43         60         59         43         44         61         60         44         45         62         61         45         46         63         62         46         47         64         63         47         48         65         64         48         49         66         65         49         50         67         66         51         52         69         68         52         53         70         69         53         54         71         70         54         55         72         71         55         56         73         72         56         57         74         73         57         58         75         74         58         59         76         75         59         60         77         76         60         61         78         77         61         62         79         78         62         63         80         79         63         64         81         80         64         65         82         81         65         66         83         82         66         67         84         83         68         69         86         85         69         70         87         86         70         71         88         87         71         72         89         88         72         73         90         89         73         74         91         90         74         75         92         91         75         76         93         92         76         77         94         93         77         78         95         94         78         79         96         95         79         80         97         96         80         81         98         97         81         82         99         98         82         83        100         99         83         84        101        100         85         86        103        102         86         87        104        103         87         88        105        104         88         89        106        105         89         90        107        106         90         91        108        107         91         92        109        108         92         93        110        109         93         94        111        110         94         95        112        111         95         96        113        112         96         97        114        113         97         98        115        114         98         99        116        115         99        100        117        116        100        101        118        117        102        103        120        119        103        104        121        120        104        105        122        121        105        106        123        122        106        107        124        123        107        108        125        124        108        109        126        125        109        110        127        126        110        111        128        127        111        112        129        128        112        113        130        129        113        114        131        130        114        115        132        131        115        116        133        132        116        117        134        133        117        118        135        134        119        120        137        136        120        121        138        137        121        122        139        138        122        123        140        139        123        124        141        140        124        125        142        141        125        126        143        142        126        127        144        143        127        128        145        144        128        129        146        145        129        130        147        146        130        131        148        147        131        132        149        148        132        133        150        149        133        134        151        150        134        135        152        151        136        137        154        153        137        138        155        154        138        139        156        155        139        140        157        156        140        141        158        157        141        142        159        158        142        143        160        159        143        144        161        160        144        145        162        161        145        146        163        162        146        147        164        163        147        148        165        164        148        149        166        165        149        150        167        166        150        151        168        167        151        152        169        168        153        154        171        170        154        155        172        171        155        156        173        172        156        157        174        173        157        158        175        174        158        159        176        175        159        160        177        176        160        161        178        177        161        162        179        178        162        163        180        179        163        164        181        180        164        165        182        181        165        166        183        182        166        167        184        183        167        168        185        184        168        169        186        185        170        171        188        187        171        172        189        188        172        173        190        189        173        174        191        190        174        175        192        191        175        176        193        192        176        177        194        193        177        178        195        194        178        179        196        195        179        180        197        196        180        181        198        197        181        182        199        198        182        183        200        199        183        184        201        200        184        185        202        201        185        186        203        202        187        188        205        204        188        189        206        205        189        190        207        206        190        191        208        207        191        192        209        208        192        193        210        209        193        194        211        210        194        195        212        211        195        196        213        212        196        197        214        213        197        198        215        214        198        199        216        215        199        200        217        216        200        201        218        217        201        202        219        218        202        203        220        219        204        205        222        221        205        206        223        222        206        207        224        223        207        208        225        224        208        209        226        225        209        210        227        226        210        211        228        227        211        212        229        228        212        213        230        229        213        214        231        230        214        215        232        231        215        216        233        232        216        217        234        233        217        218        235        234        218        219        236        235        219        220        237        236        221        222        239        238        222        223        240        239        223        224        241        240        224        225        242        241        225        226        243        242        226        227        244        243        227        228        245        244        228        229        246        245        229        230        247        246        230        231        248        247        231        232        249        248        232        233        250        249        233        234        251        250        234        235        252        251        235        236        253        252        236        237        254        253        238        239        256        255        239        240        257        256        240        241        258        257        241        242        259        258        242        243        260        259        243        244        261        260        244        245        262        261        245        246        263        262        246        247        264        263        247        248        265        264        248        249        266        265        249        250        267        266        250        251        268        267        251        252        269        268        252        253        270        269        253        254        271        270        255        256        273        272        256        257        274        273        257        258        275        274        258        259        276        275        259        260        277        276        260        261        278        277        261        262        279        278        262        263        280        279        263        264        281        280        264        265        282        281        265        266        283        282        266        267        284        283        267        268        285        284        268        269        286        285        269        270        287        286        270        271        288        287        306        307          1          0        307        308          2          1        308        309          3          2        309        310          4          3        310        311          5          4        311        312          6          5        312        313          7          6        313        314          8          7        314        315          9          8        315        316         10          9        316        317         11         10        317        318         12         11        318        319         13         12        319        320         14         13        320        321         15         14        321        322         16         15        323        324        307        306        324        325        308        307        325        326        309        308        326        327        310        309        327        328        311        310        328        329        312        311        329        330        313        312        330        331        314        313        331        332        315        314        332        333        316        315        333        334        317        316        334        335        318        317        335        336        319        318        336        337        320        319        337        338        321        320        338        339        322        321        340        341        324        323        341        342        325        324        342        343        326        325        343        344        327        326        344        345        328        327        345        346        329        328        346        347        330        329        347        348        331        330        348        349        332        331        349        350        333        332        350        351        334        333        351        352        335        334        352        353        336        335        353        354        337        336        354        355        338        337        355        356        339        338        357        358        341        340        358        359        342        341        359        360        343        342        360        361        344        343        361        362        345        344        362        363        346        345        363        364        347        346        364        365        348        347        365        366        349        348        366        367        350        349        367        368        351        350        368        369        352        351        369        370        353        352        370        371        354        353        371        372        355        354        372        373        356        355        374        375        358        357        375        376        359        358        376        377        360        359        377        378        361        360        378        379        362        361        379        380        363        362        380        381        364        363        381        382        365        364        382        383        366        365        383        384        367        366        384        385        368        367        385        386        369        368        386        387        370        369        387        388        371        370        388        389        372        371        389        390        373        372        391        392        375        374        392        393        376        375        393        394        377        376        394        395        378        377        395        396        379        378        396        397        380        379        397        398        381        380        398        399        382        381        399        400        383        382        400        401        384        383        401        402        385        384        402        403        386        385        403        404        387        386        404        405        388        387        405        406        389        388        406        407        390        389        408        409        392        391        409        410        393        392        410        411        394        393        411        412        395        394        412        413        396        395        413        414        397        396        414        415        398        397        415        416        399        398        416        417        400        399        417        418        401        400        418        419        402        401        419        420        403        402        420        421        404        403        421        422        405        404        422        423        406        405        423        424        407        406        425        426        409        408        426        427        410        409        427        428        411        410        428        429        412        411        429        430        413        412        430        431        414        413        431        432        415        414        432        433        416        415        433        434        417        416        434        435        418        417        435        436        419        418        436        437        420        419        437        438        421        420        438        439        422        421        439        440        423        422        440        441        424        423        442        443        426        425        443        444        427        426        444        445        428        427        445        446        429        428        446        447        430        429        447        448        431        430        448        449        432        431        449        450        433        432        450        451        434        433        451        452        435        434        452        453        436        435        453        454        437        436        454        455        438        437        455        456        439        438        456        457        440        439        457        458        441        440        459        460        443        442        460        461        444        443        461        462        445        444        462        463        446        445        463        464        447        446        464        465        448        447        465        466        449        448        466        467        450        449        467        468        451        450        468        469        452        451        469        470        453        452        470        471        454        453        471        472        455        454        472        473        456        455        473        474        457        456        474        475        458        457        476        477        460        459        477        478        461        460        478        479        462        461        479        480        463        462        480        481        464        463        481        482        465        464        482        483        466        465        483        484        467        466        484        485        468        467        485        486        469        468        486        487        470        469        487        488        471        470        488        489        472        471        489        490        473        472        490        491        474        473        491        492        475        474        493        494        477        476        494        495        478        477        495        496        479        478        496        497        480        479        497        498        481        480        498        499        482        481        499        500        483        482        500        501        484        483        501        502        485        484        502        503        486        485        503        504        487        486        504        505        488        487        505        506        489        488        506        507        490        489        507        508        491        490        508        509        492        491        510        511        494        493        511        512        495        494        512        513        496        495        513        514        497        496        514        515        498        497        515        516        499        498        516        517        500        499        517        518        501        500        518        519        502        501        519        520        503        502        520        521        504        503        521        522        505        504        522        523        506        505        523        524        507        506        524        525        508        507        525        526        509        508        527        528        511        510        528        529        512        511        529        530        513        512        530        531        514        513        531        532        515        514        532        533        516        515        533        534        517        516        534        535        518        517        535        536        519        518        536        537        520        519        537        538        521        520        538        539        522        521        539        540        523        522        540        541        524        523        541        542        525        524        542        543        526        525        544        545        528        527        545        546        529        528        546        547        530        529        547        548        531        530        548        549        532        531        549        550        533        532        550        551        534        533        551        552        535        534        552        553        536        535        553        554        537        536        554        555        538        537        555        556        539        538        556        557        540        539        557        558        541        540        558        559        542        541        559        560        543        542        561        562        545        544        562        563        546        545        563        564        547        546        564        565        548        547        565        566        549        548        566        567        550        549        567        568        551        550        568        569        552        551        569        570        553        552        570        571        554        553        571        572        555        554        572        573        556        555        573        574        557        556        574        575        558        557        575        576        559        558        576        577        560        559        578        579        596        595        579        580        597        596        580        581        598        597        581        582        599        598        582        583        600        599        583        584        601        600        584        585        602        601        585        586        603        602        586        587        604        603        587        588        605        604        588        589        606        605        589        590        607        606        590        591        608        607        591        592        609        608        592        593        610        609        593        594        611        610        595        596        613        612        596        597        614        613        597        598        615        614        598        599        616        615        599        600        617        616        600        601        618        617        601        602        619        618        602        603        620        619        603        604        621        620        604        605        622        621        605        606        623        622        606        607        624        623        607        608        625        624        608        609        626        625        609        610        627        626        610        611        628        627        612        613        630        629        613        614        631        630        614        615        632        631        615        616        633        632        616        617        634        633        617        618        635        634        618        619        636        635        619        620        637        636        620        621        638        637        621        622        639        638        622        623        640        639        623        624        641        640        624        625        642        641        625        626        643        642        626        627        644        643        627        628        645        644        629        630        647        646        630        631        648        647        631        632        649        648        632        633        650        649        633        634        651        650        634        635        652        651        635        636        653        652        636        637        654        653        637        638        655        654        638        639        656        655        639        640        657        656        640        641        658        657        641        642        659        658        642        643        660        659        643        644        661        660        644        645        662        661        646        647        664        663        647        648        665        664        648        649        666        665        649        650        667        666        650        651        668        667        651        652        669        668        652        653        670        669        653        654        671        670        654        655        672        671        655        656        673        672        656        657        674        673        657        658        675        674        658        659        676        675        659        660        677        676        660        661        678        677        661        662        679        678        663        664        681        680        664        665        682        681        665        666        683        682        666        667        684        683        667        668        685        684        668        669        686        685        669        670        687        686        670        671        688        687        671        672        689        688        672        673        690        689        673        674        691        690        674        675        692        691        675        676        693        692        676        677        694        693        677        678        695        694        678        679        696        695        680        681        698        697        681        682        699        698        682        683        700        699        683        684        701        700        684        685        702        701        685        686        703        702        686        687        704        703        687        688        705        704        688        689        706        705        689        690        707        706        690        691        708        707        691        692        709        708        692        693        710        709        693        694        711        710        694        695        712        711        695        696        713        712        697        698        715        714        698        699        716        715        699        700        717        716        700        701        718        717        701        702        719        718        702        703        720        719        703        704        721        720        704        705        722        721        705        706        723        722        706        707        724        723        707        708        725        724        708        709        726        725        709        710        727        726        710        711        728        727        711        712        729        728        712        713        730        729        714        715        732        731        715        716        733        732        716        717        734        733        717        718        735        734        718        719        736        735        719        720        737        736        720        721        738        737        721        722        739        738        722        723        740        739        723        724        741        740        724        725        742        741        725        726        743        742        726        727        744        743        727        728        745        744        728        729        746        745        729        730        747        746        731        732        749        748        732        733        750        749        733        734        751        750        734        735        752        751        735        736        753        752        736        737        754        753        737        738        755        754        738        739        756        755        739        740        757        756        740        741        758        757        741        742        759        758        742        743        760        759        743        744        761        760        744        745        762        761        745        746        763        762        746        747        764        763        748        749        766        765        749        750        767        766        750        751        768        767        751        752        769        768        752        753        770        769        753        754        771        770        754        755        772        771        755        756        773        772        756        757        774        773        757        758        775        774        758        759        776        775        759        760        777        776        760        761        778        777        761        762        779        778        762        763        780        779        763        764        781        780        765        766        783        782        766        767        784        783        767        768        785        784        768        769        786        785        769        770        787        786        770        771        788        787        771        772        789        788        772        773        790        789        773        774        791        790        774        775        792        791        775        776        793        792        776        777        794        793        777        778        795        794        778        779        796        795        779        780        797        796        780        781        798        797        782        783        800        799        783        784        801        800        784        785        802        801        785        786        803        802        786        787        804        803        787        788        805        804        788        789        806        805        789        790        807        806        790        791        808        807        791        792        809        808        792        793        810        809        793        794        811        810        794        795        812        811        795        796        813        812        796        797        814        813        797        798        815        814        799        800        817        816        800        801        818        817        801        802        819        818        802        803        820        819        803        804        821        820        804        805        822        821        805        806        823        822        806        807        824        823        807        808        825        824        808        809        826        825        809        810        827        826        810        811        828        827        811        812        829        828        812        813        830        829        813        814        831        830        814        815        832        831        816        817        834        833        817        818        835        834        818        819        836        835        819        820        837        836        820        821        838        837        821        822        839        838        822        823        840        839        823        824        841        840        824        825        842        841        825        826        843        842        826        827        844        843        827        828        845        844        828        829        846        845        829        830        847        846        830        831        848        847        831        832        849        848        833        834        562        561        834        835        563        562        835        836        564        563        836        837        565        564        837        838        566        565        838        839        567        566        839        840        568        567        840        841        569        568        841        842        570        569        842        843        571        570        843        844        572        571        844        845        573        572        845        846        574        573        846        847        575        574        847        848        576        575        848        849        577        576        884        885        579        578        885        886        580        579        886        887        581        580        887        888        582        581        888        889        583        582        889        890        584        583        890        891        585        584        891        892        586        585        892        893        587        586        893        894        588        587        894        895        589        588        895        896        590        589        896        897        591        590        897        898        592        591        898        899        593        592        899        900        594        593        901        902        885        884        902        903        886        885        903        904        887        886        904        905        888        887        905        906        889        888        906        907        890        889        907        908        891        890        908        909        892        891        909        910        893        892        910        911        894        893        911        912        895        894        912        913        896        895        913        914        897        896        914        915        898        897        915        916        899        898        916        917        900        899        918        919        902        901        919        920        903        902        920        921        904        903        921        922        905        904        922        923        906        905        923        924        907        906        924        925        908        907        925        926        909        908        926        927        910        909        927        928        911        910        928        929        912        911        929        930        913        912        930        931        914        913        931        932        915        914        932        933        916        915        933        934        917        916        935        936        919        918        936        937        920        919        937        938        921        920        938        939        922        921        939        940        923        922        940        941        924        923        941        942        925        924        942        943        926        925        943        944        927        926        944        945        928        927        945        946        929        928        946        947        930        929        947        948        931        930        948        949        932        931        949        950        933        932        950        951        934        933        952        953        936        935        953        954        937        936        954        955        938        937        955        956        939        938        956        957        940        939        957        958        941        940        958        959        942        941        959        960        943        942        960        961        944        943        961        962        945        944        962        963        946        945        963        964        947        946        964        965        948        947        965        966        949        948        966        967        950        949        967        968        951        950        969        970        953        952        970        971        954        953        971        972        955        954        972        973        956        955        973        974        957        956        974        975        958        957        975        976        959        958        976        977        960        959        977        978        961        960        978        979        962        961        979        980        963        962        980        981        964        963        981        982        965        964        982        983        966        965        983        984        967        966        984        985        968        967        986        987        970        969        987        988        971        970        988        989        972        971        989        990        973        972        990        991        974        973        991        992        975        974        992        993        976        975        993        994        977        976        994        995        978        977        995        996        979        978        996        997        980        979        997        998        981        980        998        999        982        981        999       1000        983        982       1000       1001        984        983       1001       1002        985        984       1003       1004        987        986       1004       1005        988        987       1005       1006        989        988       1006       1007        990        989       1007       1008        991        990       1008       1009        992        991       1009       1010        993        992       1010       1011        994        993       1011       1012        995        994       1012       1013        996        995       1013       1014        997        996       1014       1015        998        997       1015       1016        999        998       1016       1017       1000        999       1017       1018       1001       1000       1018       1019       1002       1001       1020       1021       1004       1003       1021       1022       1005       1004       1022       1023       1006       1005       1023       1024       1007       1006       1024       1025       1008       1007       1025       1026       1009       1008       1026       1027       1010       1009       1027       1028       1011       1010       1028       1029       1012       1011       1029       1030       1013       1012       1030       1031       1014       1013       1031       1032       1015       1014       1032       1033       1016       1015       1033       1034       1017       1016       1034       1035       1018       1017       1035       1036       1019       1018       1037       1038       1021       1020       1038       1039       1022       1021       1039       1040       1023       1022       1040       1041       1024       1023       1041       1042       1025       1024       1042       1043       1026       1025       1043       1044       1027       1026       1044       1045       1028       1027       1045       1046       1029       1028       1046       1047       1030       1029       1047       1048       1031       1030       1048       1049       1032       1031       1049       1050       1033       1032       1050       1051       1034       1033       1051       1052       1035       1034       1052       1053       1036       1035       1054       1055       1038       1037       1055       1056       1039       1038       1056       1057       1040       1039       1057       1058       1041       1040       1058       1059       1042       1041       1059       1060       1043       1042       1060       1061       1044       1043       1061       1062       1045       1044       1062       1063       1046       1045       1063       1064       1047       1046       1064       1065       1048       1047       1065       1066       1049       1048       1066       1067       1050       1049       1067       1068       1051       1050       1068       1069       1052       1051       1069       1070       1053       1052       1071       1072       1055       1054       1072       1073       1056       1055       1073       1074       1057       1056       1074       1075       1058       1057       1075       1076       1059       1058       1076       1077       1060       1059       1077       1078       1061       1060       1078       1079       1062       1061       1079       1080       1063       1062       1080       1081       1064       1063       1081       1082       1065       1064       1082       1083       1066       1065       1083       1084       1067       1066       1084       1085       1068       1067       1085       1086       1069       1068       1086       1087       1070       1069       1088       1089       1072       1071       1089       1090       1073       1072       1090       1091       1074       1073       1091       1092       1075       1074       1092       1093       1076       1075       1093       1094       1077       1076       1094       1095       1078       1077       1095       1096       1079       1078       1096       1097       1080       1079       1097       1098       1081       1080       1098       1099       1082       1081       1099       1100       1083       1082       1100       1101       1084       1083       1101       1102       1085       1084       1102       1103       1086       1085       1103       1104       1087       1086       1105       1106       1089       1088       1106       1107       1090       1089       1107       1108       1091       1090       1108       1109       1092       1091       1109       1110       1093       1092       1110       1111       1094       1093       1111       1112       1095       1094       1112       1113       1096       1095       1113       1114       1097       1096       1114       1115       1098       1097       1115       1116       1099       1098       1116       1117       1100       1099       1117       1118       1101       1100       1118       1119       1102       1101       1119       1120       1103       1102       1120       1121       1104       1103       1122       1123       1106       1105       1123       1124       1107       1106       1124       1125       1108       1107       1125       1126       1109       1108       1126       1127       1110       1109       1127       1128       1111       1110       1128       1129       1112       1111       1129       1130       1113       1112       1130       1131       1114       1113       1131       1132       1115       1114       1132       1133       1116       1115       1133       1134       1117       1116       1134       1135       1118       1117       1135       1136       1119       1118       1136       1137       1120       1119       1137       1138       1121       1120        272        273       1123       1122        273        274       1124       1123        274        275       1125       1124        275        276       1126       1125        276        277       1127       1126        277        278       1128       1127        278        279       1129       1128        279        280       1130       1129        280        281       1131       1130        281        282       1132       1131        282        283       1133       1132        283        284       1134       1133        284        285       1135       1134        285        286       1136       1135        286        287       1137       1136        287        288       1138       1137 </DataArray>
<DataArray type="Int32"                                    Name="offsets"                                                      NumberOfComponents=" 1" format="ascii">
         4          8         12         16         20         24         28         32         36         40         44         48         52         56         60         64         68         72         76         80         84         88         92         96        100        104        108        112        116        120        124        128        132        136        140        144        148        152        156        160        164        168        172        176        180        184        188        192        196        200        204        208        212        216        220        224        228        232        236        240        244        248        252        256        260        264        268        272        276        280        284        288        292        296        300        304        308        312        316        320        324        328        332        336        340        344        348        352        356        360        364        368        372        376        380        384        388        392        396        400        404        408        412        416        420        424        428        432        436        440        444        448        452        456        460        464        468        472        476        480        484        488        492        496        500        504        508        512        516        520        524        528        532        536        540        544        548        552        556        560        564        568        572        576        580        584        588        592        596        600        604        608        612        616        620        624        628        632        636        640        644        648        652        656        660        664        668        672        676        680        684        688        692        696        700        704        708        712        716        720        724        728        732        736        740        744        748        752        756        760        764        768        772        776        780        784        788        792        796        800        804        808        812        816        820        824        828        832        836        840        844        848        852        856        860        864        868        872        876        880        884        888        892        896        900        904        908        912        916        920        924        928        932        936        940        944        948        952        956        960        964        968        972        976        980        984        988        992        996       1000       1004       1008       1012       1016       1020       1024       1028       1032       1036       1040       1044       1048       1052       1056       1060       1064       1068       1072       1076       1080       1084       1088       1092       1096       1100       1104       1108       1112       1116       1120       1124       1128       1132       1136       1140       1144       1148       1152       1156       1160       1164       1168       1172       1176       1180       1184       1188       1192       1196       1200       1204       1208       1212       1216       1220       1224       1228       1232       1236       1240       1244       1248       1252       1256       1260       1264       1268       1272       1276       1280       1284       1288       1292       1296       1300       1304       1308       1312       1316       1320       1324       1328       1332       1336       1340       1344       1348       1352       1356       1360       1364       1368       1372       1376       1380       1384       1388       1392       1396       1400       1404       1408       1412       1416       1420       1424       1428       1432       1436       1440       1444       1448       1452       1456       1460       1464       1468       1472       1476       1480       1484       1488       1492       1496       1500       1504       1508       1512       1516       1520       1524       1528       1532       1536       1540       1544       1548       1552       1556       1560       1564       1568       1572       1576       1580       1584       1588       1592       1596       1600       1604       1608       1612       1616       1620       1624       1628       1632       1636       1640       1644       1648       1652       1656       1660       1664       1668       1672       1676       1680       1684       1688       1692       1696       1700       1704       1708       1712       1716       1720       1724       1728       1732       1736       1740       1744       1748       1752       1756       1760       1764       1768       1772       1776       1780       1784       1788       1792       1796       1800       1804       1808       1812       1816       1820       1824       1828       1832       1836       1840       1844       1848       1852       1856       1860       1864       1868       1872       1876       1880       1884       1888       1892       1896       1900       1904       1908       1912       1916       1920       1924       1928       1932       1936       1940       1944       1948       1952       1956       1960       1964       1968       1972       1976       1980       1984       1988       1992       1996       2000       2004       2008       2012       2016       2020       2024       2028       2032       2036       2040       2044       2048       2052       2056       2060       2064       2068       2072       2076       2080       2084       2088       2092       2096       2100       2104       2108       2112       2116       2120       2124       2128       2132       2136       2140       2144       2148       2152       2156       2160       2164       2168       2172       2176       2180       2184       2188       2192       2196       2200       2204       2208       2212       2216       2220       2224       2228       2232       2236       2240       2244       2248       2252       2256       2260       2264       2268       2272       2276       2280       2284       2288       2292       2296       2300       2304       2308       2312       2316       2320       2324       2328       2332       2336       2340       2344       2348       2352       2356       2360       2364       2368       2372       2376       2380       2384       2388       2392       2396       2400       2404       2408       2412       2416       2420       2424       2428       2432       2436       2440       2444       2448       2452       2456       2460       2464       2468       2472       2476       2480       2484       2488       2492       2496       2500       2504       2508       2512       2516       2520       2524       2528       2532       2536       2540       2544       2548       2552       2556       2560       2564       2568       2572       2576       2580       2584       2588       2592       2596       2600       2604       2608       2612       2616       2620       2624       2628       2632       2636       2640       2644       2648       2652       2656       2660       2664       2668       2672       2676       2680       2684       2688       2692       2696       2700       2704       2708       2712       2716       2720       2724       2728       2732       2736       2740       2744       2748       2752       2756       2760       2764       2768       2772       2776       2780       2784       2788       2792       2796       2800       2804       2808       2812       2816       2820       2824       2828       2832       2836       2840       2844       2848       2852       2856       2860       2864       2868       2872       2876       2880       2884       2888       2892       2896       2900       2904       2908       2912       2916       2920       2924       2928       2932       2936       2940       2944       2948       2952       2956       2960       2964       2968       2972       2976       2980       2984       2988       2992       2996       3000       3004       3008       3012       3016       3020       3024       3028       3032       3036       3040       3044       3048       3052       3056       3060       3064       3068       3072       3076       3080       3084       3088       3092       3096       3100       3104       3108       3112       3116       3120       3124       3128       3132       3136       3140       3144       3148       3152       3156       3160       3164       3168       3172       3176       3180       3184       3188       3192       3196       3200       3204       3208       3212       3216       3220       3224       3228       3232       3236       3240       3244       3248       3252       3256       3260       3264       3268       3272       3276       3280       3284       3288       3292       3296       3300       3304       3308       3312       3316       3320       3324       3328       3332       3336       3340       3344       3348       3352       3356       3360       3364       3368       3372       3376       3380       3384       3388       3392       3396       3400       3404       3408       3412       3416       3420       3424       3428       3432       3436       3440       3444       3448       3452       3456       3460       3464       3468       3472       3476       3480       3484       3488       3492       3496       3500       3504       3508       3512       3516       3520       3524       3528       3532       3536       3540       3544       3548       3552       3556       3560       3564       3568       3572       3576       3580       3584       3588       3592       3596       3600       3604       3608       3612       3616       3620       3624       3628       3632       3636       3640       3644       3648       3652       3656       3660       3664       3668       3672       3676       3680       3684       3688       3692       3696       3700       3704       3708       3712       3716       3720       3724       3728       3732       3736       3740       3744       3748       3752       3756       3760       3764       3768       3772       3776       3780       3784       3788       3792       3796       3800       3804       3808       3812       3816       3820       3824       3828       3832       3836       3840       3844       3848       3852       3856       3860       3864       3868       3872       3876       3880       3884       3888       3892       3896       3900       3904       3908       3912       3916       3920       3924       3928       3932       3936       3940       3944       3948       3952       3956       3960       3964       3968       3972       3976       3980       3984       3988       3992       3996       4000       4004       4008       4012       4016       4020       4024       4028       4032       4036       4040       4044       4048       4052       4056       4060       4064       4068       4072       4076       4080       4084       4088       4092       4096 </DataArray>
<DataArray type="UInt8"                                    Name="types"                                                      NumberOfComponents=" 1" format="ascii">
         9          9          9          9          9          9          9          9          9          9          9          9          9          9          9          9          9          9          9          9          9          9          9          9          9          9          9          9          9          9          9          9          9          9          9          9          9          9          9          9          9          9          9          9          9          9          9          9          9          9          9          9          9          9          9          9          9          9          9          9          9          9          9          9          9          9          9          9          9          9          9          9          9          9          9          9          9          9          9          9          9          9          9          9          9          9          9          9          9          9          9          9          9          9          9          9          9          9          9          9          9          9          9          9          9          9          9          9          9          9          9          9          9          9          9          9          9          9          9          9          9          9          9          9          9          9          9          9          9          9          9          9          9          9          9          9          9          9          9          9          9          9          9          9          9          9          9          9          9          9          9          9          9          9          9          9          9          9          9          9          9          9          9          9          9          9          9          9          9          9          9          9          9          9          9          9          9          9          9          9          9          9          9          9          9          9          9          9          9          9          9          9          9          9          9          9          9          9          9          9          9          9          9          9          9          9          9          9          9          9          9          9          9          9          9          9          9          9          9          9          9          9          9          9          9          9          9          9          9          9          9          9          9          9          9          9          9          9          9          9          9          9          9          9          9          9          9          9          9          9          9          9          9          9          9          9          9          9          9          9          9          9          9          9          9          9          9          9          9          9          9          9          9          9          9          9          9          9          9          9          9          9          9          9          9          9          9          9          9          9          9          9          9          9          9          9          9          9          9          9          9          9          9          9          9          9          9          9          9          9          9          9          9          9          9          9          9          9          9          9          9          9          9          9          9          9          9          9          9          9          9          9          9          9          9          9          9          9          9          9          9          9          9          9          9          9          9          9          9          9          9          9          9          9          9          9          9          9          9          9          9          9          9          9          9          9          9          9          9          9          9          9          9          9          9          9          9          9          9          9          9          9          9          9          9          9          9          9          9          9          9          9          9          9          9          9          9          9          9          9          9          9          9          9          9          9          9          9          9          9          9          9          9          9          9          9          9          9          9          9          9          9          9          9          9          9          9          9          9          9          9          9          9          9          9          9          9          9          9          9          9          9          9          9          9          9          9          9          9          9          9          9          9          9          9          9          9          9          9          9          9          9          9          9          9          9          9          9          9          9          9          9          9          9          9          9          9          9          9          9          9          9          9          9          9          9          9          9          9          9          9          9          9          9          9          9          9          9          9          9          9          9          9          9          9          9          9          9          9          9          9          9          9          9          9          9          9          9          9          9          9          9          9          9          9          9          9          9          9          9          9          9          9          9          9          9          9          9          9          9          9          9          9          9          9          9          9          9          9          9          9          9          9          9          9          9          9          9          9          9          9          9          9          9          9          9          9          9          9          9          9          9          9          9          9          9          9          9          9          9          9          9          9          9          9          9          9          9          9          9          9          9          9          9          9          9          9          9          9          9          9          9          9          9          9          9          9          9          9          9          9          9          9          9          9          9          9          9          9          9          9          9          9          9          9          9          9          9          9          9          9          9          9          9          9          9          9          9          9          9          9          9          9          9          9          9          9          9          9          9          9          9          9          9          9          9          9          9          9          9          9          9          9          9          9          9          9          9          9          9          9          9          9          9          9          9          9          9          9          9          9          9          9          9          9          9          9          9          9          9          9          9          9          9          9          9          9          9          9          9          9          9          9          9          9          9          9          9          9          9          9          9          9          9          9          9          9          9          9          9          9          9          9          9          9          9          9          9          9          9          9          9          9          9          9          9          9          9          9          9          9          9          9          9          9          9          9          9          9          9          9          9          9          9          9          9          9          9          9          9          9          9          9          9          9          9          9          9          9          9          9          9          9          9          9          9          9          9          9          9          9          9          9          9          9          9          9          9          9          9          9          9          9          9          9          9          9          9          9          9          9          9          9          9          9          9          9          9          9          9          9          9          9          9          9          9          9          9          9          9          9          9          9          9          9          9          9          9          9          9          9          9          9          9          9          9          9          9          9          9          9          9          9          9          9          9          9          9          9          9          9          9          9          9          9          9          9          9          9          9          9          9          9          9          9          9          9          9          9          9          9          9          9          9          9          9          9          9          9          9          9          9          9          9          9          9          9          9          9          9          9          9          9          9          9          9          9          9          9          9          9          9          9          9          9          9          9          9          9          9          9          9          9          9          9          9          9          9          9          9          9          9          9          9          9          9          9          9          9          9          9          9          9          9          9          9          9          9          9          9          9          9          9          9          9          9          9          9          9          9          9          9          9          9          9          9          9          9          9          9          9          9          9          9          9          9          9          9          9          9          9          9          9          9          9          9          9          9          9          9          9          9          9          9          9          9          9          9          9          9          9          9          9          9          9          9          9          9          9          9          9          9          9          9          9          9          9          9          9          9          9          9          9          9          9          9          9          9          9          9          9          9          9          9 </DataArray>
</Cells>
<CellData>
<DataArray type="Int32"                                    Name="material"                                                      NumberOfComponents=" 1" format="ascii">
         1          1          1          1          1          1          1          1          1          1          1          1          1          1          1          1          1          1          1          1          1          1          1          1          1          1          1          1          1          1          1          1          1          1          1          1          1          1          1          1          1          1          1          1          1          1          1          1          1          1          1          1          1          1          1          1          1          1          1          1          1          1          1          1          1          1          1          1          1          1          1          1          1          1          1          1          1          1          1          1          1          1          1          1          1          1          1          1          1          1          1          1          1          1          1          1          1          1          1          1          1          1          1          1          1          1          1          1          1          1          1          1          1          1          1          1          1          1          1          1          1          1          1          1          1          1          1          1          1          1          1          1          1          1          1          1          1          1          1          1          1          1          1          1          1          1          1          1          1          1          1          1          1          1          1          1          1          1          1          1          1          1          1          1          1          1          1          1          1          1          1          1          1          1          1          1          1          1          1          1          1          1          1          1          1          1          1          1          1          1          1          1          1          1          1          1          1          1          1          1          1          1          1          1          1          1          1          1          1          1          1          1          1          1          1          1          1          1          1          1          1          1          1          1          1          1          1          1          1          1          1          1          1          1          1          1          1          1          1          1          1          1          1          1          1          1          1          1          1          1          1          1          1          1          1          1          1          1          1          1          1          1          1          1          1          1          1          1          1          1          1          1          1          1          1          1          1          1          1          1          1          1          1          1          1          1          1          1          1          1          1          1          1          1          1          1          1          1          1          1          1          1          1          1          1          1          1          1          1          1          1          1          1          1          1          1          1          1          1          1          1          1          1          1          1          1          1          1          1          1          1          1          1          1          1          1          1          1          1          1          1          1          1          1          1          1          1          1          1          1          1          1          1          1          1          1          1          1          1          1          1          1          1          1          1          1          1          1          1          1          1          1          1          1          1          1          1          1          1          1          1          1          1          1          1          1          1          1          1          1          1          1          1          1          1          1          1          1          1          1          1          1          1          1          1          1          1          1          1          1          1          1          1          1          1          1          1          1          1          1          1          1          1          1          1          1          1          1          1          1          1          1          1          1          1          1          1          1          1          1          1          1          1          1          1          1          1          1          1          1          1          1          1          1          1          1          1          1          1          1          1          1          1          1          1          1          1          1          1          1          1          1          1          1          1          1          1          1          1          1          1          1          1          1          1          1          1          1          1          1          1          1          1          1          1          1          1          1          1          1          1          1          1          1          1          1          1          1          1          1          1          1          1          1          1          1          1          1          1          1          1          1          1          1          1          1          1          1          1          1          1          1          1          1          1          1          1          1          1          1          1          1          1          1          1          1          1          1          1          1          1          1          1          1          1          1          1          1          1          1          1          1          1          1          1          1          1          1          1          1          1          1          1          1          1          1          1          1          1          1          1          1          1          1          1          1          1          1          1          1          1          1          1          1          1          1          1          1          1          1          1          1          1          1          1          1          1          1          1          1          1          1          1          1          1          1          1          1          1          1          1          1          1          1          1          1          1          1          1          1          1          1          1          1          1          1          1          1          1          1          1          1          1          1          1          1          1          1          1          1          1          1          1          1          1          1          1          1          1          1          1          1          1          1          1          1          1          1          1          1          1          1          1          1          1          1          1          1          1          1          1          1          1          1          1          1          1          1          1          1          1          1          1          1          1          1          1          1          1          1          1          1          1          1          1          1          1          1          1          1          1          1          1          1          1          1          1          1          1          1          1          1          1          1          1          1          1          1          1          1          1          1          1          1          1          1          1          1          1          1          1          1          1          1          1          1          1          1          1          1          1          1          1          1          1          1          1          1          1          1          1          1          1          1          1          1          1          1          1          1          1          1          1          1          1          1          1          1          1          1          1          1          1          1          1          1          1          1          1          1          1          1          1          1          1          1          1          1          1          1          1          1          1          1          1          1          1          1          1          1          1          1          1          1          1          1          1          1          1          1          1          1          1          1          1          1          1          1          1          1          1          1          1          1          1          1          1          1          1          1          1          1          1          1          1          1          1          1          1          1          1          1          1          1          1          1          1          1          1          1          1          1          1          1          1          1          1          1          1          1          1          1          1          1          1          1          1          1          1          1          1          1          1          1          1          1          1          1          1          1          1          1          1          1          1          1          1          1          1          1          1          1          1          1          1          1          1          1          1          1          1          1          1          1          1          1          1          1          1          1          1          1          1          1          1          1          1          1          1          1          1          1          1          1          1          1          1          1          1          1          1          1          1          1          1          1          1          1          1          1          1          1          1          1          1          1          1          1          1          1          1          1          1          1          1          1          1          1          1          1          1          1          1          1          1          1          1          1          1          1          1          1          1          1          1          1          1          1          1          1          1          1          1          1          1          1          1          1          1          1          1          1          1          1          1          1          1          1          1          1          1          1          1          1          1          1          1          1          1          1          1          1          1          1 </DataArray>
</CellData>
<PointData>
<DataArray type="Float64"                                    Name="u"                                                      NumberOfComponents=" 3" format="ascii">
             -0.000921541               0.000000000               0.999999987              -0.000969818               0.000000000               0.999999987              -0.000989562              -0.000000000               0.999999987              -0.000999828               0.000000000               0.999999987              -0.001007758               0.000000000               0.999999987              -0.001015775               0.000000000               0.999999987              -0.001024733               0.000000000               0.999999987              -0.001034819               0.000000000               0.999999987              -0.001045624               0.000000000               0.999999987              -0.001056671               0.000000000               0.999999987              -0.001067855              -0.000000000               0.999999987              -0.001078781               0.000000000               0.999999987              -0.001089082              -0.000000000               0.999999987              -0.001098335              -0.000000000               0.999999987              -0.001105845              -0.000000000               0.999999987              -0.001110956              -0.000000000               0.999999987              -0.001112758              -0.000000000               0.999999987              -0.000916351               0.000127068               0.999999987              -0.000960368               0.000099983               0.999999987              -0.000977360               0.000087367               0.999999987              -0.000985906               0.000081799               0.999999987              -0.000992624               0.000079711               0.999999987              -0.000999689               0.000079147               0.999999987              -0.001007814               0.000079168               0.999999987              -0.001016896               0.000079037               0.999999987              -0.001026568               0.000078001               0.999999987              -0.001036456               0.000075863               0.999999987              -0.001046179               0.000072545               0.999999987              -0.001055410               0.000067702               0.999999987              -0.001063737               0.000060851               0.999999987              -0.001070658               0.000051207               0.999999987              -0.001075629               0.000038031               0.999999987              -0.001078040               0.000020773               0.999999987              -0.001077304              -0.000001710               0.999999987              -0.000900881               0.000253033               0.999999987              -0.000932422               0.000199707               0.999999987              -0.000941678               0.000175839               0.999999987              -0.000945447               0.000165926               0.999999987              -0.000949031               0.000162567               0.999999987              -0.000953715               0.000162048               0.999999987              -0.000959531               0.000162337               0.999999987              -0.000966053               0.000162043               0.999999987              -0.000972759               0.000160154               0.999999987              -0.000979129               0.000156055               0.999999987              -0.000984668               0.000149610               0.999999987              -0.000988956               0.000139975               0.999999987              -0.000991508               0.000126576               0.999999987              -0.000991964               0.000108280               0.999999987              -0.000990008               0.000083883               0.999999987              -0.000985404               0.000052405               0.999999987              -0.000977975               0.000012791               0.999999987              -0.000875314               0.000376660               0.999999987              -0.000887205               0.000298985               0.999999987              -0.000885440               0.000266380               0.999999987              -0.000882920               0.000254067               0.999999987              -0.000882384               0.000250843               0.999999987              -0.000883843               0.000251191               0.999999987              -0.000886416               0.000252191               0.999999987              -0.000889236               0.000252055               0.999999987              -0.000891479               0.000249310               0.999999987              -0.000892435               0.000243404               0.999999987              -0.000891546               0.000233825               0.999999987              -0.000888318               0.000219757               0.999999987              -0.000882422               0.000200420               0.999999987              -0.000873627               0.000174937               0.999999987              -0.000862018               0.000142260               0.999999987              -0.000847805               0.000101962               0.999999987              -0.000831465               0.000053549               0.999999987              -0.000840292               0.000496699               0.999999987              -0.000827395               0.000397740               0.999999987              -0.000813430               0.000359562               0.999999987              -0.000804558               0.000346987               0.999999987              -0.000800088               0.000345243               0.999999987              -0.000798194               0.000347185               0.999999987              -0.000797074               0.000349219               0.999999987              -0.000795432               0.000349284               0.999999987              -0.000792056               0.000345794               0.999999987              -0.000786248               0.000337938               0.999999987              -0.000777415               0.000325273               0.999999987              -0.000765233               0.000307101               0.999999987              -0.000749490               0.000282775               0.999999987              -0.000730435               0.000252047               0.999999987              -0.000708569               0.000214686               0.999999987              -0.000684619               0.000170853               0.999999987              -0.000659625               0.000121717               0.999999987              -0.000796621               0.000612069               0.999999987              -0.000756100               0.000496173               0.999999987              -0.000730918               0.000455467               0.999999987              -0.000717120               0.000444326               0.999999987              -0.000709722               0.000444896               0.999999987              -0.000704873               0.000448801               0.999999987              -0.000700005               0.000452059               0.999999987              -0.000693398               0.000452178               0.999999987              -0.000683771               0.000447677               0.999999987              -0.000670461               0.000437860               0.999999987              -0.000653006               0.000422229               0.999999987              -0.000631291               0.000400532               0.999999987              -0.000605591               0.000372492               0.999999987              -0.000576479               0.000338549               0.999999987              -0.000544866               0.000299569               0.999999987              -0.000511853               0.000256606               0.999999987              -0.000478372               0.000211166               0.999999987              -0.000745264               0.000721672               0.999999987              -0.000676880               0.000594295               0.999999987              -0.000643198               0.000553641               0.999999987              -0.000626934               0.000544901               0.999999987              -0.000618047               0.000547934               0.999999987              -0.000610853               0.000553795               0.999999987              -0.000602281               0.000557963               0.999999987              -0.000590331               0.000557910               0.999999987              -0.000573944               0.000552403               0.999999987              -0.000552461               0.000540673               0.999999987              -0.000525752               0.000522487               0.999999987              -0.000493997               0.000497996               0.999999987              -0.000458110               0.000467522               0.999999987              -0.000418975               0.000432457               0.999999987              -0.000377774               0.000394150               0.999999987              -0.000335478               0.000353797               0.999999987              -0.000292685               0.000312332               0.999999987              -0.000687223               0.000824414               0.999999987              -0.000593568               0.000691796               0.999999987              -0.000555247               0.000652992               0.999999987              -0.000539142               0.000646862               0.999999987              -0.000529929               0.000652080               0.999999987              -0.000520814               0.000659431               0.999999987              -0.000508336               0.000664197               0.999999987              -0.000490643               0.000663834               0.999999987              -0.000466762               0.000657330               0.999999987              -0.000436364               0.000643743               0.999999987              -0.000399584               0.000623377               0.999999987              -0.000357110               0.000596884               0.999999987              -0.000310133               0.000565542               0.999999987              -0.000260091               0.000531047               0.999999987              -0.000208258               0.000494924               0.999999987              -0.000155347               0.000457934               0.999999987              -0.000101950               0.000420504               0.999999987              -0.000624433               0.000918344               0.999999987              -0.000509014               0.000788609               0.999999987              -0.000471423               0.000751996               0.999999987              -0.000457388               0.000747913               0.999999987              -0.000448504               0.000754953               0.999999987              -0.000437492               0.000763326               0.999999987              -0.000420676               0.000768464               0.999999987              -0.000396523               0.000767900               0.999999987              -0.000364192               0.000760259               0.999999987              -0.000323590               0.000745032               0.999999987              -0.000275240               0.000722961               0.999999987              -0.000220377               0.000695585               0.999999987              -0.000160956               0.000664631               0.999999987              -0.000098791               0.000632075               0.999999987              -0.000035075               0.000599314               0.999999987               0.000029241               0.000566827               0.999999987               0.000093410               0.000534578               0.999999987              -0.000559472               0.001007284               0.999999987              -0.000437997               0.000897493               0.999999987              -0.000398170               0.000857747               0.999999987              -0.000383961               0.000849668               0.999999987              -0.000376364               0.000854564               0.999999987              -0.000367703               0.000863540               0.999999987              -0.000354294               0.000871951               0.999999987              -0.000334673               0.000877228               0.999999987              -0.000307764               0.000877756               0.999999987              -0.000272933               0.000872474               0.999999987              -0.000230277               0.000861285               0.999999987              -0.000180225               0.000844749               0.999999987              -0.000124027               0.000824107               0.999999987              -0.000063052               0.000800960               0.999999987               0.000000909               0.000776930               0.999999987               0.000066127               0.000753048               0.999999987               0.000131244               0.000729913               0.999999987              -0.000488872               0.001088360               0.999999987              -0.000369517               0.001002854               0.999999987              -0.000327569               0.000966311               0.999999987              -0.000312384               0.000956353               0.999999987              -0.000305253               0.000959994               0.999999987              -0.000298255               0.000969615               0.999999987              -0.000287706               0.000980795               0.999999987              -0.000271935               0.000991069               0.999999987              -0.000249914               0.000998735               0.999999987              -0.000220757               0.001002517               0.999999987              -0.000183941               0.001001635               0.999999987              -0.000139672               0.000996069               0.999999987              -0.000088222               0.000985983               0.999999987              -0.000030470               0.000972569               0.999999987               0.000032384               0.000957127               0.999999987               0.000098586               0.000941229               0.999999987               0.000165917               0.000925950               0.999999987              -0.000414037               0.001159532               0.999999987              -0.000303429               0.001101567               0.999999987              -0.000261267               0.001072721               0.999999987              -0.000244941               0.001064109               0.999999987              -0.000237559               0.001067951               0.999999987              -0.000231602               0.001078697               0.999999987              -0.000223188               0.001092560               0.999999987              -0.000210690               0.001107227               0.999999987              -0.000192936               0.001121140               0.999999987              -0.000169022               0.001132970               0.999999987              -0.000138321               0.001141651               0.999999987              -0.000100452               0.001146537               0.999999987              -0.000055057               0.001147416               0.999999987              -0.000002252               0.001144680               0.999999987               0.000057278               0.001139061               0.999999987               0.000122762               0.001131839               0.999999987               0.000192496               0.001124341               0.999999987              -0.000335600               0.001219534               0.999999987              -0.000239755               0.001189478               0.999999987              -0.000200143               0.001171566               0.999999987              -0.000183502               0.001167185               0.999999987              -0.000175830               0.001173037               0.999999987              -0.000170410               0.001185669               0.999999987              -0.000163545               0.001202521               0.999999987              -0.000153588               0.001221325               0.999999987              -0.000139570               0.001240838               0.999999987              -0.000120616               0.001259775               0.999999987              -0.000095916               0.001277064               0.999999987              -0.000064943               0.001291801               0.999999987              -0.000026808               0.001303524               0.999999987               0.000018989               0.001311902               0.999999987               0.000072719               0.001317190               0.999999987               0.000134274               0.001320010               0.999999987               0.000203401               0.001321405               0.999999987              -0.000254208               0.001267392               0.999999987              -0.000178147               0.001262561               0.999999987              -0.000144336               0.001256814               0.999999987              -0.000129045               0.001258483               0.999999987              -0.000121698               0.001267890               0.999999987              -0.000116622               0.001283496               0.999999987              -0.000111144               0.001303515               0.999999987              -0.000103399               0.001326332               0.999999987              -0.000092911               0.001350665               0.999999987              -0.000078680               0.001375676               0.999999987              -0.000059935               0.001400435               0.999999987              -0.000036020               0.001423960               0.999999987              -0.000006233               0.001445531               0.999999987               0.000030415               0.001464542               0.999999987               0.000074800               0.001480753               0.999999987               0.000127831               0.001494196               0.999999987               0.000190710               0.001505373               0.999999987              -0.000170655               0.001302143               0.999999987              -0.000118029               0.001317346               0.999999987              -0.000093268               0.001322639               0.999999987              -0.000081419               0.001330597               0.999999987              -0.000075382               0.001344013               0.999999987              -0.000071320               0.001362825               0.999999987              -0.000067220               0.001385980               0.999999987              -0.000061871               0.001412341               0.999999987              -0.000054711               0.001440833               0.999999987              -0.000045235               0.001470711               0.999999987              -0.000032686               0.001501212               0.999999987              -0.000016431               0.001531493               0.999999987               0.000004066               0.001560907               0.999999987               0.000029636               0.001588800               0.999999987               0.000061406               0.001614568               0.999999987               0.000100864               0.001637895               0.999999987               0.000149778               0.001658459               0.999999987              -0.000085689               0.001323160               0.999999987              -0.000058819               0.001351202               0.999999987              -0.000045725               0.001364213               0.999999987              -0.000039223               0.001376932               0.999999987              -0.000035780               0.001393494               0.999999987              -0.000033441               0.001414728               0.999999987              -0.000031274               0.001440183               0.999999987              -0.000028423               0.001468988               0.999999987              -0.000024770               0.001500334               0.999999987              -0.000020019               0.001533547               0.999999987              -0.000013783               0.001567952               0.999999987              -0.000005569               0.001602908               0.999999987               0.000004966               0.001637721               0.999999987               0.000018039               0.001671787               0.999999987               0.000034704               0.001704368               0.999999987               0.000055961               0.001734780               0.999999987               0.000083125               0.001762208               0.999999987              -0.000000000               0.001330204               0.999999987              -0.000000000               0.001362682               0.999999987               0.000000000               0.001378492               0.999999987              -0.000000000               0.001392926               0.999999987              -0.000000000               0.001410670               0.999999987               0.000000000               0.001432752               0.999999987              -0.000000000               0.001458960               0.999999987               0.000000000               0.001488719               0.999999987               0.000000000               0.001521120               0.999999987              -0.000000000               0.001555417               0.999999987               0.000000000               0.001591180               0.999999987              -0.000000000               0.001627910               0.999999987              -0.000000000               0.001664802               0.999999987              -0.000000000               0.001701253               0.999999987               0.000000000               0.001736397               0.999999987              -0.000000000               0.001769414               0.999999987              -0.000000000               0.001799432               0.999999987              -0.000921541               0.000000000               0.999999987              -0.000969818               0.000000000               0.999999987              -0.000989562              -0.000000000               0.999999987              -0.000999828               0.000000000               0.999999987              -0.001007758               0.000000000               0.999999987              -0.001015775               0.000000000               0.999999987              -0.001024733               0.000000000               0.999999987              -0.001034819               0.000000000               0.999999987              -0.001045624               0.000000000               0.999999987              -0.001056671               0.000000000               0.999999987              -0.001067855              -0.000000000               0.999999987              -0.001078781               0.000000000               0.999999987              -0.001089082              -0.000000000               0.999999987              -0.001098335              -0.000000000               0.999999987              -0.001105845              -0.000000000               0.999999987              -0.001110956              -0.000000000               0.999999987              -0.001112758              -0.000000000               0.999999987              -0.000916351              -0.000127068               0.999999987              -0.000960368              -0.000099983               0.999999987              -0.000977360              -0.000087367               0.999999987              -0.000985906              -0.000081799               0.999999987              -0.000992624              -0.000079711               0.999999987              -0.000999689              -0.000079147               0.999999987              -0.001007814              -0.000079168               0.999999987              -0.001016896              -0.000079037               0.999999987              -0.001026568              -0.000078001               0.999999987              -0.001036456              -0.000075863               0.999999987              -0.001046179              -0.000072545               0.999999987              -0.001055410              -0.000067702               0.999999987              -0.001063737              -0.000060851               0.999999987              -0.001070658              -0.000051207               0.999999987              -0.001075629              -0.000038031               0.999999987              -0.001078040              -0.000020773               0.999999987              -0.001077304               0.000001710               0.999999987              -0.000900881              -0.000253033               0.999999987              -0.000932422              -0.000199707               0.999999987              -0.000941678              -0.000175839               0.999999987              -0.000945447              -0.000165926               0.999999987              -0.000949031              -0.000162567               0.999999987              -0.000953715              -0.000162048               0.999999987              -0.000959531              -0.000162337               0.999999987              -0.000966053              -0.000162043               0.999999987              -0.000972759              -0.000160154               0.999999987              -0.000979129              -0.000156055               0.999999987              -0.000984668              -0.000149610               0.999999987              -0.000988956              -0.000139975               0.999999987              -0.000991508              -0.000126576               0.999999987              -0.000991964              -0.000108280               0.999999987              -0.000990008              -0.000083883               0.999999987              -0.000985404              -0.000052405               0.999999987              -0.000977975              -0.000012791               0.999999987              -0.000875314              -0.000376660               0.999999987              -0.000887205              -0.000298985               0.999999987              -0.000885440              -0.000266380               0.999999987              -0.000882920              -0.000254067               0.999999987              -0.000882384              -0.000250843               0.999999987              -0.000883843              -0.000251191               0.999999987              -0.000886416              -0.000252191               0.999999987              -0.000889236              -0.000252055               0.999999987              -0.000891479              -0.000249310               0.999999987              -0.000892435              -0.000243404               0.999999987              -0.000891546              -0.000233825               0.999999987              -0.000888318              -0.000219757               0.999999987              -0.000882422              -0.000200420               0.999999987              -0.000873627              -0.000174937               0.999999987              -0.000862018              -0.000142260               0.999999987              -0.000847805              -0.000101962               0.999999987              -0.000831465              -0.000053549               0.999999987              -0.000840292              -0.000496699               0.999999987              -0.000827395              -0.000397740               0.999999987              -0.000813430              -0.000359562               0.999999987              -0.000804558              -0.000346987               0.999999987              -0.000800088              -0.000345243               0.999999987              -0.000798194              -0.000347185               0.999999987              -0.000797074              -0.000349219               0.999999987              -0.000795432              -0.000349284               0.999999987              -0.000792056              -0.000345794               0.999999987              -0.000786248              -0.000337938               0.999999987              -0.000777415              -0.000325273               0.999999987              -0.000765233              -0.000307101               0.999999987              -0.000749490              -0.000282775               0.999999987              -0.000730435              -0.000252047               0.999999987              -0.000708569              -0.000214686               0.999999987              -0.000684619              -0.000170853               0.999999987              -0.000659625              -0.000121717               0.999999987              -0.000796621              -0.000612069               0.999999987              -0.000756100              -0.000496173               0.999999987              -0.000730918              -0.000455467               0.999999987              -0.000717120              -0.000444326               0.999999987              -0.000709722              -0.000444896               0.999999987              -0.000704873              -0.000448801               0.999999987              -0.000700005              -0.000452059               0.999999987              -0.000693398              -0.000452178               0.999999987              -0.000683771              -0.000447677               0.999999987              -0.000670461              -0.000437860               0.999999987              -0.000653006              -0.000422229               0.999999987              -0.000631291              -0.000400532               0.999999987              -0.000605591              -0.000372492               0.999999987              -0.000576479              -0.000338549               0.999999987              -0.000544866              -0.000299569               0.999999987              -0.000511853              -0.000256606               0.999999987              -0.000478372              -0.000211166               0.999999987              -0.000745264              -0.000721672               0.999999987              -0.000676880              -0.000594295               0.999999987              -0.000643198              -0.000553641               0.999999987              -0.000626934              -0.000544901               0.999999987              -0.000618047              -0.000547934               0.999999987              -0.000610853              -0.000553795               0.999999987              -0.000602281              -0.000557963               0.999999987              -0.000590331              -0.000557910               0.999999987              -0.000573944              -0.000552403               0.999999987              -0.000552461              -0.000540673               0.999999987              -0.000525752              -0.000522487               0.999999987              -0.000493997              -0.000497996               0.999999987              -0.000458110              -0.000467522               0.999999987              -0.000418975              -0.000432457               0.999999987              -0.000377774              -0.000394150               0.999999987              -0.000335478              -0.000353797               0.999999987              -0.000292685              -0.000312332               0.999999987              -0.000687223              -0.000824414               0.999999987              -0.000593568              -0.000691796               0.999999987              -0.000555247              -0.000652992               0.999999987              -0.000539142              -0.000646862               0.999999987              -0.000529929              -0.000652080               0.999999987              -0.000520814              -0.000659431               0.999999987              -0.000508336              -0.000664197               0.999999987              -0.000490643              -0.000663834               0.999999987              -0.000466762              -0.000657330               0.999999987              -0.000436364              -0.000643743               0.999999987              -0.000399584              -0.000623377               0.999999987              -0.000357110              -0.000596884               0.999999987              -0.000310133              -0.000565542               0.999999987              -0.000260091              -0.000531047               0.999999987              -0.000208258              -0.000494924               0.999999987              -0.000155347              -0.000457934               0.999999987              -0.000101950              -0.000420504               0.999999987              -0.000624433              -0.000918344               0.999999987              -0.000509014              -0.000788609               0.999999987              -0.000471423              -0.000751996               0.999999987              -0.000457388              -0.000747913               0.999999987              -0.000448504              -0.000754953               0.999999987              -0.000437492              -0.000763326               0.999999987              -0.000420676              -0.000768464               0.999999987              -0.000396523              -0.000767900               0.999999987              -0.000364192              -0.000760259               0.999999987              -0.000323590              -0.000745032               0.999999987              -0.000275240              -0.000722961               0.999999987              -0.000220377              -0.000695585               0.999999987              -0.000160956              -0.000664631               0.999999987              -0.000098791              -0.000632075               0.999999987              -0.000035075              -0.000599314               0.999999987               0.000029241              -0.000566827               0.999999987               0.000093410              -0.000534578               0.999999987              -0.000559472              -0.001007284               0.999999987              -0.000437997              -0.000897493               0.999999987              -0.000398170              -0.000857747               0.999999987              -0.000383961              -0.000849668               0.999999987              -0.000376364              -0.000854564               0.999999987              -0.000367703              -0.000863540               0.999999987              -0.000354294              -0.000871951               0.999999987              -0.000334673              -0.000877228               0.999999987              -0.000307764              -0.000877756               0.999999987              -0.000272933              -0.000872474               0.999999987              -0.000230277              -0.000861285               0.999999987              -0.000180225              -0.000844749               0.999999987              -0.000124027              -0.000824107               0.999999987              -0.000063052              -0.000800960               0.999999987               0.000000909              -0.000776930               0.999999987               0.000066127              -0.000753048               0.999999987               0.000131244              -0.000729913               0.999999987              -0.000488872              -0.001088360               0.999999987              -0.000369517              -0.001002854               0.999999987              -0.000327569              -0.000966311               0.999999987              -0.000312384              -0.000956353               0.999999987              -0.000305253              -0.000959994               0.999999987              -0.000298255              -0.000969615               0.999999987              -0.000287706              -0.000980795               0.999999987              -0.000271935              -0.000991069               0.999999987              -0.000249914              -0.000998735               0.999999987              -0.000220757              -0.001002517               0.999999987              -0.000183941              -0.001001635               0.999999987              -0.000139672              -0.000996069               0.999999987              -0.000088222              -0.000985983               0.999999987              -0.000030470              -0.000972569               0.999999987               0.000032384              -0.000957127               0.999999987               0.000098586              -0.000941229               0.999999987               0.000165917              -0.000925950               0.999999987              -0.000414037              -0.001159532               0.999999987              -0.000303429              -0.001101567               0.999999987              -0.000261267              -0.001072721               0.999999987              -0.000244941              -0.001064109               0.999999987              -0.000237559              -0.001067951               0.999999987              -0.000231602              -0.001078697               0.999999987              -0.000223188              -0.001092560               0.999999987              -0.000210690              -0.001107227               0.999999987              -0.000192936              -0.001121140               0.999999987              -0.000169022              -0.001132970               0.999999987              -0.000138321              -0.001141651               0.999999987              -0.000100452              -0.001146537               0.999999987              -0.000055057              -0.001147416               0.999999987              -0.000002252              -0.001144680               0.999999987               0.000057278              -0.001139061               0.999999987               0.000122762              -0.001131839               0.999999987               0.000192496              -0.001124341               0.999999987              -0.000335600              -0.001219534               0.999999987              -0.000239755              -0.001189478               0.999999987              -0.000200143              -0.001171566               0.999999987              -0.000183502              -0.001167185               0.999999987              -0.000175830              -0.001173037               0.999999987              -0.000170410              -0.001185669               0.999999987              -0.000163545              -0.001202521               0.999999987              -0.000153588              -0.001221325               0.999999987              -0.000139570              -0.001240838               0.999999987              -0.000120616              -0.001259775               0.999999987              -0.000095916              -0.001277064               0.999999987              -0.000064943              -0.001291801               0.999999987              -0.000026808              -0.001303524               0.999999987               0.000018989              -0.001311902               0.999999987               0.000072719              -0.001317190               0.999999987               0.000134274              -0.001320010               0.999999987               0.000203401              -0.001321405               0.999999987              -0.000254208              -0.001267392               0.999999987              -0.000178147              -0.001262561               0.999999987              -0.000144336              -0.001256814               0.999999987              -0.000129045              -0.001258483               0.999999987              -0.000121698              -0.001267890               0.999999987              -0.000116622              -0.001283496               0.999999987              -0.000111144              -0.001303515               0.999999987              -0.000103399              -0.001326332               0.999999987              -0.000092911              -0.001350665               0.999999987              -0.000078680              -0.001375676               0.999999987              -0.000059935              -0.001400435               0.999999987              -0.000036020              -0.001423960               0.999999987              -0.000006233              -0.001445531               0.999999987               0.000030415              -0.001464542               0.999999987               0.000074800              -0.001480753               0.999999987               0.000127831              -0.001494196               0.999999987               0.000190710              -0.001505373               0.999999987              -0.000170655              -0.001302143               0.999999987              -0.000118029              -0.001317346               0.999999987              -0.000093268              -0.001322639               0.999999987              -0.000081419              -0.001330597               0.999999987              -0.000075382              -0.001344013               0.999999987              -0.000071320              -0.001362825               0.999999987              -0.000067220              -0.001385980               0.999999987              -0.000061871              -0.001412341               0.999999987              -0.000054711              -0.001440833               0.999999987              -0.000045235              -0.001470711               0.999999987              -0.000032686              -0.001501212               0.999999987              -0.000016431              -0.001531493               0.999999987               0.000004066              -0.001560907               0.999999987               0.000029636              -0.001588800               0.999999987               0.000061406              -0.001614568               0.999999987               0.000100864              -0.001637895               0.999999987               0.000149778              -0.001658459               0.999999987              -0.000085689              -0.001323160               0.999999987              -0.000058819              -0.001351202               0.999999987              -0.000045725              -0.001364213               0.999999987              -0.000039223              -0.001376932               0.999999987              -0.000035780              -0.001393494               0.999999987              -0.000033441              -0.001414728               0.999999987              -0.000031274              -0.001440183               0.999999987              -0.000028423              -0.001468988               0.999999987              -0.000024770              -0.001500334               0.999999987              -0.000020019              -0.001533547               0.999999987              -0.000013783              -0.001567952               0.999999987              -0.000005569              -0.001602908               0.999999987               0.000004966              -0.001637721               0.999999987               0.000018039              -0.001671787               0.999999987               0.000034704              -0.001704368               0.999999987               0.000055961              -0.001734780               0.999999987               0.000083125              -0.001762208               0.999999987              -0.000000000              -0.001330204               0.999999987              -0.000000000              -0.001362682               0.999999987               0.000000000              -0.001378492               0.999999987              -0.000000000              -0.001392926               0.999999987              -0.000000000              -0.001410670               0.999999987               0.000000000              -0.001432752               0.999999987              -0.000000000              -0.001458960               0.999999987              -0.000000000              -0.001488719               0.999999987              -0.000000000              -0.001521120               0.999999987              -0.000000000              -0.001555417               0.999999987              -0.000000000              -0.001591180               0.999999987               0.000000000              -0.001627910               0.999999987               0.000000000              -0.001664802               0.999999987               0.000000000              -0.001701253               0.999999987              -0.000000000              -0.001736397               0.999999987              -0.000000000              -0.001769414               0.999999987              -0.000000000              -0.001799432               0.999999987               0.000921541               0.000000000               0.999999987               0.000969818               0.000000000               0.999999987               0.000989562               0.000000000               0.999999987               0.000999828              -0.000000000               0.999999987               0.001007758              -0.000000000               0.999999987               0.001015775               0.000000000               0.999999987               0.001024733               0.000000000               0.999999987               0.001034819              -0.000000000               0.999999987               0.001045624               0.000000000               0.999999987               0.001056671               0.000000000               0.999999987               0.001067855               0.000000000               0.999999987               0.001078781               0.000000000               0.999999987               0.001089082               0.000000000               0.999999987               0.001098335              -0.000000000               0.999999987               0.001105845              -0.000000000               0.999999987               0.001110956               0.000000000               0.999999987               0.001112758              -0.000000000               0.999999987               0.000916351              -0.000127068               0.999999987               0.000960368              -0.000099983               0.999999987               0.000977360              -0.000087367               0.999999987               0.000985906              -0.000081799               0.999999987               0.000992624              -0.000079711               0.999999987               0.000999689              -0.000079147               0.999999987               0.001007814              -0.000079168               0.999999987               0.001016896              -0.000079037               0.999999987               0.001026568              -0.000078001               0.999999987               0.001036456              -0.000075863               0.999999987               0.001046179              -0.000072545               0.999999987               0.001055410              -0.000067702               0.999999987               0.001063737              -0.000060851               0.999999987               0.001070658              -0.000051207               0.999999987               0.001075629              -0.000038031               0.999999987               0.001078040              -0.000020773               0.999999987               0.001077304               0.000001710               0.999999987               0.000900881              -0.000253033               0.999999987               0.000932422              -0.000199707               0.999999987               0.000941678              -0.000175839               0.999999987               0.000945447              -0.000165926               0.999999987               0.000949031              -0.000162567               0.999999987               0.000953715              -0.000162048               0.999999987               0.000959531              -0.000162337               0.999999987               0.000966053              -0.000162043               0.999999987               0.000972759              -0.000160154               0.999999987               0.000979129              -0.000156055               0.999999987               0.000984668              -0.000149610               0.999999987               0.000988956              -0.000139975               0.999999987               0.000991508              -0.000126576               0.999999987               0.000991964              -0.000108280               0.999999987               0.000990008              -0.000083883               0.999999987               0.000985404              -0.000052405               0.999999987               0.000977975              -0.000012791               0.999999987               0.000875314              -0.000376660               0.999999987               0.000887205              -0.000298985               0.999999987               0.000885440              -0.000266380               0.999999987               0.000882920              -0.000254067               0.999999987               0.000882384              -0.000250843               0.999999987               0.000883843              -0.000251191               0.999999987               0.000886416              -0.000252191               0.999999987               0.000889236              -0.000252055               0.999999987               0.000891479              -0.000249310               0.999999987               0.000892435              -0.000243404               0.999999987               0.000891546              -0.000233825               0.999999987               0.000888318              -0.000219757               0.999999987               0.000882422              -0.000200420               0.999999987               0.000873627              -0.000174937               0.999999987               0.000862018              -0.000142260               0.999999987               0.000847805              -0.000101962               0.999999987               0.000831465              -0.000053549               0.999999987               0.000840292              -0.000496699               0.999999987               0.000827395              -0.000397740               0.999999987               0.000813430              -0.000359562               0.999999987               0.000804558              -0.000346987               0.999999987               0.000800088              -0.000345243               0.999999987               0.000798194              -0.000347185               0.999999987               0.000797074              -0.000349219               0.999999987               0.000795432              -0.000349284               0.999999987               0.000792056              -0.000345794               0.999999987               0.000786248              -0.000337938               0.999999987               0.000777415              -0.000325273               0.999999987               0.000765233              -0.000307101               0.999999987               0.000749490              -0.000282775               0.999999987               0.000730435              -0.000252047               0.999999987               0.000708569              -0.000214686               0.999999987               0.000684619              -0.000170853               0.999999987               0.000659625              -0.000121717               0.999999987               0.000796621              -0.000612069               0.999999987               0.000756100              -0.000496173               0.999999987               0.000730918              -0.000455467               0.999999987               0.000717120              -0.000444326               0.999999987               0.000709722              -0.000444896               0.999999987               0.000704873              -0.000448801               0.999999987               0.000700005              -0.000452059               0.999999987               0.000693398              -0.000452178               0.999999987               0.000683771              -0.000447677               0.999999987               0.000670461              -0.000437860               0.999999987               0.000653006              -0.000422229               0.999999987               0.000631291              -0.000400532               0.999999987               0.000605591              -0.000372492               0.999999987               0.000576479              -0.000338549               0.999999987               0.000544866              -0.000299569               0.999999987               0.000511853              -0.000256606               0.999999987               0.000478372              -0.000211166               0.999999987               0.000745264              -0.000721672               0.999999987               0.000676880              -0.000594295               0.999999987               0.000643198              -0.000553641               0.999999987               0.000626934              -0.000544901               0.999999987               0.000618047              -0.000547934               0.999999987               0.000610853              -0.000553795               0.999999987               0.000602281              -0.000557963               0.999999987               0.000590331              -0.000557910               0.999999987               0.000573944              -0.000552403               0.999999987               0.000552461              -0.000540673               0.999999987               0.000525752              -0.000522487               0.999999987               0.000493997              -0.000497996               0.999999987               0.000458110              -0.000467522               0.999999987               0.000418975              -0.000432457               0.999999987               0.000377774              -0.000394150               0.999999987               0.000335478              -0.000353797               0.999999987               0.000292685              -0.000312332               0.999999987               0.000687223              -0.000824414               0.999999987               0.000593568              -0.000691796               0.999999987               0.000555247              -0.000652992               0.999999987               0.000539142              -0.000646862               0.999999987               0.000529929              -0.000652080               0.999999987               0.000520814              -0.000659431               0.999999987               0.000508336              -0.000664197               0.999999987               0.000490643              -0.000663834               0.999999987               0.000466762              -0.000657330               0.999999987               0.000436364              -0.000643743               0.999999987               0.000399584              -0.000623377               0.999999987               0.000357110              -0.000596884               0.999999987               0.000310133              -0.000565542               0.999999987               0.000260091              -0.000531047               0.999999987               0.000208258              -0.000494924               0.999999987               0.000155347              -0.000457934               0.999999987               0.000101950              -0.000420504               0.999999987               0.000624433              -0.000918344               0.999999987               0.000509014              -0.000788609               0.999999987               0.000471423              -0.000751996               0.999999987               0.000457388              -0.000747913               0.999999987               0.000448504              -0.000754953               0.999999987               0.000437492              -0.000763326               0.999999987               0.000420676              -0.000768464               0.999999987               0.000396523              -0.000767900               0.999999987               0.000364192              -0.000760259               0.999999987               0.000323590              -0.000745032               0.999999987               0.000275240              -0.000722961               0.999999987               0.000220377              -0.000695585               0.999999987               0.000160956              -0.000664631               0.999999987               0.000098791              -0.000632075               0.999999987               0.000035075              -0.000599314               0.999999987              -0.000029241              -0.000566827               0.999999987              -0.000093410              -0.000534578               0.999999987               0.000559472              -0.001007284               0.999999987               0.000437997              -0.000897493               0.999999987               0.000398170              -0.000857747               0.999999987               0.000383961              -0.000849668               0.999999987               0.000376364              -0.000854564               0.999999987               0.000367703              -0.000863540               0.999999987               0.000354294              -0.000871951               0.999999987               0.000334673              -0.000877228               0.999999987               0.000307764              -0.000877756               0.999999987               0.000272933              -0.000872474               0.999999987               0.000230277              -0.000861285               0.999999987               0.000180225              -0.000844749               0.999999987               0.000124027              -0.000824107               0.999999987               0.000063052              -0.000800960               0.999999987              -0.000000909              -0.000776930               0.999999987              -0.000066127              -0.000753048               0.999999987              -0.000131244              -0.000729913               0.999999987               0.000488872              -0.001088360               0.999999987               0.000369517              -0.001002854               0.999999987               0.000327569              -0.000966311               0.999999987               0.000312384              -0.000956353               0.999999987               0.000305253              -0.000959994               0.999999987               0.000298255              -0.000969615               0.999999987               0.000287706              -0.000980795               0.999999987               0.000271935              -0.000991069               0.999999987               0.000249914              -0.000998735               0.999999987               0.000220757              -0.001002517               0.999999987               0.000183941              -0.001001635               0.999999987               0.000139672              -0.000996069               0.999999987               0.000088222              -0.000985983               0.999999987               0.000030470              -0.000972569               0.999999987              -0.000032384              -0.000957127               0.999999987              -0.000098586              -0.000941229               0.999999987              -0.000165917              -0.000925950               0.999999987               0.000414037              -0.001159532               0.999999987               0.000303429              -0.001101567               0.999999987               0.000261267              -0.001072721               0.999999987               0.000244941              -0.001064109               0.999999987               0.000237559              -0.001067951               0.999999987               0.000231602              -0.001078697               0.999999987               0.000223188              -0.001092560               0.999999987               0.000210690              -0.001107227               0.999999987               0.000192936              -0.001121140               0.999999987               0.000169022              -0.001132970               0.999999987               0.000138321              -0.001141651               0.999999987               0.000100452              -0.001146537               0.999999987               0.000055057              -0.001147416               0.999999987               0.000002252              -0.001144680               0.999999987              -0.000057278              -0.001139061               0.999999987              -0.000122762              -0.001131839               0.999999987              -0.000192496              -0.001124341               0.999999987               0.000335600              -0.001219534               0.999999987               0.000239755              -0.001189478               0.999999987               0.000200143              -0.001171566               0.999999987               0.000183502              -0.001167185               0.999999987               0.000175830              -0.001173037               0.999999987               0.000170410              -0.001185669               0.999999987               0.000163545              -0.001202521               0.999999987               0.000153588              -0.001221325               0.999999987               0.000139570              -0.001240838               0.999999987               0.000120616              -0.001259775               0.999999987               0.000095916              -0.001277064               0.999999987               0.000064943              -0.001291801               0.999999987               0.000026808              -0.001303524               0.999999987              -0.000018989              -0.001311902               0.999999987              -0.000072719              -0.001317190               0.999999987              -0.000134274              -0.001320010               0.999999987              -0.000203401              -0.001321405               0.999999987               0.000254208              -0.001267392               0.999999987               0.000178147              -0.001262561               0.999999987               0.000144336              -0.001256814               0.999999987               0.000129045              -0.001258483               0.999999987               0.000121698              -0.001267890               0.999999987               0.000116622              -0.001283496               0.999999987               0.000111144              -0.001303515               0.999999987               0.000103399              -0.001326332               0.999999987               0.000092911              -0.001350665               0.999999987               0.000078680              -0.001375676               0.999999987               0.000059935              -0.001400435               0.999999987               0.000036020              -0.001423960               0.999999987               0.000006233              -0.001445531               0.999999987              -0.000030415              -0.001464542               0.999999987              -0.000074800              -0.001480753               0.999999987              -0.000127831              -0.001494196               0.999999987              -0.000190710              -0.001505373               0.999999987               0.000170655              -0.001302143               0.999999987               0.000118029              -0.001317346               0.999999987               0.000093268              -0.001322639               0.999999987               0.000081419              -0.001330597               0.999999987               0.000075382              -0.001344013               0.999999987               0.000071320              -0.001362825               0.999999987               0.000067220              -0.001385980               0.999999987               0.000061871              -0.001412341               0.999999987               0.000054711              -0.001440833               0.999999987               0.000045235              -0.001470711               0.999999987               0.000032686              -0.001501212               0.999999987               0.000016431              -0.001531493               0.999999987              -0.000004066              -0.001560907               0.999999987              -0.000029636              -0.001588800               0.999999987              -0.000061406              -0.001614568               0.999999987              -0.000100864              -0.001637895               0.999999987              -0.000149778              -0.001658459               0.999999987               0.000085689              -0.001323160               0.999999987               0.000058819              -0.001351202               0.999999987               0.000045725              -0.001364213               0.999999987               0.000039223              -0.001376932               0.999999987               0.000035780              -0.001393494               0.999999987               0.000033441              -0.001414728               0.999999987               0.000031274              -0.001440183               0.999999987               0.000028423              -0.001468988               0.999999987               0.000024770              -0.001500334               0.999999987               0.000020019              -0.001533547               0.999999987               0.000013783              -0.001567952               0.999999987               0.000005569              -0.001602908               0.999999987              -0.000004966              -0.001637721               0.999999987              -0.000018039              -0.001671787               0.999999987              -0.000034704              -0.001704368               0.999999987              -0.000055961              -0.001734780               0.999999987              -0.000083125              -0.001762208               0.999999987              -0.000000000              -0.001330204               0.999999987              -0.000000000              -0.001362682               0.999999987               0.000000000              -0.001378492               0.999999987              -0.000000000              -0.001392926               0.999999987              -0.000000000              -0.001410670               0.999999987               0.000000000              -0.001432752               0.999999987              -0.000000000              -0.001458960               0.999999987              -0.000000000              -0.001488719               0.999999987              -0.000000000              -0.001521120               0.999999987              -0.000000000              -0.001555417               0.999999987              -0.000000000              -0.001591180               0.999999987               0.000000000              -0.001627910               0.999999987               0.000000000              -0.001664802               0.999999987               0.000000000              -0.001701253               0.999999987              -0.000000000              -0.001736397               0.999999987              -0.000000000              -0.001769414               0.999999987              -0.000000000              -0.001799432               0.999999987               0.000921541               0.000000000               0.999999987               0.000969818               0.000000000               0.999999987               0.000989562               0.000000000               0.999999987               0.000999828              -0.000000000               0.999999987               0.001007758              -0.000000000               0.999999987               0.001015775               0.000000000               0.999999987               0.001024733               0.000000000               0.999999987               0.001034819              -0.000000000               0.999999987               0.001045624               0.000000000               0.999999987               0.001056671               0.000000000               0.999999987               0.001067855               0.000000000               0.999999987               0.001078781               0.000000000               0.999999987               0.001089082               0.000000000               0.999999987               0.001098335              -0.000000000               0.999999987               0.001105845              -0.000000000               0.999999987               0.001110956               0.000000000               0.999999987               0.001112758              -0.000000000               0.999999987               0.000916351               0.000127068               0.999999987               0.000960368               0.000099983               0.999999987               0.000977360               0.000087367               0.999999987               0.000985906               0.000081799               0.999999987               0.000992624               0.000079711               0.999999987               0.000999689               0.000079147               0.999999987               0.001007814               0.000079168               0.999999987               0.001016896               0.000079037               0.999999987               0.001026568               0.000078001               0.999999987               0.001036456               0.000075863               0.999999987               0.001046179               0.000072545               0.999999987               0.001055410               0.000067702               0.999999987               0.001063737               0.000060851               0.999999987               0.001070658               0.000051207               0.999999987               0.001075629               0.000038031               0.999999987               0.001078040               0.000020773               0.999999987               0.001077304              -0.000001710               0.999999987               0.000900881               0.000253033               0.999999987               0.000932422               0.000199707               0.999999987               0.000941678               0.000175839               0.999999987               0.000945447               0.000165926               0.999999987               0.000949031               0.000162567               0.999999987               0.000953715               0.000162048               0.999999987               0.000959531               0.000162337               0.999999987               0.000966053               0.000162043               0.999999987               0.000972759               0.000160154               0.999999987               0.000979129               0.000156055               0.999999987               0.000984668               0.000149610               0.999999987               0.000988956               0.000139975               0.999999987               0.000991508               0.000126576               0.999999987               0.000991964               0.000108280               0.999999987               0.000990008               0.000083883               0.999999987               0.000985404               0.000052405               0.999999987               0.000977975               0.000012791               0.999999987               0.000875314               0.000376660               0.999999987               0.000887205               0.000298985               0.999999987               0.000885440               0.000266380               0.999999987               0.000882920               0.000254067               0.999999987               0.000882384               0.000250843               0.999999987               0.000883843               0.000251191               0.999999987               0.000886416               0.000252191               0.999999987               0.000889236               0.000252055               0.999999987               0.000891479               0.000249310               0.999999987               0.000892435               0.000243404               0.999999987               0.000891546               0.000233825               0.999999987               0.000888318               0.000219757               0.999999987               0.000882422               0.000200420               0.999999987               0.000873627               0.000174937               0.999999987               0.000862018               0.000142260               0.999999987               0.000847805               0.000101962               0.999999987               0.000831465               0.000053549               0.999999987               0.000840292               0.000496699               0.999999987               0.000827395               0.000397740               0.999999987               0.000813430               0.000359562               0.999999987               0.000804558               0.000346987               0.999999987               0.000800088               0.000345243               0.999999987               0.000798194               0.000347185               0.999999987               0.000797074               0.000349219               0.999999987               0.000795432               0.000349284               0.999999987               0.000792056               0.000345794               0.999999987               0.000786248               0.000337938               0.999999987               0.000777415               0.000325273               0.999999987               0.000765233               0.000307101               0.999999987               0.000749490               0.000282775               0.999999987               0.000730435               0.000252047               0.999999987               0.000708569               0.000214686               0.999999987               0.000684619               0.000170853               0.999999987               0.000659625               0.000121717               0.999999987               0.000796621               0.000612069               0.999999987               0.000756100               0.000496173               0.999999987               0.000730918               0.000455467               0.999999987               0.000717120               0.000444326               0.999999987               0.000709722               0.000444896               0.999999987               0.000704873               0.000448801               0.999999987               0.000700005               0.000452059               0.999999987               0.000693398               0.000452178               0.999999987               0.000683771               0.000447677               0.999999987               0.000670461               0.000437860               0.999999987               0.000653006               0.000422229               0.999999987               0.000631291               0.000400532               0.999999987               0.000605591               0.000372492               0.999999987               0.000576479               0.000338549               0.999999987               0.000544866               0.000299569               0.999999987               0.000511853               0.000256606               0.999999987               0.000478372               0.000211166               0.999999987               0.000745264               0.000721672               0.999999987               0.000676880               0.000594295               0.999999987               0.000643198               0.000553641               0.999999987               0.000626934               0.000544901               0.999999987               0.000618047               0.000547934               0.999999987               0.000610853               0.000553795               0.999999987               0.000602281               0.000557963               0.999999987               0.000590331               0.000557910               0.999999987               0.000573944               0.000552403               0.999999987               0.000552461               0.000540673               0.999999987               0.000525752               0.000522487               0.999999987               0.000493997               0.000497996               0.999999987               0.000458110               0.000467522               0.999999987               0.000418975               0.000432457               0.999999987               0.000377774               0.000394150               0.999999987               0.000335478               0.000353797               0.999999987               0.000292685               0.000312332               0.999999987               0.000687223               0.000824414               0.999999987               0.000593568               0.000691796               0.999999987               0.000555247               0.000652992               0.999999987               0.000539142               0.000646862               0.999999987               0.000529929               0.000652080               0.999999987               0.000520814               0.000659431               0.999999987               0.000508336               0.000664197               0.999999987               0.000490643               0.000663834               0.999999987               0.000466762               0.000657330               0.999999987               0.000436364               0.000643743               0.999999987               0.000399584               0.000623377               0.999999987               0.000357110               0.000596884               0.999999987               0.000310133               0.000565542               0.999999987               0.000260091               0.000531047               0.999999987               0.000208258               0.000494924               0.999999987               0.000155347               0.000457934               0.999999987               0.000101950               0.000420504               0.999999987               0.000624433               0.000918344               0.999999987               0.000509014               0.000788609               0.999999987               0.000471423               0.000751996               0.999999987               0.000457388               0.000747913               0.999999987               0.000448504               0.000754953               0.999999987               0.000437492               0.000763326               0.999999987               0.000420676               0.000768464               0.999999987               0.000396523               0.000767900               0.999999987               0.000364192               0.000760259               0.999999987               0.000323590               0.000745032               0.999999987               0.000275240               0.000722961               0.999999987               0.000220377               0.000695585               0.999999987               0.000160956               0.000664631               0.999999987               0.000098791               0.000632075               0.999999987               0.000035075               0.000599314               0.999999987              -0.000029241               0.000566827               0.999999987              -0.000093410               0.000534578               0.999999987               0.000559472               0.001007284               0.999999987               0.000437997               0.000897493               0.999999987               0.000398170               0.000857747               0.999999987               0.000383961               0.000849668               0.999999987               0.000376364               0.000854564               0.999999987               0.000367703               0.000863540               0.999999987               0.000354294               0.000871951               0.999999987               0.000334673               0.000877228               0.999999987               0.000307764               0.000877756               0.999999987               0.000272933               0.000872474               0.999999987               0.000230277               0.000861285               0.999999987               0.000180225               0.000844749               0.999999987               0.000124027               0.000824107               0.999999987               0.000063052               0.000800960               0.999999987              -0.000000909               0.000776930               0.999999987              -0.000066127               0.000753048               0.999999987              -0.000131244               0.000729913               0.999999987               0.000488872               0.001088360               0.999999987               0.000369517               0.001002854               0.999999987               0.000327569               0.000966311               0.999999987               0.000312384               0.000956353               0.999999987               0.000305253               0.000959994               0.999999987               0.000298255               0.000969615               0.999999987               0.000287706               0.000980795               0.999999987               0.000271935               0.000991069               0.999999987               0.000249914               0.000998735               0.999999987               0.000220757               0.001002517               0.999999987               0.000183941               0.001001635               0.999999987               0.000139672               0.000996069               0.999999987               0.000088222               0.000985983               0.999999987               0.000030470               0.000972569               0.999999987              -0.000032384               0.000957127               0.999999987              -0.000098586               0.000941229               0.999999987              -0.000165917               0.000925950               0.999999987               0.000414037               0.001159532               0.999999987               0.000303429               0.001101567               0.999999987               0.000261267               0.001072721               0.999999987               0.000244941               0.001064109               0.999999987               0.000237559               0.001067951               0.999999987               0.000231602               0.001078697               0.999999987               0.000223188               0.001092560               0.999999987               0.000210690               0.001107227               0.999999987               0.000192936               0.001121140               0.999999987               0.000169022               0.001132970               0.999999987               0.000138321               0.001141651               0.999999987               0.000100452               0.001146537               0.999999987               0.000055057               0.001147416               0.999999987               0.000002252               0.001144680               0.999999987              -0.000057278               0.001139061               0.999999987              -0.000122762               0.001131839               0.999999987              -0.000192496               0.001124341               0.999999987               0.000335600               0.001219534               0.999999987               0.000239755               0.001189478               0.999999987               0.000200143               0.001171566               0.999999987               0.000183502               0.001167185               0.999999987               0.000175830               0.001173037               0.999999987               0.000170410               0.001185669               0.999999987               0.000163545               0.001202521               0.999999987               0.000153588               0.001221325               0.999999987               0.000139570               0.001240838               0.999999987               0.000120616               0.001259775               0.999999987               0.000095916               0.001277064               0.999999987               0.000064943               0.001291801               0.999999987               0.000026808               0.001303524               0.999999987              -0.000018989               0.001311902               0.999999987              -0.000072719               0.001317190               0.999999987              -0.000134274               0.001320010               0.999999987              -0.000203401               0.001321405               0.999999987               0.000254208               0.001267392               0.999999987               0.000178147               0.001262561               0.999999987               0.000144336               0.001256814               0.999999987               0.000129045               0.001258483               0.999999987               0.000121698               0.001267890               0.999999987               0.000116622               0.001283496               0.999999987               0.000111144               0.001303515               0.999999987               0.000103399               0.001326332               0.999999987               0.000092911               0.001350665               0.999999987               0.000078680               0.001375676               0.999999987               0.000059935               0.001400435               0.999999987               0.000036020               0.001423960               0.999999987               0.000006233               0.001445531               0.999999987              -0.000030415               0.001464542               0.999999987              -0.000074800               0.001480753               0.999999987              -0.000127831               0.001494196               0.999999987              -0.000190710               0.001505373               0.999999987               0.000170655               0.001302143               0.999999987               0.000118029               0.001317346               0.999999987               0.000093268               0.001322639               0.999999987               0.000081419               0.001330597               0.999999987               0.000075382               0.001344013               0.999999987               0.000071320               0.001362825               0.999999987               0.000067220               0.001385980               0.999999987               0.000061871               0.001412341               0.999999987               0.000054711               0.001440833               0.999999987               0.000045235               0.001470711               0.999999987               0.000032686               0.001501212               0.999999987               0.000016431               0.001531493               0.999999987              -0.000004066               0.001560907               0.999999987              -0.000029636               0.001588800               0.999999987              -0.000061406               0.001614568               0.999999987              -0.000100864               0.001637895               0.999999987              -0.000149778               0.001658459               0.999999987               0.000085689               0.001323160               0.999999987               0.000058819               0.001351202               0.999999987               0.000045725               0.001364213               0.999999987               0.000039223               0.001376932               0.999999987               0.000035780               0.001393494               0.999999987               0.000033441               0.001414728               0.999999987               0.000031274               0.001440183               0.999999987               0.000028423               0.001468988               0.999999987               0.000024770               0.001500334               0.999999987               0.000020019               0.001533547               0.999999987               0.000013783               0.001567952               0.999999987               0.000005569               0.001602908               0.999999987              -0.000004966               0.001637721               0.999999987              -0.000018039               0.001671787               0.999999987              -0.000034704               0.001704368               0.999999987              -0.000055961               0.001734780               0.999999987              -0.000083125               0.001762208               0.999999987              -0.000000000               0.001330204               0.999999987              -0.000000000               0.001362682               0.999999987               0.000000000               0.001378492               0.999999987              -0.000000000               0.001392926               0.999999987              -0.000000000               0.001410670               0.999999987               0.000000000               0.001432752               0.999999987              -0.000000000               0.001458960               0.999999987               0.000000000               0.001488719               0.999999987               0.000000000               0.001521120               0.999999987              -0.000000000               0.001555417               0.999999987               0.000000000               0.001591180               0.999999987              -0.000000000               0.001627910               0.999999987              -0.000000000               0.001664802               0.999999987              -0.000000000               0.001701253               0.999999987               0.000000000               0.001736397               0.999999987              -0.000000000               0.001769414               0.999999987              -0.000000000               0.001799432               0.999999987 </DataArray>
<DataArray type="Float64"                                    Name="defo"                                                      NumberOfComponents=" 3" format="ascii">
             -0.000921541               0.000000000               0.999999987              -0.000969818               0.000000000               0.999999987              -0.000989562              -0.000000000               0.999999987              -0.000999828               0.000000000               0.999999987              -0.001007758               0.000000000               0.999999987              -0.001015775               0.000000000               0.999999987              -0.001024733               0.000000000               0.999999987              -0.001034819               0.000000000               0.999999987              -0.001045624               0.000000000               0.999999987              -0.001056671               0.000000000               0.999999987              -0.001067855              -0.000000000               0.999999987              -0.001078781               0.000000000               0.999999987              -0.001089082              -0.000000000               0.999999987              -0.001098335              -0.000000000               0.999999987              -0.001105845              -0.000000000               0.999999987              -0.001110956              -0.000000000               0.999999987              -0.001112758              -0.000000000               0.999999987              -0.000916351               0.000127068               0.999999987              -0.000960368               0.000099983               0.999999987              -0.000977360               0.000087367               0.999999987              -0.000985906               0.000081799               0.999999987              -0.000992624               0.000079711               0.999999987              -0.000999689               0.000079147               0.999999987              -0.001007814               0.000079168               0.999999987              -0.001016896               0.000079037               0.999999987              -0.001026568               0.000078001               0.999999987              -0.001036456               0.000075863               0.999999987              -0.001046179               0.000072545               0.999999987              -0.001055410               0.000067702               0.999999987              -0.001063737               0.000060851               0.999999987              -0.001070658               0.000051207               0.999999987              -0.001075629               0.000038031               0.999999987              -0.001078040               0.000020773               0.999999987              -0.001077304              -0.000001710               0.999999987              -0.000900881               0.000253033               0.999999987              -0.000932422               0.000199707               0.999999987              -0.000941678               0.000175839               0.999999987              -0.000945447               0.000165926               0.999999987              -0.000949031               0.000162567               0.999999987              -0.000953715               0.000162048               0.999999987              -0.000959531               0.000162337               0.999999987              -0.000966053               0.000162043               0.999999987              -0.000972759               0.000160154               0.999999987              -0.000979129               0.000156055               0.999999987              -0.000984668               0.000149610               0.999999987              -0.000988956               0.000139975               0.999999987              -0.000991508               0.000126576               0.999999987              -0.000991964               0.000108280               0.999999987              -0.000990008               0.000083883               0.999999987              -0.000985404               0.000052405               0.999999987              -0.000977975               0.000012791               0.999999987              -0.000875314               0.000376660               0.999999987              -0.000887205               0.000298985               0.999999987              -0.000885440               0.000266380               0.999999987              -0.000882920               0.000254067               0.999999987              -0.000882384               0.000250843               0.999999987              -0.000883843               0.000251191               0.999999987              -0.000886416               0.000252191               0.999999987              -0.000889236               0.000252055               0.999999987              -0.000891479               0.000249310               0.999999987              -0.000892435               0.000243404               0.999999987              -0.000891546               0.000233825               0.999999987              -0.000888318               0.000219757               0.999999987              -0.000882422               0.000200420               0.999999987              -0.000873627               0.000174937               0.999999987              -0.000862018               0.000142260               0.999999987              -0.000847805               0.000101962               0.999999987              -0.000831465               0.000053549               0.999999987              -0.000840292               0.000496699               0.999999987              -0.000827395               0.000397740               0.999999987              -0.000813430               0.000359562               0.999999987              -0.000804558               0.000346987               0.999999987              -0.000800088               0.000345243               0.999999987              -0.000798194               0.000347185               0.999999987              -0.000797074               0.000349219               0.999999987              -0.000795432               0.000349284               0.999999987              -0.000792056               0.000345794               0.999999987              -0.000786248               0.000337938               0.999999987              -0.000777415               0.000325273               0.999999987              -0.000765233               0.000307101               0.999999987              -0.000749490               0.000282775               0.999999987              -0.000730435               0.000252047               0.999999987              -0.000708569               0.000214686               0.999999987              -0.000684619               0.000170853               0.999999987              -0.000659625               0.000121717               0.999999987              -0.000796621               0.000612069               0.999999987              -0.000756100               0.000496173               0.999999987              -0.000730918               0.000455467               0.999999987              -0.000717120               0.000444326               0.999999987              -0.000709722               0.000444896               0.999999987              -0.000704873               0.000448801               0.999999987              -0.000700005               0.000452059               0.999999987              -0.000693398               0.000452178               0.999999987              -0.000683771               0.000447677               0.999999987              -0.000670461               0.000437860               0.999999987              -0.000653006               0.000422229               0.999999987              -0.000631291               0.000400532               0.999999987              -0.000605591               0.000372492               0.999999987              -0.000576479               0.000338549               0.999999987              -0.000544866               0.000299569               0.999999987              -0.000511853               0.000256606               0.999999987              -0.000478372               0.000211166               0.999999987              -0.000745264               0.000721672               0.999999987              -0.000676880               0.000594295               0.999999987              -0.000643198               0.000553641               0.999999987              -0.000626934               0.000544901               0.999999987              -0.000618047               0.000547934               0.999999987              -0.000610853               0.000553795               0.999999987              -0.000602281               0.000557963               0.999999987              -0.000590331               0.000557910               0.999999987              -0.000573944               0.000552403               0.999999987              -0.000552461               0.000540673               0.999999987              -0.000525752               0.000522487               0.999999987              -0.000493997               0.000497996               0.999999987              -0.000458110               0.000467522               0.999999987              -0.000418975               0.000432457               0.999999987              -0.000377774               0.000394150               0.999999987              -0.000335478               0.000353797               0.999999987              -0.000292685               0.000312332               0.999999987              -0.000687223               0.000824414               0.999999987              -0.000593568               0.000691796               0.999999987              -0.000555247               0.000652992               0.999999987              -0.000539142               0.000646862               0.999999987              -0.000529929               0.000652080               0.999999987              -0.000520814               0.000659431               0.999999987              -0.000508336               0.000664197               0.999999987              -0.000490643               0.000663834               0.999999987              -0.000466762               0.000657330               0.999999987              -0.000436364               0.000643743               0.999999987              -0.000399584               0.000623377               0.999999987              -0.000357110               0.000596884               0.999999987              -0.000310133               0.000565542               0.999999987              -0.000260091               0.000531047               0.999999987              -0.000208258               0.000494924               0.999999987              -0.000155347               0.000457934               0.999999987              -0.000101950               0.000420504               0.999999987              -0.000624433               0.000918344               0.999999987              -0.000509014               0.000788609               0.999999987              -0.000471423               0.000751996               0.999999987              -0.000457388               0.000747913               0.999999987              -0.000448504               0.000754953               0.999999987              -0.000437492               0.000763326               0.999999987              -0.000420676               0.000768464               0.999999987              -0.000396523               0.000767900               0.999999987              -0.000364192               0.000760259               0.999999987              -0.000323590               0.000745032               0.999999987              -0.000275240               0.000722961               0.999999987              -0.000220377               0.000695585               0.999999987              -0.000160956               0.000664631               0.999999987              -0.000098791               0.000632075               0.999999987              -0.000035075               0.000599314               0.999999987               0.000029241               0.000566827               0.999999987               0.000093410               0.000534578               0.999999987              -0.000559472               0.001007284               0.999999987              -0.000437997               0.000897493               0.999999987              -0.000398170               0.000857747               0.999999987              -0.000383961               0.000849668               0.999999987              -0.000376364               0.000854564               0.999999987              -0.000367703               0.000863540               0.999999987              -0.000354294               0.000871951               0.999999987              -0.000334673               0.000877228               0.999999987              -0.000307764               0.000877756               0.999999987              -0.000272933               0.000872474               0.999999987              -0.000230277               0.000861285               0.999999987              -0.000180225               0.000844749               0.999999987              -0.000124027               0.000824107               0.999999987              -0.000063052               0.000800960               0.999999987               0.000000909               0.000776930               0.999999987               0.000066127               0.000753048               0.999999987               0.000131244               0.000729913               0.999999987              -0.000488872               0.001088360               0.999999987              -0.000369517               0.001002854               0.999999987              -0.000327569               0.000966311               0.999999987              -0.000312384               0.000956353               0.999999987              -0.000305253               0.000959994               0.999999987              -0.000298255               0.000969615               0.999999987              -0.000287706               0.000980795               0.999999987              -0.000271935               0.000991069               0.999999987              -0.000249914               0.000998735               0.999999987              -0.000220757               0.001002517               0.999999987              -0.000183941               0.001001635               0.999999987              -0.000139672               0.000996069               0.999999987              -0.000088222               0.000985983               0.999999987              -0.000030470               0.000972569               0.999999987               0.000032384               0.000957127               0.999999987               0.000098586               0.000941229               0.999999987               0.000165917               0.000925950               0.999999987              -0.000414037               0.001159532               0.999999987              -0.000303429               0.001101567               0.999999987              -0.000261267               0.001072721               0.999999987              -0.000244941               0.001064109               0.999999987              -0.000237559               0.001067951               0.999999987              -0.000231602               0.001078697               0.999999987              -0.000223188               0.001092560               0.999999987              -0.000210690               0.001107227               0.999999987              -0.000192936               0.001121140               0.999999987              -0.000169022               0.001132970               0.999999987              -0.000138321               0.001141651               0.999999987              -0.000100452               0.001146537               0.999999987              -0.000055057               0.001147416               0.999999987              -0.000002252               0.001144680               0.999999987               0.000057278               0.001139061               0.999999987               0.000122762               0.001131839               0.999999987               0.000192496               0.001124341               0.999999987              -0.000335600               0.001219534               0.999999987              -0.000239755               0.001189478               0.999999987              -0.000200143               0.001171566               0.999999987              -0.000183502               0.001167185               0.999999987              -0.000175830               0.001173037               0.999999987              -0.000170410               0.001185669               0.999999987              -0.000163545               0.001202521               0.999999987              -0.000153588               0.001221325               0.999999987              -0.000139570               0.001240838               0.999999987              -0.000120616               0.001259775               0.999999987              -0.000095916               0.001277064               0.999999987              -0.000064943               0.001291801               0.999999987              -0.000026808               0.001303524               0.999999987               0.000018989               0.001311902               0.999999987               0.000072719               0.001317190               0.999999987               0.000134274               0.001320010               0.999999987               0.000203401               0.001321405               0.999999987              -0.000254208               0.001267392               0.999999987              -0.000178147               0.001262561               0.999999987              -0.000144336               0.001256814               0.999999987              -0.000129045               0.001258483               0.999999987              -0.000121698               0.001267890               0.999999987              -0.000116622               0.001283496               0.999999987              -0.000111144               0.001303515               0.999999987              -0.000103399               0.001326332               0.999999987              -0.000092911               0.001350665               0.999999987              -0.000078680               0.001375676               0.999999987              -0.000059935               0.001400435               0.999999987              -0.000036020               0.001423960               0.999999987              -0.000006233               0.001445531               0.999999987               0.000030415               0.001464542               0.999999987               0.000074800               0.001480753               0.999999987               0.000127831               0.001494196               0.999999987               0.000190710               0.001505373               0.999999987              -0.000170655               0.001302143               0.999999987              -0.000118029               0.001317346               0.999999987              -0.000093268               0.001322639               0.999999987              -0.000081419               0.001330597               0.999999987              -0.000075382               0.001344013               0.999999987              -0.000071320               0.001362825               0.999999987              -0.000067220               0.001385980               0.999999987              -0.000061871               0.001412341               0.999999987              -0.000054711               0.001440833               0.999999987              -0.000045235               0.001470711               0.999999987              -0.000032686               0.001501212               0.999999987              -0.000016431               0.001531493               0.999999987               0.000004066               0.001560907               0.999999987               0.000029636               0.001588800               0.999999987               0.000061406               0.001614568               0.999999987               0.000100864               0.001637895               0.999999987               0.000149778               0.001658459               0.999999987              -0.000085689               0.001323160               0.999999987              -0.000058819               0.001351202               0.999999987              -0.000045725               0.001364213               0.999999987              -0.000039223               0.001376932               0.999999987              -0.000035780               0.001393494               0.999999987              -0.000033441               0.001414728               0.999999987              -0.000031274               0.001440183               0.999999987              -0.000028423               0.001468988               0.999999987              -0.000024770               0.001500334               0.999999987              -0.000020019               0.001533547               0.999999987              -0.000013783               0.001567952               0.999999987              -0.000005569               0.001602908               0.999999987               0.000004966               0.001637721               0.999999987               0.000018039               0.001671787               0.999999987               0.000034704               0.001704368               0.999999987               0.000055961               0.001734780               0.999999987               0.000083125               0.001762208               0.999999987              -0.000000000               0.001330204               0.999999987              -0.000000000               0.001362682               0.999999987               0.000000000               0.001378492               0.999999987              -0.000000000               0.001392926               0.999999987              -0.000000000               0.001410670               0.999999987               0.000000000               0.001432752               0.999999987              -0.000000000               0.001458960               0.999999987               0.000000000               0.001488719               0.999999987               0.000000000               0.001521120               0.999999987              -0.000000000               0.001555417               0.999999987               0.000000000               0.001591180               0.999999987              -0.000000000               0.001627910               0.999999987              -0.000000000               0.001664802               0.999999987              -0.000000000               0.001701253               0.999999987               0.000000000               0.001736397               0.999999987              -0.000000000               0.001769414               0.999999987              -0.000000000               0.001799432               0.999999987              -0.000921541               0.000000000               0.999999987              -0.000969818               0.000000000               0.999999987              -0.000989562              -0.000000000               0.999999987              -0.000999828               0.000000000               0.999999987              -0.001007758               0.000000000               0.999999987              -0.001015775               0.000000000               0.999999987              -0.001024733               0.000000000               0.999999987              -0.001034819               0.000000000               0.999999987              -0.001045624               0.000000000               0.999999987              -0.001056671               0.000000000               0.999999987              -0.001067855              -0.000000000               0.999999987              -0.001078781               0.000000000               0.999999987              -0.001089082              -0.000000000               0.999999987              -0.001098335              -0.000000000               0.999999987              -0.001105845              -0.000000000               0.999999987              -0.001110956              -0.000000000               0.999999987              -0.001112758              -0.000000000               0.999999987              -0.000916351              -0.000127068               0.999999987              -0.000960368              -0.000099983               0.999999987              -0.000977360              -0.000087367               0.999999987              -0.000985906              -0.000081799               0.999999987              -0.000992624              -0.000079711               0.999999987              -0.000999689              -0.000079147               0.999999987              -0.001007814              -0.000079168               0.999999987              -0.001016896              -0.000079037               0.999999987              -0.001026568              -0.000078001               0.999999987              -0.001036456              -0.000075863               0.999999987              -0.001046179              -0.000072545               0.999999987              -0.001055410              -0.000067702               0.999999987              -0.001063737              -0.000060851               0.999999987              -0.001070658              -0.000051207               0.999999987              -0.001075629              -0.000038031               0.999999987              -0.001078040              -0.000020773               0.999999987              -0.001077304               0.000001710               0.999999987              -0.000900881              -0.000253033               0.999999987              -0.000932422              -0.000199707               0.999999987              -0.000941678              -0.000175839               0.999999987              -0.000945447              -0.000165926               0.999999987              -0.000949031              -0.000162567               0.999999987              -0.000953715              -0.000162048               0.999999987              -0.000959531              -0.000162337               0.999999987              -0.000966053              -0.000162043               0.999999987              -0.000972759              -0.000160154               0.999999987              -0.000979129              -0.000156055               0.999999987              -0.000984668              -0.000149610               0.999999987              -0.000988956              -0.000139975               0.999999987              -0.000991508              -0.000126576               0.999999987              -0.000991964              -0.000108280               0.999999987              -0.000990008              -0.000083883               0.999999987              -0.000985404              -0.000052405               0.999999987              -0.000977975              -0.000012791               0.999999987              -0.000875314              -0.000376660               0.999999987              -0.000887205              -0.000298985               0.999999987              -0.000885440              -0.000266380               0.999999987              -0.000882920              -0.000254067               0.999999987              -0.000882384              -0.000250843               0.999999987              -0.000883843              -0.000251191               0.999999987              -0.000886416              -0.000252191               0.999999987              -0.000889236              -0.000252055               0.999999987              -0.000891479              -0.000249310               0.999999987              -0.000892435              -0.000243404               0.999999987              -0.000891546              -0.000233825               0.999999987              -0.000888318              -0.000219757               0.999999987              -0.000882422              -0.000200420               0.999999987              -0.000873627              -0.000174937               0.999999987              -0.000862018              -0.000142260               0.999999987              -0.000847805              -0.000101962               0.999999987              -0.000831465              -0.000053549               0.999999987              -0.000840292              -0.000496699               0.999999987              -0.000827395              -0.000397740               0.999999987              -0.000813430              -0.000359562               0.999999987              -0.000804558              -0.000346987               0.999999987              -0.000800088              -0.000345243               0.999999987              -0.000798194              -0.000347185               0.999999987              -0.000797074              -0.000349219               0.999999987              -0.000795432              -0.000349284               0.999999987              -0.000792056              -0.000345794               0.999999987              -0.000786248              -0.000337938               0.999999987              -0.000777415              -0.000325273               0.999999987              -0.000765233              -0.000307101               0.999999987              -0.000749490              -0.000282775               0.999999987              -0.000730435              -0.000252047               0.999999987              -0.000708569              -0.000214686               0.999999987              -0.000684619              -0.000170853               0.999999987              -0.000659625              -0.000121717               0.999999987              -0.000796621              -0.000612069               0.999999987              -0.000756100              -0.000496173               0.999999987              -0.000730918              -0.000455467               0.999999987              -0.000717120              -0.000444326               0.999999987              -0.000709722              -0.000444896               0.999999987              -0.000704873              -0.000448801               0.999999987              -0.000700005              -0.000452059               0.999999987              -0.000693398              -0.000452178               0.999999987              -0.000683771              -0.000447677               0.999999987              -0.000670461              -0.000437860               0.999999987              -0.000653006              -0.000422229               0.999999987              -0.000631291              -0.000400532               0.999999987              -0.000605591              -0.000372492               0.999999987              -0.000576479              -0.000338549               0.999999987              -0.000544866              -0.000299569               0.999999987              -0.000511853              -0.000256606               0.999999987              -0.000478372              -0.000211166               0.999999987              -0.000745264              -0.000721672               0.999999987              -0.000676880              -0.000594295               0.999999987              -0.000643198              -0.000553641               0.999999987              -0.000626934              -0.000544901               0.999999987              -0.000618047              -0.000547934               0.999999987              -0.000610853              -0.000553795               0.999999987              -0.000602281              -0.000557963               0.999999987              -0.000590331              -0.000557910               0.999999987              -0.000573944              -0.000552403               0.999999987              -0.000552461              -0.000540673               0.999999987              -0.000525752              -0.000522487               0.999999987              -0.000493997              -0.000497996               0.999999987              -0.000458110              -0.000467522               0.999999987              -0.000418975              -0.000432457               0.999999987              -0.000377774              -0.000394150               0.999999987              -0.000335478              -0.000353797               0.999999987              -0.000292685              -0.000312332               0.999999987              -0.000687223              -0.000824414               0.999999987              -0.000593568              -0.000691796               0.999999987              -0.000555247              -0.000652992               0.999999987              -0.000539142              -0.000646862               0.999999987              -0.000529929              -0.000652080               0.999999987              -0.000520814              -0.000659431               0.999999987              -0.000508336              -0.000664197               0.999999987              -0.000490643              -0.000663834               0.999999987              -0.000466762              -0.000657330               0.999999987              -0.000436364              -0.000643743               0.999999987              -0.000399584              -0.000623377               0.999999987              -0.000357110              -0.000596884               0.999999987              -0.000310133              -0.000565542               0.999999987              -0.000260091              -0.000531047               0.999999987              -0.000208258              -0.000494924               0.999999987              -0.000155347              -0.000457934               0.999999987              -0.000101950              -0.000420504               0.999999987              -0.000624433              -0.000918344               0.999999987              -0.000509014              -0.000788609               0.999999987              -0.000471423              -0.000751996               0.999999987              -0.000457388              -0.000747913               0.999999987              -0.000448504              -0.000754953               0.999999987              -0.000437492              -0.000763326               0.999999987              -0.000420676              -0.000768464               0.999999987              -0.000396523              -0.000767900               0.999999987              -0.000364192              -0.000760259               0.999999987              -0.000323590              -0.000745032               0.999999987              -0.000275240              -0.000722961               0.999999987              -0.000220377              -0.000695585               0.999999987              -0.000160956              -0.000664631               0.999999987              -0.000098791              -0.000632075               0.999999987              -0.000035075              -0.000599314               0.999999987               0.000029241              -0.000566827               0.999999987               0.000093410              -0.000534578               0.999999987              -0.000559472              -0.001007284               0.999999987              -0.000437997              -0.000897493               0.999999987              -0.000398170              -0.000857747               0.999999987              -0.000383961              -0.000849668               0.999999987              -0.000376364              -0.000854564               0.999999987              -0.000367703              -0.000863540               0.999999987              -0.000354294              -0.000871951               0.999999987              -0.000334673              -0.000877228               0.999999987              -0.000307764              -0.000877756               0.999999987              -0.000272933              -0.000872474               0.999999987              -0.000230277              -0.000861285               0.999999987              -0.000180225              -0.000844749               0.999999987              -0.000124027              -0.000824107               0.999999987              -0.000063052              -0.000800960               0.999999987               0.000000909              -0.000776930               0.999999987               0.000066127              -0.000753048               0.999999987               0.000131244              -0.000729913               0.999999987              -0.000488872              -0.001088360               0.999999987              -0.000369517              -0.001002854               0.999999987              -0.000327569              -0.000966311               0.999999987              -0.000312384              -0.000956353               0.999999987              -0.000305253              -0.000959994               0.999999987              -0.000298255              -0.000969615               0.999999987              -0.000287706              -0.000980795               0.999999987              -0.000271935              -0.000991069               0.999999987              -0.000249914              -0.000998735               0.999999987              -0.000220757              -0.001002517               0.999999987              -0.000183941              -0.001001635               0.999999987              -0.000139672              -0.000996069               0.999999987              -0.000088222              -0.000985983               0.999999987              -0.000030470              -0.000972569               0.999999987               0.000032384              -0.000957127               0.999999987               0.000098586              -0.000941229               0.999999987               0.000165917              -0.000925950               0.999999987              -0.000414037              -0.001159532               0.999999987              -0.000303429              -0.001101567               0.999999987              -0.000261267              -0.001072721               0.999999987              -0.000244941              -0.001064109               0.999999987              -0.000237559              -0.001067951               0.999999987              -0.000231602              -0.001078697               0.999999987              -0.000223188              -0.001092560               0.999999987              -0.000210690              -0.001107227               0.999999987              -0.000192936              -0.001121140               0.999999987              -0.000169022              -0.001132970               0.999999987              -0.000138321              -0.001141651               0.999999987              -0.000100452              -0.001146537               0.999999987              -0.000055057              -0.001147416               0.999999987              -0.000002252              -0.001144680               0.999999987               0.000057278              -0.001139061               0.999999987               0.000122762              -0.001131839               0.999999987               0.000192496              -0.001124341               0.999999987              -0.000335600              -0.001219534               0.999999987              -0.000239755              -0.001189478               0.999999987              -0.000200143              -0.001171566               0.999999987              -0.000183502              -0.001167185               0.999999987              -0.000175830              -0.001173037               0.999999987              -0.000170410              -0.001185669               0.999999987              -0.000163545              -0.001202521               0.999999987              -0.000153588              -0.001221325               0.999999987              -0.000139570              -0.001240838               0.999999987              -0.000120616              -0.001259775               0.999999987              -0.000095916              -0.001277064               0.999999987              -0.000064943              -0.001291801               0.999999987              -0.000026808              -0.001303524               0.999999987               0.000018989              -0.001311902               0.999999987               0.000072719              -0.001317190               0.999999987               0.000134274              -0.001320010               0.999999987               0.000203401              -0.001321405               0.999999987              -0.000254208              -0.001267392               0.999999987              -0.000178147              -0.001262561               0.999999987              -0.000144336              -0.001256814               0.999999987              -0.000129045              -0.001258483               0.999999987              -0.000121698              -0.001267890               0.999999987              -0.000116622              -0.001283496               0.999999987              -0.000111144              -0.001303515               0.999999987              -0.000103399              -0.001326332               0.999999987              -0.000092911              -0.001350665               0.999999987              -0.000078680              -0.001375676               0.999999987              -0.000059935              -0.001400435               0.999999987              -0.000036020              -0.001423960               0.999999987              -0.000006233              -0.001445531               0.999999987               0.000030415              -0.001464542               0.999999987               0.000074800              -0.001480753               0.999999987               0.000127831              -0.001494196               0.999999987               0.000190710              -0.001505373               0.999999987              -0.000170655              -0.001302143               0.999999987              -0.000118029              -0.001317346               0.999999987              -0.000093268              -0.001322639               0.999999987              -0.000081419              -0.001330597               0.999999987              -0.000075382              -0.001344013               0.999999987              -0.000071320              -0.001362825               0.999999987              -0.000067220              -0.001385980               0.999999987              -0.000061871              -0.001412341               0.999999987              -0.000054711              -0.001440833               0.999999987              -0.000045235              -0.001470711               0.999999987              -0.000032686              -0.001501212               0.999999987              -0.000016431              -0.001531493               0.999999987               0.000004066              -0.001560907               0.999999987               0.000029636              -0.001588800               0.999999987               0.000061406              -0.001614568               0.999999987               0.000100864              -0.001637895               0.999999987               0.000149778              -0.001658459               0.999999987              -0.000085689              -0.001323160               0.999999987              -0.000058819              -0.001351202               0.999999987              -0.000045725              -0.001364213               0.999999987              -0.000039223              -0.001376932               0.999999987              -0.000035780              -0.001393494               0.999999987              -0.000033441              -0.001414728               0.999999987              -0.000031274              -0.001440183               0.999999987              -0.000028423              -0.001468988               0.999999987              -0.000024770              -0.001500334               0.999999987              -0.000020019              -0.001533547               0.999999987              -0.000013783              -0.001567952               0.999999987              -0.000005569              -0.001602908               0.999999987               0.000004966              -0.001637721               0.999999987               0.000018039              -0.001671787               0.999999987               0.000034704              -0.001704368               0.999999987               0.000055961              -0.001734780               0.999999987               0.000083125              -0.001762208               0.999999987              -0.000000000              -0.001330204               0.999999987              -0.000000000              -0.001362682               0.999999987               0.000000000              -0.001378492               0.999999987              -0.000000000              -0.001392926               0.999999987              -0.000000000              -0.001410670               0.999999987               0.000000000              -0.001432752               0.999999987              -0.000000000              -0.001458960               0.999999987              -0.000000000              -0.001488719               0.999999987              -0.000000000              -0.001521120               0.999999987              -0.000000000              -0.001555417               0.999999987              -0.000000000              -0.001591180               0.999999987               0.000000000              -0.001627910               0.999999987               0.000000000              -0.001664802               0.999999987               0.000000000              -0.001701253               0.999999987              -0.000000000              -0.001736397               0.999999987              -0.000000000              -0.001769414               0.999999987              -0.000000000              -0.001799432               0.999999987               0.000921541               0.000000000               0.999999987               0.000969818               0.000000000               0.999999987               0.000989562               0.000000000               0.999999987               0.000999828              -0.000000000               0.999999987               0.001007758              -0.000000000               0.999999987               0.001015775               0.000000000               0.999999987               0.001024733               0.000000000               0.999999987               0.001034819              -0.000000000               0.999999987               0.001045624               0.000000000               0.999999987               0.001056671               0.000000000               0.999999987               0.001067855               0.000000000               0.999999987               0.001078781               0.000000000               0.999999987               0.001089082               0.000000000               0.999999987               0.001098335              -0.000000000               0.999999987               0.001105845              -0.000000000               0.999999987               0.001110956               0.000000000               0.999999987               0.001112758              -0.000000000               0.999999987               0.000916351              -0.000127068               0.999999987               0.000960368              -0.000099983               0.999999987               0.000977360              -0.000087367               0.999999987               0.000985906              -0.000081799               0.999999987               0.000992624              -0.000079711               0.999999987               0.000999689              -0.000079147               0.999999987               0.001007814              -0.000079168               0.999999987               0.001016896              -0.000079037               0.999999987               0.001026568              -0.000078001               0.999999987               0.001036456              -0.000075863               0.999999987               0.001046179              -0.000072545               0.999999987               0.001055410              -0.000067702               0.999999987               0.001063737              -0.000060851               0.999999987               0.001070658              -0.000051207               0.999999987               0.001075629              -0.000038031               0.999999987               0.001078040              -0.000020773               0.999999987               0.001077304               0.000001710               0.999999987               0.000900881              -0.000253033               0.999999987               0.000932422              -0.000199707               0.999999987               0.000941678              -0.000175839               0.999999987               0.000945447              -0.000165926               0.999999987               0.000949031              -0.000162567               0.999999987               0.000953715              -0.000162048               0.999999987               0.000959531              -0.000162337               0.999999987               0.000966053              -0.000162043               0.999999987               0.000972759              -0.000160154               0.999999987               0.000979129              -0.000156055               0.999999987               0.000984668              -0.000149610               0.999999987               0.000988956              -0.000139975               0.999999987               0.000991508              -0.000126576               0.999999987               0.000991964              -0.000108280               0.999999987               0.000990008              -0.000083883               0.999999987               0.000985404              -0.000052405               0.999999987               0.000977975              -0.000012791               0.999999987               0.000875314              -0.000376660               0.999999987               0.000887205              -0.000298985               0.999999987               0.000885440              -0.000266380               0.999999987               0.000882920              -0.000254067               0.999999987               0.000882384              -0.000250843               0.999999987               0.000883843              -0.000251191               0.999999987               0.000886416              -0.000252191               0.999999987               0.000889236              -0.000252055               0.999999987               0.000891479              -0.000249310               0.999999987               0.000892435              -0.000243404               0.999999987               0.000891546              -0.000233825               0.999999987               0.000888318              -0.000219757               0.999999987               0.000882422              -0.000200420               0.999999987               0.000873627              -0.000174937               0.999999987               0.000862018              -0.000142260               0.999999987               0.000847805              -0.000101962               0.999999987               0.000831465              -0.000053549               0.999999987               0.000840292              -0.000496699               0.999999987               0.000827395              -0.000397740               0.999999987               0.000813430              -0.000359562               0.999999987               0.000804558              -0.000346987               0.999999987               0.000800088              -0.000345243               0.999999987               0.000798194              -0.000347185               0.999999987               0.000797074              -0.000349219               0.999999987               0.000795432              -0.000349284               0.999999987               0.000792056              -0.000345794               0.999999987               0.000786248              -0.000337938               0.999999987               0.000777415              -0.000325273               0.999999987               0.000765233              -0.000307101               0.999999987               0.000749490              -0.000282775               0.999999987               0.000730435              -0.000252047               0.999999987               0.000708569              -0.000214686               0.999999987               0.000684619              -0.000170853               0.999999987               0.000659625              -0.000121717               0.999999987               0.000796621              -0.000612069               0.999999987               0.000756100              -0.000496173               0.999999987               0.000730918              -0.000455467               0.999999987               0.000717120              -0.000444326               0.999999987               0.000709722              -0.000444896               0.999999987               0.000704873              -0.000448801               0.999999987               0.000700005              -0.000452059               0.999999987               0.000693398              -0.000452178               0.999999987               0.000683771              -0.000447677               0.999999987               0.000670461              -0.000437860               0.999999987               0.000653006              -0.000422229               0.999999987               0.000631291              -0.000400532               0.999999987               0.000605591              -0.000372492               0.999999987               0.000576479              -0.000338549               0.999999987               0.000544866              -0.000299569               0.999999987               0.000511853              -0.000256606               0.999999987               0.000478372              -0.000211166               0.999999987               0.000745264              -0.000721672               0.999999987               0.000676880              -0.000594295               0.999999987               0.000643198              -0.000553641               0.999999987               0.000626934              -0.000544901               0.999999987               0.000618047              -0.000547934               0.999999987               0.000610853              -0.000553795               0.999999987               0.000602281              -0.000557963               0.999999987               0.000590331              -0.000557910               0.999999987               0.000573944              -0.000552403               0.999999987               0.000552461              -0.000540673               0.999999987               0.000525752              -0.000522487               0.999999987               0.000493997              -0.000497996               0.999999987               0.000458110              -0.000467522               0.999999987               0.000418975              -0.000432457               0.999999987               0.000377774              -0.000394150               0.999999987               0.000335478              -0.000353797               0.999999987               0.000292685              -0.000312332               0.999999987               0.000687223              -0.000824414               0.999999987               0.000593568              -0.000691796               0.999999987               0.000555247              -0.000652992               0.999999987               0.000539142              -0.000646862               0.999999987               0.000529929              -0.000652080               0.999999987               0.000520814              -0.000659431               0.999999987               0.000508336              -0.000664197               0.999999987               0.000490643              -0.000663834               0.999999987               0.000466762              -0.000657330               0.999999987               0.000436364              -0.000643743               0.999999987               0.000399584              -0.000623377               0.999999987               0.000357110              -0.000596884               0.999999987               0.000310133              -0.000565542               0.999999987               0.000260091              -0.000531047               0.999999987               0.000208258              -0.000494924               0.999999987               0.000155347              -0.000457934               0.999999987               0.000101950              -0.000420504               0.999999987               0.000624433              -0.000918344               0.999999987               0.000509014              -0.000788609               0.999999987               0.000471423              -0.000751996               0.999999987               0.000457388              -0.000747913               0.999999987               0.000448504              -0.000754953               0.999999987               0.000437492              -0.000763326               0.999999987               0.000420676              -0.000768464               0.999999987               0.000396523              -0.000767900               0.999999987               0.000364192              -0.000760259               0.999999987               0.000323590              -0.000745032               0.999999987               0.000275240              -0.000722961               0.999999987               0.000220377              -0.000695585               0.999999987               0.000160956              -0.000664631               0.999999987               0.000098791              -0.000632075               0.999999987               0.000035075              -0.000599314               0.999999987              -0.000029241              -0.000566827               0.999999987              -0.000093410              -0.000534578               0.999999987               0.000559472              -0.001007284               0.999999987               0.000437997              -0.000897493               0.999999987               0.000398170              -0.000857747               0.999999987               0.000383961              -0.000849668               0.999999987               0.000376364              -0.000854564               0.999999987               0.000367703              -0.000863540               0.999999987               0.000354294              -0.000871951               0.999999987               0.000334673              -0.000877228               0.999999987               0.000307764              -0.000877756               0.999999987               0.000272933              -0.000872474               0.999999987               0.000230277              -0.000861285               0.999999987               0.000180225              -0.000844749               0.999999987               0.000124027              -0.000824107               0.999999987               0.000063052              -0.000800960               0.999999987              -0.000000909              -0.000776930               0.999999987              -0.000066127              -0.000753048               0.999999987              -0.000131244              -0.000729913               0.999999987               0.000488872              -0.001088360               0.999999987               0.000369517              -0.001002854               0.999999987               0.000327569              -0.000966311               0.999999987               0.000312384              -0.000956353               0.999999987               0.000305253              -0.000959994               0.999999987               0.000298255              -0.000969615               0.999999987               0.000287706              -0.000980795               0.999999987               0.000271935              -0.000991069               0.999999987               0.000249914              -0.000998735               0.999999987               0.000220757              -0.001002517               0.999999987               0.000183941              -0.001001635               0.999999987               0.000139672              -0.000996069               0.999999987               0.000088222              -0.000985983               0.999999987               0.000030470              -0.000972569               0.999999987              -0.000032384              -0.000957127               0.999999987              -0.000098586              -0.000941229               0.999999987              -0.000165917              -0.000925950               0.999999987               0.000414037              -0.001159532               0.999999987               0.000303429              -0.001101567               0.999999987               0.000261267              -0.001072721               0.999999987               0.000244941              -0.001064109               0.999999987               0.000237559              -0.001067951               0.999999987               0.000231602              -0.001078697               0.999999987               0.000223188              -0.001092560               0.999999987               0.000210690              -0.001107227               0.999999987               0.000192936              -0.001121140               0.999999987               0.000169022              -0.001132970               0.999999987               0.000138321              -0.001141651               0.999999987               0.000100452              -0.001146537               0.999999987               0.000055057              -0.001147416               0.999999987               0.000002252              -0.001144680               0.999999987              -0.000057278              -0.001139061               0.999999987              -0.000122762              -0.001131839               0.999999987              -0.000192496              -0.001124341               0.999999987               0.000335600              -0.001219534               0.999999987               0.000239755              -0.001189478               0.999999987               0.000200143              -0.001171566               0.999999987               0.000183502              -0.001167185               0.999999987               0.000175830              -0.001173037               0.999999987               0.000170410              -0.001185669               0.999999987               0.000163545              -0.001202521               0.999999987               0.000153588              -0.001221325               0.999999987               0.000139570              -0.001240838               0.999999987               0.000120616              -0.001259775               0.999999987               0.000095916              -0.001277064               0.999999987               0.000064943              -0.001291801               0.999999987               0.000026808              -0.001303524               0.999999987              -0.000018989              -0.001311902               0.999999987              -0.000072719              -0.001317190               0.999999987              -0.000134274              -0.001320010               0.999999987              -0.000203401              -0.001321405               0.999999987               0.000254208              -0.001267392               0.999999987               0.000178147              -0.001262561               0.999999987               0.000144336              -0.001256814               0.999999987               0.000129045              -0.001258483               0.999999987               0.000121698              -0.001267890               0.999999987               0.000116622              -0.001283496               0.999999987               0.000111144              -0.001303515               0.999999987               0.000103399              -0.001326332               0.999999987               0.000092911              -0.001350665               0.999999987               0.000078680              -0.001375676               0.999999987               0.000059935              -0.001400435               0.999999987               0.000036020              -0.001423960               0.999999987               0.000006233              -0.001445531               0.999999987              -0.000030415              -0.001464542               0.999999987              -0.000074800              -0.001480753               0.999999987              -0.000127831              -0.001494196               0.999999987              -0.000190710              -0.001505373               0.999999987               0.000170655              -0.001302143               0.999999987               0.000118029              -0.001317346               0.999999987               0.000093268              -0.001322639               0.999999987               0.000081419              -0.001330597               0.999999987               0.000075382              -0.001344013               0.999999987               0.000071320              -0.001362825               0.999999987               0.000067220              -0.001385980               0.999999987               0.000061871              -0.001412341               0.999999987               0.000054711              -0.001440833               0.999999987               0.000045235              -0.001470711               0.999999987               0.000032686              -0.001501212               0.999999987               0.000016431              -0.001531493               0.999999987              -0.000004066              -0.001560907               0.999999987              -0.000029636              -0.001588800               0.999999987              -0.000061406              -0.001614568               0.999999987              -0.000100864              -0.001637895               0.999999987              -0.000149778              -0.001658459               0.999999987               0.000085689              -0.001323160               0.999999987               0.000058819              -0.001351202               0.999999987               0.000045725              -0.001364213               0.999999987               0.000039223              -0.001376932               0.999999987               0.000035780              -0.001393494               0.999999987               0.000033441              -0.001414728               0.999999987               0.000031274              -0.001440183               0.999999987               0.000028423              -0.001468988               0.999999987               0.000024770              -0.001500334               0.999999987               0.000020019              -0.001533547               0.999999987               0.000013783              -0.001567952               0.999999987               0.000005569              -0.001602908               0.999999987              -0.000004966              -0.001637721               0.999999987              -0.000018039              -0.001671787               0.999999987              -0.000034704              -0.001704368               0.999999987              -0.000055961              -0.001734780               0.999999987              -0.000083125              -0.001762208               0.999999987              -0.000000000              -0.001330204               0.999999987              -0.000000000              -0.001362682               0.999999987               0.000000000              -0.001378492               0.999999987              -0.000000000              -0.001392926               0.999999987              -0.000000000              -0.001410670               0.999999987               0.000000000              -0.001432752               0.999999987              -0.000000000              -0.001458960               0.999999987              -0.000000000              -0.001488719               0.999999987              -0.000000000              -0.001521120               0.999999987              -0.000000000              -0.001555417               0.999999987              -0.000000000              -0.001591180               0.999999987               0.000000000              -0.001627910               0.999999987               0.000000000              -0.001664802               0.999999987               0.000000000              -0.001701253               0.999999987              -0.000000000              -0.001736397               0.999999987              -0.000000000              -0.001769414               0.999999987              -0.000000000              -0.001799432               0.999999987               0.000921541               0.000000000               0.999999987               0.000969818               0.000000000               0.999999987               0.000989562               0.000000000               0.999999987               0.000999828              -0.000000000               0.999999987               0.001007758              -0.000000000               0.999999987               0.001015775               0.000000000               0.999999987               0.001024733               0.000000000               0.999999987               0.001034819              -0.000000000               0.999999987               0.001045624               0.000000000               0.999999987               0.001056671               0.000000000               0.999999987               0.001067855               0.000000000               0.999999987               0.001078781               0.000000000               0.999999987               0.001089082               0.000000000               0.999999987               0.001098335              -0.000000000               0.999999987               0.001105845              -0.000000000               0.999999987               0.001110956               0.000000000               0.999999987               0.001112758              -0.000000000               0.999999987               0.000916351               0.000127068               0.999999987               0.000960368               0.000099983               0.999999987               0.000977360               0.000087367               0.999999987               0.000985906               0.000081799               0.999999987               0.000992624               0.000079711               0.999999987               0.000999689               0.000079147               0.999999987               0.001007814               0.000079168               0.999999987               0.001016896               0.000079037               0.999999987               0.001026568               0.000078001               0.999999987               0.001036456               0.000075863               0.999999987               0.001046179               0.000072545               0.999999987               0.001055410               0.000067702               0.999999987               0.001063737               0.000060851               0.999999987               0.001070658               0.000051207               0.999999987               0.001075629               0.000038031               0.999999987               0.001078040               0.000020773               0.999999987               0.001077304              -0.000001710               0.999999987               0.000900881               0.000253033               0.999999987               0.000932422               0.000199707               0.999999987               0.000941678               0.000175839               0.999999987               0.000945447               0.000165926               0.999999987               0.000949031               0.000162567               0.999999987               0.000953715               0.000162048               0.999999987               0.000959531               0.000162337               0.999999987               0.000966053               0.000162043               0.999999987               0.000972759               0.000160154               0.999999987               0.000979129               0.000156055               0.999999987               0.000984668               0.000149610               0.999999987               0.000988956               0.000139975               0.999999987               0.000991508               0.000126576               0.999999987               0.000991964               0.000108280               0.999999987               0.000990008               0.000083883               0.999999987               0.000985404               0.000052405               0.999999987               0.000977975               0.000012791               0.999999987               0.000875314               0.000376660               0.999999987               0.000887205               0.000298985               0.999999987               0.000885440               0.000266380               0.999999987               0.000882920               0.000254067               0.999999987               0.000882384               0.000250843               0.999999987               0.000883843               0.000251191               0.999999987               0.000886416               0.000252191               0.999999987               0.000889236               0.000252055               0.999999987               0.000891479               0.000249310               0.999999987               0.000892435               0.000243404               0.999999987               0.000891546               0.000233825               0.999999987               0.000888318               0.000219757               0.999999987               0.000882422               0.000200420               0.999999987               0.000873627               0.000174937               0.999999987               0.000862018               0.000142260               0.999999987               0.000847805               0.000101962               0.999999987               0.000831465               0.000053549               0.999999987               0.000840292               0.000496699               0.999999987               0.000827395               0.000397740               0.999999987               0.000813430               0.000359562               0.999999987               0.000804558               0.000346987               0.999999987               0.000800088               0.000345243               0.999999987               0.000798194               0.000347185               0.999999987               0.000797074               0.000349219               0.999999987               0.000795432               0.000349284               0.999999987               0.000792056               0.000345794               0.999999987               0.000786248               0.000337938               0.999999987               0.000777415               0.000325273               0.999999987               0.000765233               0.000307101               0.999999987               0.000749490               0.000282775               0.999999987               0.000730435               0.000252047               0.999999987               0.000708569               0.000214686               0.999999987               0.000684619               0.000170853               0.999999987               0.000659625               0.000121717               0.999999987               0.000796621               0.000612069               0.999999987               0.000756100               0.000496173               0.999999987               0.000730918               0.000455467               0.999999987               0.000717120               0.000444326               0.999999987               0.000709722               0.000444896               0.999999987               0.000704873               0.000448801               0.999999987               0.000700005               0.000452059               0.999999987               0.000693398               0.000452178               0.999999987               0.000683771               0.000447677               0.999999987               0.000670461               0.000437860               0.999999987               0.000653006               0.000422229               0.999999987               0.000631291               0.000400532               0.999999987               0.000605591               0.000372492               0.999999987               0.000576479               0.000338549               0.999999987               0.000544866               0.000299569               0.999999987               0.000511853               0.000256606               0.999999987               0.000478372               0.000211166               0.999999987               0.000745264               0.000721672               0.999999987               0.000676880               0.000594295               0.999999987               0.000643198               0.000553641               0.999999987               0.000626934               0.000544901               0.999999987               0.000618047               0.000547934               0.999999987               0.000610853               0.000553795               0.999999987               0.000602281               0.000557963               0.999999987               0.000590331               0.000557910               0.999999987               0.000573944               0.000552403               0.999999987               0.000552461               0.000540673               0.999999987               0.000525752               0.000522487               0.999999987               0.000493997               0.000497996               0.999999987               0.000458110               0.000467522               0.999999987               0.000418975               0.000432457               0.999999987               0.000377774               0.000394150               0.999999987               0.000335478               0.000353797               0.999999987               0.000292685               0.000312332               0.999999987               0.000687223               0.000824414               0.999999987               0.000593568               0.000691796               0.999999987               0.000555247               0.000652992               0.999999987               0.000539142               0.000646862               0.999999987               0.000529929               0.000652080               0.999999987               0.000520814               0.000659431               0.999999987               0.000508336               0.000664197               0.999999987               0.000490643               0.000663834               0.999999987               0.000466762               0.000657330               0.999999987               0.000436364               0.000643743               0.999999987               0.000399584               0.000623377               0.999999987               0.000357110               0.000596884               0.999999987               0.000310133               0.000565542               0.999999987               0.000260091               0.000531047               0.999999987               0.000208258               0.000494924               0.999999987               0.000155347               0.000457934               0.999999987               0.000101950               0.000420504               0.999999987               0.000624433               0.000918344               0.999999987               0.000509014               0.000788609               0.999999987               0.000471423               0.000751996               0.999999987               0.000457388               0.000747913               0.999999987               0.000448504               0.000754953               0.999999987               0.000437492               0.000763326               0.999999987               0.000420676               0.000768464               0.999999987               0.000396523               0.000767900               0.999999987               0.000364192               0.000760259               0.999999987               0.000323590               0.000745032               0.999999987               0.000275240               0.000722961               0.999999987               0.000220377               0.000695585               0.999999987               0.000160956               0.000664631               0.999999987               0.000098791               0.000632075               0.999999987               0.000035075               0.000599314               0.999999987              -0.000029241               0.000566827               0.999999987              -0.000093410               0.000534578               0.999999987               0.000559472               0.001007284               0.999999987               0.000437997               0.000897493               0.999999987               0.000398170               0.000857747               0.999999987               0.000383961               0.000849668               0.999999987               0.000376364               0.000854564               0.999999987               0.000367703               0.000863540               0.999999987               0.000354294               0.000871951               0.999999987               0.000334673               0.000877228               0.999999987               0.000307764               0.000877756               0.999999987               0.000272933               0.000872474               0.999999987               0.000230277               0.000861285               0.999999987               0.000180225               0.000844749               0.999999987               0.000124027               0.000824107               0.999999987               0.000063052               0.000800960               0.999999987              -0.000000909               0.000776930               0.999999987              -0.000066127               0.000753048               0.999999987              -0.000131244               0.000729913               0.999999987               0.000488872               0.001088360               0.999999987               0.000369517               0.001002854               0.999999987               0.000327569               0.000966311               0.999999987               0.000312384               0.000956353               0.999999987               0.000305253               0.000959994               0.999999987               0.000298255               0.000969615               0.999999987               0.000287706               0.000980795               0.999999987               0.000271935               0.000991069               0.999999987               0.000249914               0.000998735               0.999999987               0.000220757               0.001002517               0.999999987               0.000183941               0.001001635               0.999999987               0.000139672               0.000996069               0.999999987               0.000088222               0.000985983               0.999999987               0.000030470               0.000972569               0.999999987              -0.000032384               0.000957127               0.999999987              -0.000098586               0.000941229               0.999999987              -0.000165917               0.000925950               0.999999987               0.000414037               0.001159532               0.999999987               0.000303429               0.001101567               0.999999987               0.000261267               0.001072721               0.999999987               0.000244941               0.001064109               0.999999987               0.000237559               0.001067951               0.999999987               0.000231602               0.001078697               0.999999987               0.000223188               0.001092560               0.999999987               0.000210690               0.001107227               0.999999987               0.000192936               0.001121140               0.999999987               0.000169022               0.001132970               0.999999987               0.000138321               0.001141651               0.999999987               0.000100452               0.001146537               0.999999987               0.000055057               0.001147416               0.999999987               0.000002252               0.001144680               0.999999987              -0.000057278               0.001139061               0.999999987              -0.000122762               0.001131839               0.999999987              -0.000192496               0.001124341               0.999999987               0.000335600               0.001219534               0.999999987               0.000239755               0.001189478               0.999999987               0.000200143               0.001171566               0.999999987               0.000183502               0.001167185               0.999999987               0.000175830               0.001173037               0.999999987               0.000170410               0.001185669               0.999999987               0.000163545               0.001202521               0.999999987               0.000153588               0.001221325               0.999999987               0.000139570               0.001240838               0.999999987               0.000120616               0.001259775               0.999999987               0.000095916               0.001277064               0.999999987               0.000064943               0.001291801               0.999999987               0.000026808               0.001303524               0.999999987              -0.000018989               0.001311902               0.999999987              -0.000072719               0.001317190               0.999999987              -0.000134274               0.001320010               0.999999987              -0.000203401               0.001321405               0.999999987               0.000254208               0.001267392               0.999999987               0.000178147               0.001262561               0.999999987               0.000144336               0.001256814               0.999999987               0.000129045               0.001258483               0.999999987               0.000121698               0.001267890               0.999999987               0.000116622               0.001283496               0.999999987               0.000111144               0.001303515               0.999999987               0.000103399               0.001326332               0.999999987               0.000092911               0.001350665               0.999999987               0.000078680               0.001375676               0.999999987               0.000059935               0.001400435               0.999999987               0.000036020               0.001423960               0.999999987               0.000006233               0.001445531               0.999999987              -0.000030415               0.001464542               0.999999987              -0.000074800               0.001480753               0.999999987              -0.000127831               0.001494196               0.999999987              -0.000190710               0.001505373               0.999999987               0.000170655               0.001302143               0.999999987               0.000118029               0.001317346               0.999999987               0.000093268               0.001322639               0.999999987               0.000081419               0.001330597               0.999999987               0.000075382               0.001344013               0.999999987               0.000071320               0.001362825               0.999999987               0.000067220               0.001385980               0.999999987               0.000061871               0.001412341               0.999999987               0.000054711               0.001440833               0.999999987               0.000045235               0.001470711               0.999999987               0.000032686               0.001501212               0.999999987               0.000016431               0.001531493               0.999999987              -0.000004066               0.001560907               0.999999987              -0.000029636               0.001588800               0.999999987              -0.000061406               0.001614568               0.999999987              -0.000100864               0.001637895               0.999999987              -0.000149778               0.001658459               0.999999987               0.000085689               0.001323160               0.999999987               0.000058819               0.001351202               0.999999987               0.000045725               0.001364213               0.999999987               0.000039223               0.001376932               0.999999987               0.000035780               0.001393494               0.999999987               0.000033441               0.001414728               0.999999987               0.000031274               0.001440183               0.999999987               0.000028423               0.001468988               0.999999987               0.000024770               0.001500334               0.999999987               0.000020019               0.001533547               0.999999987               0.000013783               0.001567952               0.999999987               0.000005569               0.001602908               0.999999987              -0.000004966               0.001637721               0.999999987              -0.000018039               0.001671787               0.999999987              -0.000034704               0.001704368               0.999999987              -0.000055961               0.001734780               0.999999987              -0.000083125               0.001762208               0.999999987              -0.000000000               0.001330204               0.999999987              -0.000000000               0.001362682               0.999999987               0.000000000               0.001378492               0.999999987              -0.000000000               0.001392926               0.999999987              -0.000000000               0.001410670               0.999999987               0.000000000               0.001432752               0.999999987              -0.000000000               0.001458960               0.999999987               0.000000000               0.001488719               0.999999987               0.000000000               0.001521120               0.999999987              -0.000000000               0.001555417               0.999999987               0.000000000               0.001591180               0.999999987              -0.000000000               0.001627910               0.999999987              -0.000000000               0.001664802               0.999999987              -0.000000000               0.001701253               0.999999987               0.000000000               0.001736397               0.999999987              -0.000000000               0.001769414               0.999999987              -0.000000000               0.001799432               0.999999987 </DataArray>
<DataArray type="Float64"                                    Name="stress"                                                      NumberOfComponents="10" format="ascii">
              0.002181295               0.023012891              -0.000000000              -0.002058621               0.008357094               0.006298473               0.000000000               0.000000000               0.000000000               0.000000000               0.002082064               0.017567668              -0.000000000              -0.001415181               0.006327558               0.004912377               0.000000000               0.000000000               0.000000000               0.000000000               0.002683369               0.013153335               0.000000000              -0.000637902               0.004597035               0.003959133               0.000000000               0.000000000               0.000000000               0.000000000               0.002486073               0.010661235               0.000000000              -0.000400376               0.003687168               0.003286792               0.000000000               0.000000000               0.000000000               0.000000000               0.002070233               0.009076612              -0.000000000              -0.000358238               0.003144920               0.002786682               0.000000000               0.000000000               0.000000000               0.000000000               0.001631139               0.007954808               0.000000000              -0.000382673               0.002779134               0.002396461               0.000000000               0.000000000               0.000000000               0.000000000               0.001225824               0.007086696               0.000000000              -0.000426152               0.002504259               0.002078107               0.000000000               0.000000000               0.000000000               0.000000000               0.000884585               0.006358271              -0.000000000              -0.000463063               0.002273757               0.001810694               0.000000000               0.000000000               0.000000000               0.000000000               0.000613315               0.005696251              -0.000000000              -0.000482037               0.002059410               0.001577373               0.000000000               0.000000000               0.000000000               0.000000000               0.000388733               0.005065670              -0.000000000              -0.000487433               0.001851017               0.001363585               0.000000000               0.000000000               0.000000000               0.000000000               0.000202145               0.004451636              -0.000000000              -0.000480649               0.001644080               0.001163431               0.000000000               0.000000000               0.000000000               0.000000000               0.000058247               0.003836569               0.000000000              -0.000457727               0.001431419               0.000973692               0.000000000               0.000000000               0.000000000               0.000000000              -0.000046744               0.003194929               0.000000000              -0.000416894               0.001203930               0.000787036               0.000000000               0.000000000               0.000000000               0.000000000              -0.000106627               0.002499277              -0.000000000              -0.000352394               0.000950548               0.000598154               0.000000000               0.000000000               0.000000000               0.000000000              -0.000117246               0.001728585               0.000000000              -0.000260040               0.000662869               0.000402829               0.000000000               0.000000000               0.000000000               0.000000000              -0.000073728               0.000868263              -0.000000000              -0.000136181               0.000334811               0.000198631               0.000000000               0.000000000               0.000000000               0.000000000              -0.000106691               0.000215183              -0.000000000              -0.000066907               0.000094029               0.000027122               0.000000000               0.000000000               0.000000000               0.000000000               0.002238340               0.022513097              -0.001500778              -0.001974755               0.008162542               0.006187787               0.000000000               0.000000000               0.000000000               0.000000000               0.002009826               0.017255002              -0.000643515              -0.001403187               0.006219339               0.004816152               0.000000000               0.000000000               0.000000000               0.000000000               0.002470256               0.013037230               0.000197598              -0.000703306               0.004580135               0.003876829               0.000000000               0.000000000               0.000000000               0.000000000               0.002220334               0.010649036               0.000533967              -0.000498503               0.003715811               0.003217308               0.000000000               0.000000000               0.000000000               0.000000000               0.001796785               0.009116308               0.000654779              -0.000465743               0.003193987               0.002728244               0.000000000               0.000000000               0.000000000               0.000000000               0.001370694               0.008020444               0.000683291              -0.000488544               0.002836303               0.002347758               0.000000000               0.000000000               0.000000000               0.000000000               0.000991373               0.007160777               0.000673113              -0.000523331               0.002561346               0.002038014               0.000000000               0.000000000               0.000000000               0.000000000               0.000679295               0.006431670               0.000642285              -0.000549222               0.002326942               0.001777720               0.000000000               0.000000000               0.000000000               0.000000000               0.000431527               0.005771251               0.000603344              -0.000559582               0.002110259               0.001550676               0.000000000               0.000000000               0.000000000               0.000000000               0.000234659               0.005145667               0.000568736              -0.000555210               0.001900275               0.001345065               0.000000000               0.000000000               0.000000000               0.000000000               0.000079673               0.004538092               0.000536406              -0.000537383               0.001691810               0.001154427               0.000000000               0.000000000               0.000000000               0.000000000              -0.000036267               0.003927449               0.000498676              -0.000504530               0.001477313               0.000972783               0.000000000               0.000000000               0.000000000               0.000000000              -0.000111033               0.003298620               0.000447306              -0.000453964               0.001250850               0.000796886               0.000000000               0.000000000               0.000000000               0.000000000              -0.000143576               0.002631403               0.000374791              -0.000382766               0.001004714               0.000621948               0.000000000               0.000000000               0.000000000               0.000000000              -0.000133027               0.001907816               0.000281829              -0.000288362               0.000732053               0.000443691               0.000000000               0.000000000               0.000000000               0.000000000              -0.000078924               0.001116242               0.000158903              -0.000169127               0.000428452               0.000259326               0.000000000               0.000000000               0.000000000               0.000000000              -0.000103245               0.000528550               0.000099121              -0.000104785               0.000211110               0.000106324               0.000000000               0.000000000               0.000000000               0.000000000               0.002359735               0.021072386              -0.002758749              -0.001749144               0.007607106               0.005857962               0.000000000               0.000000000               0.000000000               0.000000000               0.001775154               0.016362085              -0.001170641              -0.001379575               0.005913832               0.004534257               0.000000000               0.000000000               0.000000000               0.000000000               0.001854782               0.012707867               0.000367994              -0.000892938               0.004533559               0.003640621               0.000000000               0.000000000               0.000000000               0.000000000               0.001473622               0.010603201               0.000956408              -0.000772790               0.003791962               0.003019172               0.000000000               0.000000000               0.000000000               0.000000000               0.001037871               0.009211430               0.001155748              -0.000762226               0.003324521               0.002562295               0.000000000               0.000000000               0.000000000               0.000000000               0.000660293               0.008183935               0.001193700              -0.000775381               0.002986411               0.002211030               0.000000000               0.000000000               0.000000000               0.000000000               0.000357895               0.007351910               0.001165585              -0.000784776               0.002712204               0.001927428               0.000000000               0.000000000               0.000000000               0.000000000               0.000128170               0.006630967               0.001106336              -0.000780806               0.002470569               0.001689763               0.000000000               0.000000000               0.000000000               0.000000000              -0.000039064               0.005975013               0.001037039              -0.000761524               0.002245492               0.001483968               0.000000000               0.000000000               0.000000000               0.000000000              -0.000153439               0.005359497               0.000975472              -0.000727475               0.002028973               0.001301497               0.000000000               0.000000000               0.000000000               0.000000000              -0.000225798               0.004763414               0.000914787              -0.000680100               0.001814489               0.001134389               0.000000000               0.000000000               0.000000000               0.000000000              -0.000260756               0.004172026               0.000844632              -0.000619286               0.001597090               0.000977804               0.000000000               0.000000000               0.000000000               0.000000000              -0.000260300               0.003578922               0.000754908              -0.000544977               0.001374621               0.000829644               0.000000000               0.000000000               0.000000000               0.000000000              -0.000230614               0.002980912               0.000629266              -0.000459093               0.001146658               0.000687565               0.000000000               0.000000000               0.000000000               0.000000000              -0.000175411               0.002375541               0.000465501              -0.000362721               0.000912746               0.000550025               0.000000000               0.000000000               0.000000000               0.000000000              -0.000095897               0.001768950               0.000257774              -0.000257080               0.000675337               0.000418258               0.000000000               0.000000000               0.000000000               0.000000000              -0.000093383               0.001352039               0.000156774              -0.000204023               0.000518683               0.000314660               0.000000000               0.000000000               0.000000000               0.000000000               0.002427286               0.018871878              -0.003601147              -0.001448751               0.006773480               0.005324729               0.000000000               0.000000000               0.000000000               0.000000000               0.001349866               0.015018386              -0.001519537              -0.001371096               0.005463110               0.004092015               0.000000000               0.000000000               0.000000000               0.000000000               0.000906944               0.012210525               0.000462861              -0.001186209               0.004465537               0.003279328               0.000000000               0.000000000               0.000000000               0.000000000               0.000388670               0.010504697               0.001173510              -0.001167334               0.003890642               0.002723308               0.000000000               0.000000000               0.000000000               0.000000000              -0.000020142               0.009305608               0.001393578              -0.001170752               0.003492089               0.002321337               0.000000000               0.000000000               0.000000000               0.000000000              -0.000304107               0.008366375               0.001421136              -0.001159835               0.003175375               0.002015541               0.000000000               0.000000000               0.000000000               0.000000000              -0.000485215               0.007573497               0.001375126              -0.001128640               0.002900687               0.001772047               0.000000000               0.000000000               0.000000000               0.000000000              -0.000587125               0.006870475               0.001295962              -0.001078979               0.002649795               0.001570816               0.000000000               0.000000000               0.000000000               0.000000000              -0.000628233               0.006224463               0.001209474              -0.001013643               0.002412681               0.001399038               0.000000000               0.000000000               0.000000000               0.000000000              -0.000622890               0.005617958               0.001131284              -0.000935827               0.002184576               0.001248749               0.000000000               0.000000000               0.000000000               0.000000000              -0.000581031               0.005037016               0.001051680              -0.000847512               0.001961492               0.001113980               0.000000000               0.000000000               0.000000000               0.000000000              -0.000508825               0.004478605               0.000958120              -0.000750634               0.001743065               0.000992431               0.000000000               0.000000000               0.000000000               0.000000000              -0.000414874               0.003942133               0.000842712              -0.000648343               0.001530146               0.000881802               0.000000000               0.000000000               0.000000000               0.000000000              -0.000310072               0.003441033               0.000690117              -0.000546405               0.001329135               0.000782729               0.000000000               0.000000000               0.000000000               0.000000000              -0.000202601               0.002992143               0.000497811              -0.000449992               0.001147369               0.000697376               0.000000000               0.000000000               0.000000000               0.000000000              -0.000098922               0.002615559               0.000267888              -0.000364040               0.000993191               0.000629151               0.000000000               0.000000000               0.000000000               0.000000000              -0.000066364               0.002403524               0.000151311              -0.000325326               0.000909609               0.000584282               0.000000000               0.000000000               0.000000000               0.000000000               0.002295836               0.016193232              -0.003955644              -0.001163216               0.005785428               0.004622212               0.000000000               0.000000000               0.000000000               0.000000000               0.000723358               0.013416326              -0.001682296              -0.001405779               0.004940657               0.003534878               0.000000000               0.000000000               0.000000000               0.000000000              -0.000244717               0.011606474               0.000444125              -0.001542574               0.004382977               0.002840403               0.000000000               0.000000000               0.000000000               0.000000000              -0.000836704               0.010330271               0.001148292              -0.001605044               0.003978404               0.002373360               0.000000000               0.000000000               0.000000000               0.000000000              -0.001152495               0.009326548               0.001342305              -0.001598001               0.003641485               0.002043484               0.000000000               0.000000000               0.000000000               0.000000000              -0.001289131               0.008478591               0.001349716              -0.001543245               0.003340583               0.001797339               0.000000000               0.000000000               0.000000000               0.000000000              -0.001312654               0.007729776               0.001291558              -0.001458464               0.003062721               0.001604257               0.000000000               0.000000000               0.000000000               0.000000000              -0.001259431               0.007045813               0.001207570              -0.001353010               0.002799584               0.001446574               0.000000000               0.000000000               0.000000000               0.000000000              -0.001153292               0.006414507               0.001116839              -0.001234295               0.002549579               0.001315284               0.000000000               0.000000000               0.000000000               0.000000000              -0.001014184               0.005824852               0.001031084              -0.001108423               0.002311072               0.001202649               0.000000000               0.000000000               0.000000000               0.000000000              -0.000851068               0.005271861               0.000942893              -0.000978131               0.002083313               0.001105182               0.000000000               0.000000000               0.000000000               0.000000000              -0.000671683               0.004761480               0.000837894              -0.000847064               0.001869499               0.001022434               0.000000000               0.000000000               0.000000000               0.000000000              -0.000490726               0.004301214               0.000712889              -0.000721672               0.001674281               0.000952609               0.000000000               0.000000000               0.000000000               0.000000000              -0.000326291               0.003909935               0.000563004              -0.000611100               0.001506998               0.000895899               0.000000000               0.000000000               0.000000000               0.000000000              -0.000186487               0.003614797               0.000384847              -0.000521781               0.001378847               0.000857066               0.000000000               0.000000000               0.000000000               0.000000000              -0.000082586               0.003433297               0.000193152              -0.000460131               0.001297798               0.000837667               0.000000000               0.000000000               0.000000000               0.000000000              -0.000038973               0.003375142               0.000096336              -0.000436506               0.001270538               0.000834032               0.000000000               0.000000000               0.000000000               0.000000000               0.001852198               0.013331975              -0.003836129              -0.000971923               0.004767921               0.003795998               0.000000000               0.000000000               0.000000000               0.000000000              -0.000092449               0.011736697              -0.001686606              -0.001501753               0.004412777               0.002911024               0.000000000               0.000000000               0.000000000               0.000000000              -0.001466741               0.010941204               0.000291985              -0.001917674               0.004286256               0.002368582               0.000000000               0.000000000               0.000000000               0.000000000              -0.002012727               0.010060649               0.000892609              -0.002012349               0.004024299               0.002011950               0.000000000               0.000000000               0.000000000               0.000000000              -0.002157019               0.009226781               0.001042678              -0.001962225               0.003729638               0.001767413               0.000000000               0.000000000               0.000000000               0.000000000              -0.002102271               0.008462377               0.001038474              -0.001846144               0.003436145               0.001590001               0.000000000               0.000000000               0.000000000               0.000000000              -0.001947019               0.007756036               0.000981895              -0.001699633               0.003151863               0.001452231               0.000000000               0.000000000               0.000000000               0.000000000              -0.001734330               0.007097700               0.000906728              -0.001537583               0.002878404               0.001340821               0.000000000               0.000000000               0.000000000               0.000000000              -0.001485947               0.006493192               0.000825907              -0.001368876               0.002620667               0.001251792               0.000000000               0.000000000               0.000000000               0.000000000              -0.001222783               0.005937631               0.000745602              -0.001200745               0.002379439               0.001178694               0.000000000               0.000000000               0.000000000               0.000000000              -0.000954239               0.005430886               0.000662071              -0.001036698               0.002155843               0.001119145               0.000000000               0.000000000               0.000000000               0.000000000              -0.000698283               0.004981009               0.000564669              -0.000884480               0.001955146               0.001070666               0.000000000               0.000000000               0.000000000               0.000000000              -0.000466834               0.004603126               0.000452886              -0.000750452               0.001784511               0.001034059               0.000000000               0.000000000               0.000000000               0.000000000              -0.000274267               0.004317890               0.000334581              -0.000642585               0.001653477               0.001010892               0.000000000               0.000000000               0.000000000               0.000000000              -0.000134555               0.004138365               0.000211103              -0.000567752               0.001568692               0.001000940               0.000000000               0.000000000               0.000000000               0.000000000              -0.000049256               0.004064479               0.000095658              -0.000526530               0.001530323               0.001003793               0.000000000               0.000000000               0.000000000               0.000000000              -0.000015693               0.004061373               0.000041105              -0.000513555               0.001524963               0.001011407               0.000000000               0.000000000               0.000000000               0.000000000               0.001038456               0.010528745              -0.003333110              -0.000926672               0.003818437               0.002891764               0.000000000               0.000000000               0.000000000               0.000000000              -0.001045881               0.010107704              -0.001591880              -0.001655665               0.003921089               0.002265424               0.000000000               0.000000000               0.000000000               0.000000000              -0.002621886               0.010235899               0.000002536              -0.002262689               0.004166162               0.001903473               0.000000000               0.000000000               0.000000000               0.000000000              -0.002994086               0.009685433               0.000456976              -0.002333456               0.004006264               0.001672808               0.000000000               0.000000000               0.000000000               0.000000000              -0.002905444               0.008992234               0.000577657              -0.002213565               0.003735236               0.001521671               0.000000000               0.000000000               0.000000000               0.000000000              -0.002640819               0.008298581               0.000584820              -0.002027625               0.003442041               0.001414416               0.000000000               0.000000000               0.000000000               0.000000000              -0.002308570               0.007635269               0.000550388              -0.001820118               0.003151770               0.001331652               0.000000000               0.000000000               0.000000000               0.000000000              -0.001947460               0.007018777               0.000501232              -0.001607640               0.002875449               0.001267809               0.000000000               0.000000000               0.000000000               0.000000000              -0.001576958               0.006459354               0.000444104              -0.001398775               0.002619355               0.001220580               0.000000000               0.000000000               0.000000000               0.000000000              -0.001215817               0.005949117               0.000384091              -0.001199568               0.002382875               0.001183307               0.000000000               0.000000000               0.000000000               0.000000000              -0.000876274               0.005497832               0.000322405              -0.001015829               0.002171202               0.001155373               0.000000000               0.000000000               0.000000000               0.000000000              -0.000584833               0.005113909               0.000253322              -0.000858549               0.001990802               0.001132254               0.000000000               0.000000000               0.000000000               0.000000000              -0.000353544               0.004816976               0.000183515              -0.000734699               0.001850542               0.001115843               0.000000000               0.000000000               0.000000000               0.000000000              -0.000182711               0.004618622               0.000122326              -0.000645843               0.001754806               0.001108963               0.000000000               0.000000000               0.000000000               0.000000000              -0.000075697               0.004510152               0.000067950              -0.000592154               0.001700754               0.001108600               0.000000000               0.000000000               0.000000000               0.000000000              -0.000022098               0.004469772               0.000025279              -0.000567007               0.001678911               0.001111904               0.000000000               0.000000000               0.000000000               0.000000000              -0.000009783               0.004464240               0.000008937              -0.000561697               0.001675298               0.001113600               0.000000000               0.000000000               0.000000000               0.000000000              -0.000106975               0.007957434              -0.002567136              -0.001034794               0.002997382               0.001962588               0.000000000               0.000000000               0.000000000               0.000000000              -0.002078746               0.008627573              -0.001455531              -0.001857972               0.003495153               0.001637180               0.000000000               0.000000000               0.000000000               0.000000000              -0.003591074               0.009499213              -0.000405765              -0.002534048               0.004011055               0.001477007               0.000000000               0.000000000               0.000000000               0.000000000              -0.003685468               0.009200810              -0.000078615              -0.002532145               0.003910955               0.001378809               0.000000000               0.000000000               0.000000000               0.000000000              -0.003346410               0.008630666               0.000045414              -0.002333731               0.003654770               0.001321039               0.000000000               0.000000000               0.000000000               0.000000000              -0.002883311               0.008006302               0.000090513              -0.002082024               0.003362749               0.001280725               0.000000000               0.000000000               0.000000000               0.000000000              -0.002394248               0.007401252               0.000098017              -0.001822995               0.003074725               0.001251729               0.000000000               0.000000000               0.000000000               0.000000000              -0.001907838               0.006844043               0.000087108              -0.001570941               0.002804972               0.001234031               0.000000000               0.000000000               0.000000000               0.000000000              -0.001446217               0.006332777               0.000065267              -0.001333925               0.002555546               0.001221621               0.000000000               0.000000000               0.000000000               0.000000000              -0.001025080               0.005871310               0.000039670              -0.001118316               0.002329856               0.001211540               0.000000000               0.000000000               0.000000000               0.000000000              -0.000660010               0.005476619               0.000019368              -0.000932079               0.002136214               0.001204136               0.000000000               0.000000000               0.000000000               0.000000000              -0.000374657               0.005163210               0.000001889              -0.000785896               0.001983018               0.001197122               0.000000000               0.000000000               0.000000000               0.000000000              -0.000180788               0.004941188              -0.000007152              -0.000685442               0.001875527               0.001190085               0.000000000               0.000000000               0.000000000               0.000000000              -0.000067606               0.004806721              -0.000004186              -0.000626191               0.001810954               0.001184764               0.000000000               0.000000000               0.000000000               0.000000000              -0.000012490               0.004745080               0.000002164              -0.000597817               0.001780950               0.001183133               0.000000000               0.000000000               0.000000000               0.000000000               0.000003675               0.004731789               0.000004024              -0.000590094               0.001773945               0.001183851               0.000000000               0.000000000               0.000000000               0.000000000              -0.000000372               0.004736571               0.000003993              -0.000592209               0.001776244               0.001184035               0.000000000               0.000000000               0.000000000               0.000000000              -0.001438568               0.005810754              -0.001659352              -0.001265805               0.002358833               0.001093028               0.000000000               0.000000000               0.000000000               0.000000000              -0.003083340               0.007309981              -0.001313956              -0.002069995               0.003126634               0.001056639               0.000000000               0.000000000               0.000000000               0.000000000              -0.004347397               0.008749042              -0.000891635              -0.002723898               0.003824284               0.001100386               0.000000000               0.000000000               0.000000000               0.000000000              -0.004154008               0.008709923              -0.000640058              -0.002646487               0.003785441               0.001138954               0.000000000               0.000000000               0.000000000               0.000000000              -0.003606261               0.008285196              -0.000485098              -0.002387991               0.003557702               0.001169710               0.000000000               0.000000000               0.000000000               0.000000000              -0.002988337               0.007757264              -0.000386422              -0.002090279               0.003282488               0.001192209               0.000000000               0.000000000               0.000000000               0.000000000              -0.002378794               0.007230049              -0.000323761              -0.001795799               0.003008592               0.001212793               0.000000000               0.000000000               0.000000000               0.000000000              -0.001799619               0.006734080              -0.000288694              -0.001516613               0.002750209               0.001233595               0.000000000               0.000000000               0.000000000               0.000000000              -0.001269692               0.006267120              -0.000266800              -0.001259521               0.002508860               0.001249338               0.000000000               0.000000000               0.000000000               0.000000000              -0.000807708               0.005846930              -0.000245661              -0.001033754               0.002293542               0.001259788               0.000000000               0.000000000               0.000000000               0.000000000              -0.000428185               0.005497196              -0.000214275              -0.000847717               0.002114953               0.001267236               0.000000000               0.000000000               0.000000000               0.000000000              -0.000156747               0.005226098              -0.000173921              -0.000712041               0.001979362               0.001267322               0.000000000               0.000000000               0.000000000               0.000000000               0.000001314               0.005040997              -0.000125609              -0.000629630               0.001890192               0.001260562               0.000000000               0.000000000               0.000000000               0.000000000               0.000067296               0.004939932              -0.000068558              -0.000592254               0.001844046               0.001251791               0.000000000               0.000000000               0.000000000               0.000000000               0.000073120               0.004899865              -0.000017323              -0.000585062               0.001828293               0.001243231               0.000000000               0.000000000               0.000000000               0.000000000               0.000048523               0.004897703               0.000010082              -0.000594015               0.001830556               0.001236541               0.000000000               0.000000000               0.000000000               0.000000000               0.000029873               0.004907809               0.000015943              -0.000602272               0.001836677               0.001234405               0.000000000               0.000000000               0.000000000               0.000000000              -0.002963317               0.003846783              -0.000723355              -0.001592088               0.001812944               0.000220856               0.000000000               0.000000000               0.000000000               0.000000000              -0.003936079               0.005782898              -0.001161035              -0.002198887               0.002660575               0.000461689               0.000000000               0.000000000               0.000000000               0.000000000              -0.004817335               0.007627431              -0.001394143              -0.002759923               0.003462426               0.000702503               0.000000000               0.000000000               0.000000000               0.000000000              -0.004473250               0.007975702              -0.001228797              -0.002674425               0.003550016               0.000875591               0.000000000               0.000000000               0.000000000               0.000000000              -0.003835778               0.007823095              -0.001041100              -0.002416298               0.003413105               0.000996807               0.000000000               0.000000000               0.000000000               0.000000000              -0.003156617               0.007502679              -0.000883477              -0.002121561               0.003208055               0.001086494               0.000000000               0.000000000               0.000000000               0.000000000              -0.002502396               0.007134803              -0.000762467              -0.001830245               0.002988326               0.001158081               0.000000000               0.000000000               0.000000000               0.000000000              -0.001891448               0.006761288              -0.000673056              -0.001554450               0.002771890               0.001217440               0.000000000               0.000000000               0.000000000               0.000000000              -0.001333515               0.006386168              -0.000598839              -0.001298336               0.002561480               0.001263144               0.000000000               0.000000000               0.000000000               0.000000000              -0.000845257               0.006021403              -0.000528036              -0.001069644               0.002363662               0.001294018               0.000000000               0.000000000               0.000000000               0.000000000              -0.000440074               0.005689078              -0.000450566              -0.000876160               0.002188394               0.001312233               0.000000000               0.000000000               0.000000000               0.000000000              -0.000130182               0.005404321              -0.000364331              -0.000724357               0.002042874               0.001318518               0.000000000               0.000000000               0.000000000               0.000000000               0.000072096               0.005185494              -0.000267293              -0.000621149               0.001935530               0.001314381               0.000000000               0.000000000               0.000000000               0.000000000               0.000173439               0.005048247              -0.000164884              -0.000565990               0.001871396               0.001305406               0.000000000               0.000000000               0.000000000               0.000000000               0.000192699               0.004980453              -0.000074910              -0.000550293               0.001843566               0.001293272               0.000000000               0.000000000               0.000000000               0.000000000               0.000162385               0.004968822              -0.000017358              -0.000560207               0.001842993               0.001282786               0.000000000               0.000000000               0.000000000               0.000000000               0.000127567               0.004968149               0.000005821              -0.000573180               0.001847093               0.001273913               0.000000000               0.000000000               0.000000000               0.000000000              -0.004878739               0.002090340               0.000166502              -0.002090816               0.001393709              -0.000697107               0.000000000               0.000000000               0.000000000               0.000000000              -0.004905417               0.004249614              -0.000949047              -0.002370728               0.002206766              -0.000163963               0.000000000               0.000000000               0.000000000               0.000000000              -0.005219922               0.006297545              -0.001796731              -0.002744657               0.003014046               0.000269388               0.000000000               0.000000000               0.000000000               0.000000000              -0.004741031               0.007007538              -0.001789596              -0.002653823               0.003220430               0.000566607               0.000000000               0.000000000               0.000000000               0.000000000              -0.004055043               0.007169725              -0.001603624              -0.002416851               0.003195501               0.000778650               0.000000000               0.000000000               0.000000000               0.000000000              -0.003345622               0.007093005              -0.001403904              -0.002141229               0.003078054               0.000936825               0.000000000               0.000000000               0.000000000               0.000000000              -0.002670049               0.006914649              -0.001230285              -0.001865595               0.002926725               0.001061130               0.000000000               0.000000000               0.000000000               0.000000000              -0.002041533               0.006694426              -0.001087686              -0.001602374               0.002765578               0.001163203               0.000000000               0.000000000               0.000000000               0.000000000              -0.001462808               0.006443368              -0.000964410              -0.001353971               0.002599091               0.001245120               0.000000000               0.000000000               0.000000000               0.000000000              -0.000940010               0.006166581              -0.000849408              -0.001123324               0.002429948               0.001306624               0.000000000               0.000000000               0.000000000               0.000000000              -0.000482947               0.005882404              -0.000736554              -0.000916403               0.002266249               0.001349846               0.000000000               0.000000000               0.000000000               0.000000000              -0.000104905               0.005601563              -0.000617866              -0.000739533               0.002113680               0.001374147               0.000000000               0.000000000               0.000000000               0.000000000               0.000178939               0.005350575              -0.000485166              -0.000601718               0.001984080               0.001382362               0.000000000               0.000000000               0.000000000               0.000000000               0.000364435               0.005161274              -0.000342651              -0.000508495               0.001889906               0.001381411               0.000000000               0.000000000               0.000000000               0.000000000               0.000449207               0.005043990              -0.000201248              -0.000462045               0.001835328               0.001373283               0.000000000               0.000000000               0.000000000               0.000000000               0.000437784               0.004999366              -0.000083835              -0.000460751               0.001820022               0.001359271               0.000000000               0.000000000               0.000000000               0.000000000               0.000381019               0.004973377              -0.000024417              -0.000478789               0.001817372               0.001338583               0.000000000               0.000000000               0.000000000               0.000000000              -0.007049177               0.000688336               0.000924923              -0.002729480               0.001139264              -0.001590216               0.000000000               0.000000000               0.000000000               0.000000000              -0.006022276               0.002817039              -0.000673469              -0.002610479               0.001809160              -0.000801319               0.000000000               0.000000000               0.000000000               0.000000000              -0.005564769               0.004786829              -0.001999888              -0.002685136               0.002490638              -0.000194499               0.000000000               0.000000000               0.000000000               0.000000000              -0.004866898               0.005746436              -0.002189578              -0.002543386               0.002763254               0.000219868               0.000000000               0.000000000               0.000000000               0.000000000              -0.004119813               0.006194205              -0.002058849              -0.002319200               0.002837781               0.000518580               0.000000000               0.000000000               0.000000000               0.000000000              -0.003391290               0.006371314              -0.001852639              -0.002068143               0.002813131               0.000744987               0.000000000               0.000000000               0.000000000               0.000000000              -0.002709901               0.006405346              -0.001650942              -0.001816877               0.002740719               0.000923842               0.000000000               0.000000000               0.000000000               0.000000000              -0.002077497               0.006361940              -0.001473261              -0.001574300               0.002645392               0.001071092               0.000000000               0.000000000               0.000000000               0.000000000              -0.001487311               0.006264704              -0.001315053              -0.001340827               0.002535156               0.001194329               0.000000000               0.000000000               0.000000000               0.000000000              -0.000940173               0.006113192              -0.001169792              -0.001116712               0.002409947               0.001293236               0.000000000               0.000000000               0.000000000               0.000000000              -0.000440699               0.005918333              -0.001031868              -0.000905052               0.002274442               0.001369390               0.000000000               0.000000000               0.000000000               0.000000000              -0.000000403               0.005694446              -0.000887477              -0.000711955               0.002135448               0.001423493               0.000000000               0.000000000               0.000000000               0.000000000               0.000368034               0.005470904              -0.000728240              -0.000545849               0.002005566               0.001459717               0.000000000               0.000000000               0.000000000               0.000000000               0.000649050               0.005270887              -0.000554799              -0.000415466               0.001895433               0.001479967               0.000000000               0.000000000               0.000000000               0.000000000               0.000831876               0.005121405              -0.000368130              -0.000328222               0.001816525               0.001488304               0.000000000               0.000000000               0.000000000               0.000000000               0.000902789               0.005038450              -0.000179462              -0.000291260               0.001776553               0.001485294               0.000000000               0.000000000               0.000000000               0.000000000               0.000880488               0.004996631              -0.000079491              -0.000294395               0.001763659               0.001469264               0.000000000               0.000000000               0.000000000               0.000000000              -0.009326412              -0.000291210               0.001431118              -0.003461001               0.001056589              -0.002404411               0.000000000               0.000000000               0.000000000               0.000000000              -0.007217051               0.001559176              -0.000384666              -0.002901287               0.001486811              -0.001414477               0.000000000               0.000000000               0.000000000               0.000000000              -0.005875231               0.003223559              -0.001971398              -0.002606152               0.001943223              -0.000662929               0.000000000               0.000000000               0.000000000               0.000000000              -0.004875617               0.004293619              -0.002332326              -0.002365054               0.002219542              -0.000145512               0.000000000               0.000000000               0.000000000               0.000000000              -0.004033156               0.004961195              -0.002288505              -0.002132578               0.002364574               0.000231995               0.000000000               0.000000000               0.000000000               0.000000000              -0.003285453               0.005376242              -0.002114130              -0.001904071               0.002426752               0.000522681               0.000000000               0.000000000               0.000000000               0.000000000              -0.002601037               0.005625443              -0.001915971              -0.001678566               0.002434650               0.000756085               0.000000000               0.000000000               0.000000000               0.000000000              -0.001973240               0.005764329              -0.001731340              -0.001460503               0.002408258               0.000947755               0.000000000               0.000000000               0.000000000               0.000000000              -0.001376833               0.005832198              -0.001563652              -0.001245335               0.002359158               0.001113823               0.000000000               0.000000000               0.000000000               0.000000000              -0.000811607               0.005830252              -0.001407024              -0.001033132               0.002287775               0.001254643               0.000000000               0.000000000               0.000000000               0.000000000              -0.000282369               0.005762153              -0.001258504              -0.000826156               0.002196083               0.001369927               0.000000000               0.000000000               0.000000000               0.000000000               0.000210095               0.005644556              -0.001105215              -0.000626783               0.002090427               0.001463644               0.000000000               0.000000000               0.000000000               0.000000000               0.000661648               0.005494852              -0.000934996              -0.000438738               0.001977845               0.001539107               0.000000000               0.000000000               0.000000000               0.000000000               0.001055423               0.005331444              -0.000743333              -0.000270647               0.001867346               0.001596699               0.000000000               0.000000000               0.000000000               0.000000000               0.001373463               0.005184459              -0.000525976              -0.000133009               0.001772472               0.001639463               0.000000000               0.000000000               0.000000000               0.000000000               0.001593699               0.005077048              -0.000278557              -0.000036994               0.001704664               0.001667670               0.000000000               0.000000000               0.000000000               0.000000000               0.001678956               0.005036342              -0.000148589               0.000000065               0.001678742               0.001678807               0.000000000               0.000000000               0.000000000               0.000000000              -0.011493042              -0.000884832               0.001582280              -0.004199284               0.001104809              -0.003094475               0.000000000               0.000000000               0.000000000               0.000000000              -0.008387207               0.000543365              -0.000144294              -0.003213120               0.001252153              -0.001960967               0.000000000               0.000000000               0.000000000               0.000000000              -0.006159089               0.001763795              -0.001709532              -0.002530129               0.001431298              -0.001098831               0.000000000               0.000000000               0.000000000               0.000000000              -0.004811190               0.002820843              -0.002156094              -0.002156798               0.001659201              -0.000497596               0.000000000               0.000000000               0.000000000               0.000000000              -0.003841865               0.003630221              -0.002188890              -0.001894473               0.001841551              -0.000052922               0.000000000               0.000000000               0.000000000               0.000000000              -0.003057012               0.004229493              -0.002071635              -0.001675063               0.001968170               0.000293108               0.000000000               0.000000000               0.000000000               0.000000000              -0.002367840               0.004661414              -0.001909186              -0.001470614               0.002043993               0.000573379               0.000000000               0.000000000               0.000000000               0.000000000              -0.001738924               0.004967377              -0.001748792              -0.001273016               0.002080114               0.000807098               0.000000000               0.000000000               0.000000000               0.000000000              -0.001143088               0.005188238              -0.001599702              -0.001077186               0.002088457               0.001011271               0.000000000               0.000000000               0.000000000               0.000000000              -0.000564199               0.005341051              -0.001453862              -0.000879204               0.002073400               0.001194196               0.000000000               0.000000000               0.000000000               0.000000000              -0.000006333               0.005416052              -0.001311777              -0.000679381               0.002031793               0.001352412               0.000000000               0.000000000               0.000000000               0.000000000               0.000530847               0.005421318              -0.001168007              -0.000478597               0.001966620               0.001488023               0.000000000               0.000000000               0.000000000               0.000000000               0.001055699               0.005372980              -0.001010397              -0.000275735               0.001882887               0.001607152               0.000000000               0.000000000               0.000000000               0.000000000               0.001563914               0.005287212              -0.000827589              -0.000074434               0.001787198               0.001712763               0.000000000               0.000000000               0.000000000               0.000000000               0.002041030               0.005185672              -0.000607939               0.000117176               0.001689481               0.001806657               0.000000000               0.000000000               0.000000000               0.000000000               0.002462255               0.005089154              -0.000332490               0.000287199               0.001600635               0.001887833               0.000000000               0.000000000               0.000000000               0.000000000               0.002713498               0.005068812              -0.000190825               0.000383956               0.001561602               0.001945558               0.000000000               0.000000000               0.000000000               0.000000000              -0.013290897              -0.001177476               0.001346793              -0.004836899               0.001219799              -0.003617100               0.000000000               0.000000000               0.000000000               0.000000000              -0.009387843              -0.000185910               0.000001079              -0.003497200               0.001103756              -0.002393444               0.000000000               0.000000000               0.000000000               0.000000000              -0.006399399               0.000578144              -0.001251272              -0.002472040               0.001016721              -0.001455319               0.000000000               0.000000000               0.000000000               0.000000000              -0.004718384               0.001545363              -0.001657562              -0.001962562               0.001169300              -0.000793262               0.000000000               0.000000000               0.000000000               0.000000000              -0.003611810               0.002416017              -0.001726219              -0.001656428               0.001357472              -0.000298956               0.000000000               0.000000000               0.000000000               0.000000000              -0.002772626               0.003134272              -0.001662872              -0.001431516               0.001521918               0.000090402               0.000000000               0.000000000               0.000000000               0.000000000              -0.002069511               0.003701378              -0.001553678              -0.001238736               0.001646692               0.000407956               0.000000000               0.000000000               0.000000000               0.000000000              -0.001439179               0.004141029              -0.001438312              -0.001057319               0.001732768               0.000675450               0.000000000               0.000000000               0.000000000               0.000000000              -0.000847535               0.004486658              -0.001330650              -0.000878656               0.001788423               0.000909767               0.000000000               0.000000000               0.000000000               0.000000000              -0.000266820               0.004760048              -0.001223174              -0.000695062               0.001818354               0.001123292               0.000000000               0.000000000               0.000000000               0.000000000               0.000310051               0.004956624              -0.001112619              -0.000503308               0.001819961               0.001316652               0.000000000               0.000000000               0.000000000               0.000000000               0.000886476               0.005082365              -0.001000682              -0.000302867               0.001795060               0.001492193               0.000000000               0.000000000               0.000000000               0.000000000               0.001472069               0.005149001              -0.000881169              -0.000091600               0.001746850               0.001655250               0.000000000               0.000000000               0.000000000               0.000000000               0.002077142               0.005162895              -0.000739001               0.000133565               0.001676426               0.001809991               0.000000000               0.000000000               0.000000000               0.000000000               0.002698982               0.005136692              -0.000554953               0.000370028               0.001588871               0.001958899               0.000000000               0.000000000               0.000000000               0.000000000               0.003332682               0.005080132              -0.000308706               0.000614733               0.001488449               0.002103182               0.000000000               0.000000000               0.000000000               0.000000000               0.003775784               0.005090887              -0.000185162               0.000779550               0.001437095               0.002216646               0.000000000               0.000000000               0.000000000               0.000000000              -0.014485084              -0.001281678               0.000772778              -0.005271694               0.001329996              -0.003941697               0.000000000               0.000000000               0.000000000               0.000000000              -0.010068074              -0.000614175               0.000036541              -0.003698753               0.001028186              -0.002670567               0.000000000               0.000000000               0.000000000               0.000000000              -0.006567244              -0.000190939              -0.000659555              -0.002438847               0.000749298              -0.001689550               0.000000000               0.000000000               0.000000000               0.000000000              -0.004643577               0.000677060              -0.000900638              -0.001825972               0.000834338              -0.000991634               0.000000000               0.000000000               0.000000000               0.000000000              -0.003424884               0.001557863              -0.000952511              -0.001479062               0.001012301              -0.000466761               0.000000000               0.000000000               0.000000000               0.000000000              -0.002538289               0.002336861              -0.000927096              -0.001243963               0.001193600              -0.000050364               0.000000000               0.000000000               0.000000000               0.000000000              -0.001817696               0.002986165              -0.000871938              -0.001054904               0.001347013               0.000292109               0.000000000               0.000000000               0.000000000               0.000000000              -0.001182068               0.003514067              -0.000812134              -0.000882532               0.001465521               0.000582989               0.000000000               0.000000000               0.000000000               0.000000000              -0.000590574               0.003943502              -0.000757602              -0.000714402               0.001552621               0.000838219               0.000000000               0.000000000               0.000000000               0.000000000              -0.000015614               0.004295217              -0.000701992              -0.000542756               0.001612643               0.001069887               0.000000000               0.000000000               0.000000000               0.000000000               0.000565012               0.004579035              -0.000643199              -0.000360499               0.001646496               0.001285997               0.000000000               0.000000000               0.000000000               0.000000000               0.001163651               0.004795514              -0.000583243              -0.000163070               0.001652845               0.001489775               0.000000000               0.000000000               0.000000000               0.000000000               0.001790063               0.004949224              -0.000522767               0.000052620               0.001632185               0.001684804               0.000000000               0.000000000               0.000000000               0.000000000               0.002457044               0.005041560              -0.000447481               0.000291194               0.001583439               0.001874632               0.000000000               0.000000000               0.000000000               0.000000000               0.003182171               0.005075190              -0.000340878               0.000558910               0.001505410               0.002064320               0.000000000               0.000000000               0.000000000               0.000000000               0.003987553               0.005054924              -0.000192845               0.000863458               0.001397138               0.002260596               0.000000000               0.000000000               0.000000000               0.000000000               0.004594765               0.005095661              -0.000119657               0.001086068               0.001336514               0.002422582               0.000000000               0.000000000               0.000000000               0.000000000              -0.014904602              -0.001301156               0.000000000              -0.005426578               0.001375131              -0.004051446               0.000000000               0.000000000               0.000000000               0.000000000              -0.010310112              -0.000752629               0.000000000              -0.003772211               0.001006520              -0.002765690               0.000000000               0.000000000               0.000000000               0.000000000              -0.006629754              -0.000457944              -0.000000000              -0.002428913               0.000656985              -0.001771928               0.000000000               0.000000000               0.000000000               0.000000000              -0.004617257               0.000366933              -0.000000000              -0.001777336               0.000714751              -0.001062585               0.000000000               0.000000000               0.000000000               0.000000000              -0.003355011               0.001245278               0.000000000              -0.001413787               0.000886349              -0.000527438               0.000000000               0.000000000               0.000000000               0.000000000              -0.002448641               0.002040616               0.000000000              -0.001173315               0.001071303              -0.000102012               0.000000000               0.000000000               0.000000000               0.000000000              -0.001721126               0.002720701              -0.000000000              -0.000985507               0.001235393               0.000249886               0.000000000               0.000000000               0.000000000               0.000000000              -0.001078534               0.003283815               0.000000000              -0.000814925               0.001366236               0.000551310               0.000000000               0.000000000               0.000000000               0.000000000              -0.000487879               0.003738229               0.000000000              -0.000650232               0.001462808               0.000812576               0.000000000               0.000000000               0.000000000               0.000000000               0.000083365               0.004115675               0.000000000              -0.000483196               0.001532943               0.001049747               0.000000000               0.000000000               0.000000000               0.000000000               0.000664063               0.004435813              -0.000000000              -0.000305452               0.001580407               0.001274955               0.000000000               0.000000000               0.000000000               0.000000000               0.001270887               0.004689152              -0.000000000              -0.000109561               0.001599555               0.001489994               0.000000000               0.000000000               0.000000000               0.000000000               0.001913307               0.004875772               0.000000000               0.000108018               0.001589235               0.001697253               0.000000000               0.000000000               0.000000000               0.000000000               0.002599824               0.004994571               0.000000000               0.000350609               0.001547971               0.001898580               0.000000000               0.000000000               0.000000000               0.000000000               0.003362518               0.005046192              -0.000000000               0.000630164               0.001471992               0.002102156               0.000000000               0.000000000               0.000000000               0.000000000               0.004236804               0.005040395              -0.000000000               0.000958743               0.001360534               0.002319277               0.000000000               0.000000000               0.000000000               0.000000000               0.004912112               0.005095719               0.000000000               0.001205065               0.001296868               0.002501933               0.000000000               0.000000000               0.000000000               0.000000000               0.000000000               0.000000000               0.000000000               0.000000000               0.000000000               0.000000000               0.000000000               0.000000000               0.000000000               0.000000000               0.000000000               0.000000000               0.000000000               0.000000000               0.000000000               0.000000000               0.000000000               0.000000000               0.000000000               0.000000000               0.000000000               0.000000000               0.000000000               0.000000000               0.000000000               0.000000000               0.000000000               0.000000000               0.000000000               0.000000000               0.000000000               0.000000000               0.000000000               0.000000000               0.000000000               0.000000000               0.000000000               0.000000000               0.000000000               0.000000000               0.000000000               0.000000000               0.000000000               0.000000000               0.000000000               0.000000000               0.000000000               0.000000000               0.000000000               0.000000000               0.000000000               0.000000000               0.000000000               0.000000000               0.000000000               0.000000000               0.000000000               0.000000000               0.000000000               0.000000000               0.000000000               0.000000000               0.000000000               0.000000000               0.000000000               0.000000000               0.000000000               0.000000000               0.000000000               0.000000000               0.000000000               0.000000000               0.000000000               0.000000000               0.000000000               0.000000000               0.000000000               0.000000000               0.000000000               0.000000000               0.000000000               0.000000000               0.000000000               0.000000000               0.000000000               0.000000000               0.000000000               0.000000000               0.000000000               0.000000000               0.000000000               0.000000000               0.000000000               0.000000000               0.000000000               0.000000000               0.000000000               0.000000000               0.000000000               0.000000000               0.000000000               0.000000000               0.000000000               0.000000000               0.000000000               0.000000000               0.000000000               0.000000000               0.000000000               0.000000000               0.000000000               0.000000000               0.000000000               0.000000000               0.000000000               0.000000000               0.000000000               0.000000000               0.000000000               0.000000000               0.000000000               0.000000000               0.000000000               0.000000000               0.000000000               0.000000000               0.000000000               0.000000000               0.000000000               0.000000000               0.000000000               0.000000000               0.000000000               0.000000000               0.000000000               0.000000000               0.000000000               0.000000000               0.000000000               0.000000000               0.000000000               0.000000000               0.000000000               0.000000000               0.000000000               0.000000000               0.000000000               0.000000000               0.000000000               0.000000000               0.000000000               0.000000000               0.000000000               0.000000000               0.000000000               0.000000000               0.000000000               0.000000000               0.000000000               0.000000000               0.000000000               0.000000000               0.000000000               0.000000000               0.000000000               0.000000000               0.000000000               0.000000000               0.000000000               0.000000000               0.002238340               0.022513097               0.001500778              -0.001974755               0.008162542               0.006187787               0.000000000               0.000000000               0.000000000               0.000000000               0.002009826               0.017255002               0.000643515              -0.001403187               0.006219339               0.004816152               0.000000000               0.000000000               0.000000000               0.000000000               0.002470256               0.013037230              -0.000197598              -0.000703306               0.004580135               0.003876829               0.000000000               0.000000000               0.000000000               0.000000000               0.002220334               0.010649036              -0.000533967              -0.000498503               0.003715811               0.003217308               0.000000000               0.000000000               0.000000000               0.000000000               0.001796785               0.009116308              -0.000654779              -0.000465743               0.003193987               0.002728244               0.000000000               0.000000000               0.000000000               0.000000000               0.001370694               0.008020444              -0.000683291              -0.000488544               0.002836303               0.002347758               0.000000000               0.000000000               0.000000000               0.000000000               0.000991373               0.007160777              -0.000673113              -0.000523331               0.002561346               0.002038014               0.000000000               0.000000000               0.000000000               0.000000000               0.000679295               0.006431670              -0.000642285              -0.000549222               0.002326942               0.001777720               0.000000000               0.000000000               0.000000000               0.000000000               0.000431527               0.005771251              -0.000603344              -0.000559582               0.002110259               0.001550676               0.000000000               0.000000000               0.000000000               0.000000000               0.000234659               0.005145667              -0.000568736              -0.000555210               0.001900275               0.001345065               0.000000000               0.000000000               0.000000000               0.000000000               0.000079673               0.004538092              -0.000536406              -0.000537383               0.001691810               0.001154427               0.000000000               0.000000000               0.000000000               0.000000000              -0.000036267               0.003927449              -0.000498676              -0.000504530               0.001477313               0.000972783               0.000000000               0.000000000               0.000000000               0.000000000              -0.000111033               0.003298620              -0.000447306              -0.000453964               0.001250850               0.000796886               0.000000000               0.000000000               0.000000000               0.000000000              -0.000143576               0.002631403              -0.000374791              -0.000382766               0.001004714               0.000621948               0.000000000               0.000000000               0.000000000               0.000000000              -0.000133027               0.001907816              -0.000281829              -0.000288362               0.000732053               0.000443691               0.000000000               0.000000000               0.000000000               0.000000000              -0.000078924               0.001116242              -0.000158903              -0.000169127               0.000428452               0.000259326               0.000000000               0.000000000               0.000000000               0.000000000              -0.000103245               0.000528550              -0.000099121              -0.000104785               0.000211110               0.000106324               0.000000000               0.000000000               0.000000000               0.000000000               0.002359735               0.021072386               0.002758749              -0.001749144               0.007607106               0.005857962               0.000000000               0.000000000               0.000000000               0.000000000               0.001775154               0.016362085               0.001170641              -0.001379575               0.005913832               0.004534257               0.000000000               0.000000000               0.000000000               0.000000000               0.001854782               0.012707867              -0.000367994              -0.000892938               0.004533559               0.003640621               0.000000000               0.000000000               0.000000000               0.000000000               0.001473622               0.010603201              -0.000956408              -0.000772790               0.003791962               0.003019172               0.000000000               0.000000000               0.000000000               0.000000000               0.001037871               0.009211430              -0.001155748              -0.000762226               0.003324521               0.002562295               0.000000000               0.000000000               0.000000000               0.000000000               0.000660293               0.008183935              -0.001193700              -0.000775381               0.002986411               0.002211030               0.000000000               0.000000000               0.000000000               0.000000000               0.000357895               0.007351910              -0.001165585              -0.000784776               0.002712204               0.001927428               0.000000000               0.000000000               0.000000000               0.000000000               0.000128170               0.006630967              -0.001106336              -0.000780806               0.002470569               0.001689763               0.000000000               0.000000000               0.000000000               0.000000000              -0.000039064               0.005975013              -0.001037039              -0.000761524               0.002245492               0.001483968               0.000000000               0.000000000               0.000000000               0.000000000              -0.000153439               0.005359497              -0.000975472              -0.000727475               0.002028973               0.001301497               0.000000000               0.000000000               0.000000000               0.000000000              -0.000225798               0.004763414              -0.000914787              -0.000680100               0.001814489               0.001134389               0.000000000               0.000000000               0.000000000               0.000000000              -0.000260756               0.004172026              -0.000844632              -0.000619286               0.001597090               0.000977804               0.000000000               0.000000000               0.000000000               0.000000000              -0.000260300               0.003578922              -0.000754908              -0.000544977               0.001374621               0.000829644               0.000000000               0.000000000               0.000000000               0.000000000              -0.000230614               0.002980912              -0.000629266              -0.000459093               0.001146658               0.000687565               0.000000000               0.000000000               0.000000000               0.000000000              -0.000175411               0.002375541              -0.000465501              -0.000362721               0.000912746               0.000550025               0.000000000               0.000000000               0.000000000               0.000000000              -0.000095897               0.001768950              -0.000257774              -0.000257080               0.000675337               0.000418258               0.000000000               0.000000000               0.000000000               0.000000000              -0.000093383               0.001352039              -0.000156774              -0.000204023               0.000518683               0.000314660               0.000000000               0.000000000               0.000000000               0.000000000               0.002427286               0.018871878               0.003601147              -0.001448751               0.006773480               0.005324729               0.000000000               0.000000000               0.000000000               0.000000000               0.001349866               0.015018386               0.001519537              -0.001371096               0.005463110               0.004092015               0.000000000               0.000000000               0.000000000               0.000000000               0.000906944               0.012210525              -0.000462861              -0.001186209               0.004465537               0.003279328               0.000000000               0.000000000               0.000000000               0.000000000               0.000388670               0.010504697              -0.001173510              -0.001167334               0.003890642               0.002723308               0.000000000               0.000000000               0.000000000               0.000000000              -0.000020142               0.009305608              -0.001393578              -0.001170752               0.003492089               0.002321337               0.000000000               0.000000000               0.000000000               0.000000000              -0.000304107               0.008366375              -0.001421136              -0.001159835               0.003175375               0.002015541               0.000000000               0.000000000               0.000000000               0.000000000              -0.000485215               0.007573497              -0.001375126              -0.001128640               0.002900687               0.001772047               0.000000000               0.000000000               0.000000000               0.000000000              -0.000587125               0.006870475              -0.001295962              -0.001078979               0.002649795               0.001570816               0.000000000               0.000000000               0.000000000               0.000000000              -0.000628233               0.006224463              -0.001209474              -0.001013643               0.002412681               0.001399038               0.000000000               0.000000000               0.000000000               0.000000000              -0.000622890               0.005617958              -0.001131284              -0.000935827               0.002184576               0.001248749               0.000000000               0.000000000               0.000000000               0.000000000              -0.000581031               0.005037016              -0.001051680              -0.000847512               0.001961492               0.001113980               0.000000000               0.000000000               0.000000000               0.000000000              -0.000508825               0.004478605              -0.000958120              -0.000750634               0.001743065               0.000992431               0.000000000               0.000000000               0.000000000               0.000000000              -0.000414874               0.003942133              -0.000842712              -0.000648343               0.001530146               0.000881802               0.000000000               0.000000000               0.000000000               0.000000000              -0.000310072               0.003441033              -0.000690117              -0.000546405               0.001329135               0.000782729               0.000000000               0.000000000               0.000000000               0.000000000              -0.000202601               0.002992143              -0.000497811              -0.000449992               0.001147369               0.000697376               0.000000000               0.000000000               0.000000000               0.000000000              -0.000098922               0.002615559              -0.000267888              -0.000364040               0.000993191               0.000629151               0.000000000               0.000000000               0.000000000               0.000000000              -0.000066364               0.002403524              -0.000151311              -0.000325326               0.000909609               0.000584282               0.000000000               0.000000000               0.000000000               0.000000000               0.002295836               0.016193232               0.003955644              -0.001163216               0.005785428               0.004622212               0.000000000               0.000000000               0.000000000               0.000000000               0.000723358               0.013416326               0.001682296              -0.001405779               0.004940657               0.003534878               0.000000000               0.000000000               0.000000000               0.000000000              -0.000244717               0.011606474              -0.000444125              -0.001542574               0.004382977               0.002840403               0.000000000               0.000000000               0.000000000               0.000000000              -0.000836704               0.010330271              -0.001148292              -0.001605044               0.003978404               0.002373360               0.000000000               0.000000000               0.000000000               0.000000000              -0.001152495               0.009326548              -0.001342305              -0.001598001               0.003641485               0.002043484               0.000000000               0.000000000               0.000000000               0.000000000              -0.001289131               0.008478591              -0.001349716              -0.001543245               0.003340583               0.001797339               0.000000000               0.000000000               0.000000000               0.000000000              -0.001312654               0.007729776              -0.001291558              -0.001458464               0.003062721               0.001604257               0.000000000               0.000000000               0.000000000               0.000000000              -0.001259431               0.007045813              -0.001207570              -0.001353010               0.002799584               0.001446574               0.000000000               0.000000000               0.000000000               0.000000000              -0.001153292               0.006414507              -0.001116839              -0.001234295               0.002549579               0.001315284               0.000000000               0.000000000               0.000000000               0.000000000              -0.001014184               0.005824852              -0.001031084              -0.001108423               0.002311072               0.001202649               0.000000000               0.000000000               0.000000000               0.000000000              -0.000851068               0.005271861              -0.000942893              -0.000978131               0.002083313               0.001105182               0.000000000               0.000000000               0.000000000               0.000000000              -0.000671683               0.004761480              -0.000837894              -0.000847064               0.001869499               0.001022434               0.000000000               0.000000000               0.000000000               0.000000000              -0.000490726               0.004301214              -0.000712889              -0.000721672               0.001674281               0.000952609               0.000000000               0.000000000               0.000000000               0.000000000              -0.000326291               0.003909935              -0.000563004              -0.000611100               0.001506998               0.000895899               0.000000000               0.000000000               0.000000000               0.000000000              -0.000186487               0.003614797              -0.000384847              -0.000521781               0.001378847               0.000857066               0.000000000               0.000000000               0.000000000               0.000000000              -0.000082586               0.003433297              -0.000193152              -0.000460131               0.001297798               0.000837667               0.000000000               0.000000000               0.000000000               0.000000000              -0.000038973               0.003375142              -0.000096336              -0.000436506               0.001270538               0.000834032               0.000000000               0.000000000               0.000000000               0.000000000               0.001852198               0.013331975               0.003836129              -0.000971923               0.004767921               0.003795998               0.000000000               0.000000000               0.000000000               0.000000000              -0.000092449               0.011736697               0.001686606              -0.001501753               0.004412777               0.002911024               0.000000000               0.000000000               0.000000000               0.000000000              -0.001466741               0.010941204              -0.000291985              -0.001917674               0.004286256               0.002368582               0.000000000               0.000000000               0.000000000               0.000000000              -0.002012727               0.010060649              -0.000892609              -0.002012349               0.004024299               0.002011950               0.000000000               0.000000000               0.000000000               0.000000000              -0.002157019               0.009226781              -0.001042678              -0.001962225               0.003729638               0.001767413               0.000000000               0.000000000               0.000000000               0.000000000              -0.002102271               0.008462377              -0.001038474              -0.001846144               0.003436145               0.001590001               0.000000000               0.000000000               0.000000000               0.000000000              -0.001947019               0.007756036              -0.000981895              -0.001699633               0.003151863               0.001452231               0.000000000               0.000000000               0.000000000               0.000000000              -0.001734330               0.007097700              -0.000906728              -0.001537583               0.002878404               0.001340821               0.000000000               0.000000000               0.000000000               0.000000000              -0.001485947               0.006493192              -0.000825907              -0.001368876               0.002620667               0.001251792               0.000000000               0.000000000               0.000000000               0.000000000              -0.001222783               0.005937631              -0.000745602              -0.001200745               0.002379439               0.001178694               0.000000000               0.000000000               0.000000000               0.000000000              -0.000954239               0.005430886              -0.000662071              -0.001036698               0.002155843               0.001119145               0.000000000               0.000000000               0.000000000               0.000000000              -0.000698283               0.004981009              -0.000564669              -0.000884480               0.001955146               0.001070666               0.000000000               0.000000000               0.000000000               0.000000000              -0.000466834               0.004603126              -0.000452886              -0.000750452               0.001784511               0.001034059               0.000000000               0.000000000               0.000000000               0.000000000              -0.000274267               0.004317890              -0.000334581              -0.000642585               0.001653477               0.001010892               0.000000000               0.000000000               0.000000000               0.000000000              -0.000134555               0.004138365              -0.000211103              -0.000567752               0.001568692               0.001000940               0.000000000               0.000000000               0.000000000               0.000000000              -0.000049256               0.004064479              -0.000095658              -0.000526530               0.001530323               0.001003793               0.000000000               0.000000000               0.000000000               0.000000000              -0.000015693               0.004061373              -0.000041105              -0.000513555               0.001524963               0.001011407               0.000000000               0.000000000               0.000000000               0.000000000               0.001038456               0.010528745               0.003333110              -0.000926672               0.003818437               0.002891764               0.000000000               0.000000000               0.000000000               0.000000000              -0.001045881               0.010107704               0.001591880              -0.001655665               0.003921089               0.002265424               0.000000000               0.000000000               0.000000000               0.000000000              -0.002621886               0.010235899              -0.000002536              -0.002262689               0.004166162               0.001903473               0.000000000               0.000000000               0.000000000               0.000000000              -0.002994086               0.009685433              -0.000456976              -0.002333456               0.004006264               0.001672808               0.000000000               0.000000000               0.000000000               0.000000000              -0.002905444               0.008992234              -0.000577657              -0.002213565               0.003735236               0.001521671               0.000000000               0.000000000               0.000000000               0.000000000              -0.002640819               0.008298581              -0.000584820              -0.002027625               0.003442041               0.001414416               0.000000000               0.000000000               0.000000000               0.000000000              -0.002308570               0.007635269              -0.000550388              -0.001820118               0.003151770               0.001331652               0.000000000               0.000000000               0.000000000               0.000000000              -0.001947460               0.007018777              -0.000501232              -0.001607640               0.002875449               0.001267809               0.000000000               0.000000000               0.000000000               0.000000000              -0.001576958               0.006459354              -0.000444104              -0.001398775               0.002619355               0.001220580               0.000000000               0.000000000               0.000000000               0.000000000              -0.001215817               0.005949117              -0.000384091              -0.001199568               0.002382875               0.001183307               0.000000000               0.000000000               0.000000000               0.000000000              -0.000876274               0.005497832              -0.000322405              -0.001015829               0.002171202               0.001155373               0.000000000               0.000000000               0.000000000               0.000000000              -0.000584833               0.005113909              -0.000253322              -0.000858549               0.001990802               0.001132254               0.000000000               0.000000000               0.000000000               0.000000000              -0.000353544               0.004816976              -0.000183515              -0.000734699               0.001850542               0.001115843               0.000000000               0.000000000               0.000000000               0.000000000              -0.000182711               0.004618622              -0.000122326              -0.000645843               0.001754806               0.001108963               0.000000000               0.000000000               0.000000000               0.000000000              -0.000075697               0.004510152              -0.000067950              -0.000592154               0.001700754               0.001108600               0.000000000               0.000000000               0.000000000               0.000000000              -0.000022098               0.004469772              -0.000025279              -0.000567007               0.001678911               0.001111904               0.000000000               0.000000000               0.000000000               0.000000000              -0.000009783               0.004464240              -0.000008937              -0.000561697               0.001675298               0.001113600               0.000000000               0.000000000               0.000000000               0.000000000              -0.000106975               0.007957434               0.002567136              -0.001034794               0.002997382               0.001962588               0.000000000               0.000000000               0.000000000               0.000000000              -0.002078746               0.008627573               0.001455531              -0.001857972               0.003495153               0.001637180               0.000000000               0.000000000               0.000000000               0.000000000              -0.003591074               0.009499213               0.000405765              -0.002534048               0.004011055               0.001477007               0.000000000               0.000000000               0.000000000               0.000000000              -0.003685468               0.009200810               0.000078615              -0.002532145               0.003910955               0.001378809               0.000000000               0.000000000               0.000000000               0.000000000              -0.003346410               0.008630666              -0.000045414              -0.002333731               0.003654770               0.001321039               0.000000000               0.000000000               0.000000000               0.000000000              -0.002883311               0.008006302              -0.000090513              -0.002082024               0.003362749               0.001280725               0.000000000               0.000000000               0.000000000               0.000000000              -0.002394248               0.007401252              -0.000098017              -0.001822995               0.003074725               0.001251729               0.000000000               0.000000000               0.000000000               0.000000000              -0.001907838               0.006844043              -0.000087108              -0.001570941               0.002804972               0.001234031               0.000000000               0.000000000               0.000000000               0.000000000              -0.001446217               0.006332777              -0.000065267              -0.001333925               0.002555546               0.001221621               0.000000000               0.000000000               0.000000000               0.000000000              -0.001025080               0.005871310              -0.000039670              -0.001118316               0.002329856               0.001211540               0.000000000               0.000000000               0.000000000               0.000000000              -0.000660010               0.005476619              -0.000019368              -0.000932079               0.002136214               0.001204136               0.000000000               0.000000000               0.000000000               0.000000000              -0.000374657               0.005163210              -0.000001889              -0.000785896               0.001983018               0.001197122               0.000000000               0.000000000               0.000000000               0.000000000              -0.000180788               0.004941188               0.000007152              -0.000685442               0.001875527               0.001190085               0.000000000               0.000000000               0.000000000               0.000000000              -0.000067606               0.004806721               0.000004186              -0.000626191               0.001810954               0.001184764               0.000000000               0.000000000               0.000000000               0.000000000              -0.000012490               0.004745080              -0.000002164              -0.000597817               0.001780950               0.001183133               0.000000000               0.000000000               0.000000000               0.000000000               0.000003675               0.004731789              -0.000004024              -0.000590094               0.001773945               0.001183851               0.000000000               0.000000000               0.000000000               0.000000000              -0.000000372               0.004736571              -0.000003993              -0.000592209               0.001776244               0.001184035               0.000000000               0.000000000               0.000000000               0.000000000              -0.001438568               0.005810754               0.001659352              -0.001265805               0.002358833               0.001093028               0.000000000               0.000000000               0.000000000               0.000000000              -0.003083340               0.007309981               0.001313956              -0.002069995               0.003126634               0.001056639               0.000000000               0.000000000               0.000000000               0.000000000              -0.004347397               0.008749042               0.000891635              -0.002723898               0.003824284               0.001100386               0.000000000               0.000000000               0.000000000               0.000000000              -0.004154008               0.008709923               0.000640058              -0.002646487               0.003785441               0.001138954               0.000000000               0.000000000               0.000000000               0.000000000              -0.003606261               0.008285196               0.000485098              -0.002387991               0.003557702               0.001169710               0.000000000               0.000000000               0.000000000               0.000000000              -0.002988337               0.007757264               0.000386422              -0.002090279               0.003282488               0.001192209               0.000000000               0.000000000               0.000000000               0.000000000              -0.002378794               0.007230049               0.000323761              -0.001795799               0.003008592               0.001212793               0.000000000               0.000000000               0.000000000               0.000000000              -0.001799619               0.006734080               0.000288694              -0.001516613               0.002750209               0.001233595               0.000000000               0.000000000               0.000000000               0.000000000              -0.001269692               0.006267120               0.000266800              -0.001259521               0.002508860               0.001249338               0.000000000               0.000000000               0.000000000               0.000000000              -0.000807708               0.005846930               0.000245661              -0.001033754               0.002293542               0.001259788               0.000000000               0.000000000               0.000000000               0.000000000              -0.000428185               0.005497196               0.000214275              -0.000847717               0.002114953               0.001267236               0.000000000               0.000000000               0.000000000               0.000000000              -0.000156747               0.005226098               0.000173921              -0.000712041               0.001979362               0.001267322               0.000000000               0.000000000               0.000000000               0.000000000               0.000001314               0.005040997               0.000125609              -0.000629630               0.001890192               0.001260562               0.000000000               0.000000000               0.000000000               0.000000000               0.000067296               0.004939932               0.000068558              -0.000592254               0.001844046               0.001251791               0.000000000               0.000000000               0.000000000               0.000000000               0.000073120               0.004899865               0.000017323              -0.000585062               0.001828293               0.001243231               0.000000000               0.000000000               0.000000000               0.000000000               0.000048523               0.004897703              -0.000010082              -0.000594015               0.001830556               0.001236541               0.000000000               0.000000000               0.000000000               0.000000000               0.000029873               0.004907809              -0.000015943              -0.000602272               0.001836677               0.001234405               0.000000000               0.000000000               0.000000000               0.000000000              -0.002963317               0.003846783               0.000723355              -0.001592088               0.001812944               0.000220856               0.000000000               0.000000000               0.000000000               0.000000000              -0.003936079               0.005782898               0.001161035              -0.002198887               0.002660575               0.000461689               0.000000000               0.000000000               0.000000000               0.000000000              -0.004817335               0.007627431               0.001394143              -0.002759923               0.003462426               0.000702503               0.000000000               0.000000000               0.000000000               0.000000000              -0.004473250               0.007975702               0.001228797              -0.002674425               0.003550016               0.000875591               0.000000000               0.000000000               0.000000000               0.000000000              -0.003835778               0.007823095               0.001041100              -0.002416298               0.003413105               0.000996807               0.000000000               0.000000000               0.000000000               0.000000000              -0.003156617               0.007502679               0.000883477              -0.002121561               0.003208055               0.001086494               0.000000000               0.000000000               0.000000000               0.000000000              -0.002502396               0.007134803               0.000762467              -0.001830245               0.002988326               0.001158081               0.000000000               0.000000000               0.000000000               0.000000000              -0.001891448               0.006761288               0.000673056              -0.001554450               0.002771890               0.001217440               0.000000000               0.000000000               0.000000000               0.000000000              -0.001333515               0.006386168               0.000598839              -0.001298336               0.002561480               0.001263144               0.000000000               0.000000000               0.000000000               0.000000000              -0.000845257               0.006021403               0.000528036              -0.001069644               0.002363662               0.001294018               0.000000000               0.000000000               0.000000000               0.000000000              -0.000440074               0.005689078               0.000450566              -0.000876160               0.002188394               0.001312233               0.000000000               0.000000000               0.000000000               0.000000000              -0.000130182               0.005404321               0.000364331              -0.000724357               0.002042874               0.001318518               0.000000000               0.000000000               0.000000000               0.000000000               0.000072096               0.005185494               0.000267293              -0.000621149               0.001935530               0.001314381               0.000000000               0.000000000               0.000000000               0.000000000               0.000173439               0.005048247               0.000164884              -0.000565990               0.001871396               0.001305406               0.000000000               0.000000000               0.000000000               0.000000000               0.000192699               0.004980453               0.000074910              -0.000550293               0.001843566               0.001293272               0.000000000               0.000000000               0.000000000               0.000000000               0.000162385               0.004968822               0.000017358              -0.000560207               0.001842993               0.001282786               0.000000000               0.000000000               0.000000000               0.000000000               0.000127567               0.004968149              -0.000005821              -0.000573180               0.001847093               0.001273913               0.000000000               0.000000000               0.000000000               0.000000000              -0.004878739               0.002090340              -0.000166502              -0.002090816               0.001393709              -0.000697107               0.000000000               0.000000000               0.000000000               0.000000000              -0.004905417               0.004249614               0.000949047              -0.002370728               0.002206766              -0.000163963               0.000000000               0.000000000               0.000000000               0.000000000              -0.005219922               0.006297545               0.001796731              -0.002744657               0.003014046               0.000269388               0.000000000               0.000000000               0.000000000               0.000000000              -0.004741031               0.007007538               0.001789596              -0.002653823               0.003220430               0.000566607               0.000000000               0.000000000               0.000000000               0.000000000              -0.004055043               0.007169725               0.001603624              -0.002416851               0.003195501               0.000778650               0.000000000               0.000000000               0.000000000               0.000000000              -0.003345622               0.007093005               0.001403904              -0.002141229               0.003078054               0.000936825               0.000000000               0.000000000               0.000000000               0.000000000              -0.002670049               0.006914649               0.001230285              -0.001865595               0.002926725               0.001061130               0.000000000               0.000000000               0.000000000               0.000000000              -0.002041533               0.006694426               0.001087686              -0.001602374               0.002765578               0.001163203               0.000000000               0.000000000               0.000000000               0.000000000              -0.001462808               0.006443368               0.000964410              -0.001353971               0.002599091               0.001245120               0.000000000               0.000000000               0.000000000               0.000000000              -0.000940010               0.006166581               0.000849408              -0.001123324               0.002429948               0.001306624               0.000000000               0.000000000               0.000000000               0.000000000              -0.000482947               0.005882404               0.000736554              -0.000916403               0.002266249               0.001349846               0.000000000               0.000000000               0.000000000               0.000000000              -0.000104905               0.005601563               0.000617866              -0.000739533               0.002113680               0.001374147               0.000000000               0.000000000               0.000000000               0.000000000               0.000178939               0.005350575               0.000485166              -0.000601718               0.001984080               0.001382362               0.000000000               0.000000000               0.000000000               0.000000000               0.000364435               0.005161274               0.000342651              -0.000508495               0.001889906               0.001381411               0.000000000               0.000000000               0.000000000               0.000000000               0.000449207               0.005043990               0.000201248              -0.000462045               0.001835328               0.001373283               0.000000000               0.000000000               0.000000000               0.000000000               0.000437784               0.004999366               0.000083835              -0.000460751               0.001820022               0.001359271               0.000000000               0.000000000               0.000000000               0.000000000               0.000381019               0.004973377               0.000024417              -0.000478789               0.001817372               0.001338583               0.000000000               0.000000000               0.000000000               0.000000000              -0.007049177               0.000688336              -0.000924923              -0.002729480               0.001139264              -0.001590216               0.000000000               0.000000000               0.000000000               0.000000000              -0.006022276               0.002817039               0.000673469              -0.002610479               0.001809160              -0.000801319               0.000000000               0.000000000               0.000000000               0.000000000              -0.005564769               0.004786829               0.001999888              -0.002685136               0.002490638              -0.000194499               0.000000000               0.000000000               0.000000000               0.000000000              -0.004866898               0.005746436               0.002189578              -0.002543386               0.002763254               0.000219868               0.000000000               0.000000000               0.000000000               0.000000000              -0.004119813               0.006194205               0.002058849              -0.002319200               0.002837781               0.000518580               0.000000000               0.000000000               0.000000000               0.000000000              -0.003391290               0.006371314               0.001852639              -0.002068143               0.002813131               0.000744987               0.000000000               0.000000000               0.000000000               0.000000000              -0.002709901               0.006405346               0.001650942              -0.001816877               0.002740719               0.000923842               0.000000000               0.000000000               0.000000000               0.000000000              -0.002077497               0.006361940               0.001473261              -0.001574300               0.002645392               0.001071092               0.000000000               0.000000000               0.000000000               0.000000000              -0.001487311               0.006264704               0.001315053              -0.001340827               0.002535156               0.001194329               0.000000000               0.000000000               0.000000000               0.000000000              -0.000940173               0.006113192               0.001169792              -0.001116712               0.002409947               0.001293236               0.000000000               0.000000000               0.000000000               0.000000000              -0.000440699               0.005918333               0.001031868              -0.000905052               0.002274442               0.001369390               0.000000000               0.000000000               0.000000000               0.000000000              -0.000000403               0.005694446               0.000887477              -0.000711955               0.002135448               0.001423493               0.000000000               0.000000000               0.000000000               0.000000000               0.000368034               0.005470904               0.000728240              -0.000545849               0.002005566               0.001459717               0.000000000               0.000000000               0.000000000               0.000000000               0.000649050               0.005270887               0.000554799              -0.000415466               0.001895433               0.001479967               0.000000000               0.000000000               0.000000000               0.000000000               0.000831876               0.005121405               0.000368130              -0.000328222               0.001816525               0.001488304               0.000000000               0.000000000               0.000000000               0.000000000               0.000902789               0.005038450               0.000179462              -0.000291260               0.001776553               0.001485294               0.000000000               0.000000000               0.000000000               0.000000000               0.000880488               0.004996631               0.000079491              -0.000294395               0.001763659               0.001469264               0.000000000               0.000000000               0.000000000               0.000000000              -0.009326412              -0.000291210              -0.001431118              -0.003461001               0.001056589              -0.002404411               0.000000000               0.000000000               0.000000000               0.000000000              -0.007217051               0.001559176               0.000384666              -0.002901287               0.001486811              -0.001414477               0.000000000               0.000000000               0.000000000               0.000000000              -0.005875231               0.003223559               0.001971398              -0.002606152               0.001943223              -0.000662929               0.000000000               0.000000000               0.000000000               0.000000000              -0.004875617               0.004293619               0.002332326              -0.002365054               0.002219542              -0.000145512               0.000000000               0.000000000               0.000000000               0.000000000              -0.004033156               0.004961195               0.002288505              -0.002132578               0.002364574               0.000231995               0.000000000               0.000000000               0.000000000               0.000000000              -0.003285453               0.005376242               0.002114130              -0.001904071               0.002426752               0.000522681               0.000000000               0.000000000               0.000000000               0.000000000              -0.002601037               0.005625443               0.001915971              -0.001678566               0.002434650               0.000756085               0.000000000               0.000000000               0.000000000               0.000000000              -0.001973240               0.005764329               0.001731340              -0.001460503               0.002408258               0.000947755               0.000000000               0.000000000               0.000000000               0.000000000              -0.001376833               0.005832198               0.001563652              -0.001245335               0.002359158               0.001113823               0.000000000               0.000000000               0.000000000               0.000000000              -0.000811607               0.005830252               0.001407024              -0.001033132               0.002287775               0.001254643               0.000000000               0.000000000               0.000000000               0.000000000              -0.000282369               0.005762153               0.001258504              -0.000826156               0.002196083               0.001369927               0.000000000               0.000000000               0.000000000               0.000000000               0.000210095               0.005644556               0.001105215              -0.000626783               0.002090427               0.001463644               0.000000000               0.000000000               0.000000000               0.000000000               0.000661648               0.005494852               0.000934996              -0.000438738               0.001977845               0.001539107               0.000000000               0.000000000               0.000000000               0.000000000               0.001055423               0.005331444               0.000743333              -0.000270647               0.001867346               0.001596699               0.000000000               0.000000000               0.000000000               0.000000000               0.001373463               0.005184459               0.000525976              -0.000133009               0.001772472               0.001639463               0.000000000               0.000000000               0.000000000               0.000000000               0.001593699               0.005077048               0.000278557              -0.000036994               0.001704664               0.001667670               0.000000000               0.000000000               0.000000000               0.000000000               0.001678956               0.005036342               0.000148589               0.000000065               0.001678742               0.001678807               0.000000000               0.000000000               0.000000000               0.000000000              -0.011493042              -0.000884832              -0.001582280              -0.004199284               0.001104809              -0.003094475               0.000000000               0.000000000               0.000000000               0.000000000              -0.008387207               0.000543365               0.000144294              -0.003213120               0.001252153              -0.001960967               0.000000000               0.000000000               0.000000000               0.000000000              -0.006159089               0.001763795               0.001709532              -0.002530129               0.001431298              -0.001098831               0.000000000               0.000000000               0.000000000               0.000000000              -0.004811190               0.002820843               0.002156094              -0.002156798               0.001659201              -0.000497596               0.000000000               0.000000000               0.000000000               0.000000000              -0.003841865               0.003630221               0.002188890              -0.001894473               0.001841551              -0.000052922               0.000000000               0.000000000               0.000000000               0.000000000              -0.003057012               0.004229493               0.002071635              -0.001675063               0.001968170               0.000293108               0.000000000               0.000000000               0.000000000               0.000000000              -0.002367840               0.004661414               0.001909186              -0.001470614               0.002043993               0.000573379               0.000000000               0.000000000               0.000000000               0.000000000              -0.001738924               0.004967377               0.001748792              -0.001273016               0.002080114               0.000807098               0.000000000               0.000000000               0.000000000               0.000000000              -0.001143088               0.005188238               0.001599702              -0.001077186               0.002088457               0.001011271               0.000000000               0.000000000               0.000000000               0.000000000              -0.000564199               0.005341051               0.001453862              -0.000879204               0.002073400               0.001194196               0.000000000               0.000000000               0.000000000               0.000000000              -0.000006333               0.005416052               0.001311777              -0.000679381               0.002031793               0.001352412               0.000000000               0.000000000               0.000000000               0.000000000               0.000530847               0.005421318               0.001168007              -0.000478597               0.001966620               0.001488023               0.000000000               0.000000000               0.000000000               0.000000000               0.001055699               0.005372980               0.001010397              -0.000275735               0.001882887               0.001607152               0.000000000               0.000000000               0.000000000               0.000000000               0.001563914               0.005287212               0.000827589              -0.000074434               0.001787198               0.001712763               0.000000000               0.000000000               0.000000000               0.000000000               0.002041030               0.005185672               0.000607939               0.000117176               0.001689481               0.001806657               0.000000000               0.000000000               0.000000000               0.000000000               0.002462255               0.005089154               0.000332490               0.000287199               0.001600635               0.001887833               0.000000000               0.000000000               0.000000000               0.000000000               0.002713498               0.005068812               0.000190825               0.000383956               0.001561602               0.001945558               0.000000000               0.000000000               0.000000000               0.000000000              -0.013290897              -0.001177476              -0.001346793              -0.004836899               0.001219799              -0.003617100               0.000000000               0.000000000               0.000000000               0.000000000              -0.009387843              -0.000185910              -0.000001079              -0.003497200               0.001103756              -0.002393444               0.000000000               0.000000000               0.000000000               0.000000000              -0.006399399               0.000578144               0.001251272              -0.002472040               0.001016721              -0.001455319               0.000000000               0.000000000               0.000000000               0.000000000              -0.004718384               0.001545363               0.001657562              -0.001962562               0.001169300              -0.000793262               0.000000000               0.000000000               0.000000000               0.000000000              -0.003611810               0.002416017               0.001726219              -0.001656428               0.001357472              -0.000298956               0.000000000               0.000000000               0.000000000               0.000000000              -0.002772626               0.003134272               0.001662872              -0.001431516               0.001521918               0.000090402               0.000000000               0.000000000               0.000000000               0.000000000              -0.002069511               0.003701378               0.001553678              -0.001238736               0.001646692               0.000407956               0.000000000               0.000000000               0.000000000               0.000000000              -0.001439179               0.004141029               0.001438312              -0.001057319               0.001732768               0.000675450               0.000000000               0.000000000               0.000000000               0.000000000              -0.000847535               0.004486658               0.001330650              -0.000878656               0.001788423               0.000909767               0.000000000               0.000000000               0.000000000               0.000000000              -0.000266820               0.004760048               0.001223174              -0.000695062               0.001818354               0.001123292               0.000000000               0.000000000               0.000000000               0.000000000               0.000310051               0.004956624               0.001112619              -0.000503308               0.001819961               0.001316652               0.000000000               0.000000000               0.000000000               0.000000000               0.000886476               0.005082365               0.001000682              -0.000302867               0.001795060               0.001492193               0.000000000               0.000000000               0.000000000               0.000000000               0.001472069               0.005149001               0.000881169              -0.000091600               0.001746850               0.001655250               0.000000000               0.000000000               0.000000000               0.000000000               0.002077142               0.005162895               0.000739001               0.000133565               0.001676426               0.001809991               0.000000000               0.000000000               0.000000000               0.000000000               0.002698982               0.005136692               0.000554953               0.000370028               0.001588871               0.001958899               0.000000000               0.000000000               0.000000000               0.000000000               0.003332682               0.005080132               0.000308706               0.000614733               0.001488449               0.002103182               0.000000000               0.000000000               0.000000000               0.000000000               0.003775784               0.005090887               0.000185162               0.000779550               0.001437095               0.002216646               0.000000000               0.000000000               0.000000000               0.000000000              -0.014485084              -0.001281678              -0.000772778              -0.005271694               0.001329996              -0.003941697               0.000000000               0.000000000               0.000000000               0.000000000              -0.010068074              -0.000614175              -0.000036541              -0.003698753               0.001028186              -0.002670567               0.000000000               0.000000000               0.000000000               0.000000000              -0.006567244              -0.000190939               0.000659555              -0.002438847               0.000749298              -0.001689550               0.000000000               0.000000000               0.000000000               0.000000000              -0.004643577               0.000677060               0.000900638              -0.001825972               0.000834338              -0.000991634               0.000000000               0.000000000               0.000000000               0.000000000              -0.003424884               0.001557863               0.000952511              -0.001479062               0.001012301              -0.000466761               0.000000000               0.000000000               0.000000000               0.000000000              -0.002538289               0.002336861               0.000927096              -0.001243963               0.001193600              -0.000050364               0.000000000               0.000000000               0.000000000               0.000000000              -0.001817696               0.002986165               0.000871938              -0.001054904               0.001347013               0.000292109               0.000000000               0.000000000               0.000000000               0.000000000              -0.001182068               0.003514067               0.000812134              -0.000882532               0.001465521               0.000582989               0.000000000               0.000000000               0.000000000               0.000000000              -0.000590574               0.003943502               0.000757602              -0.000714402               0.001552621               0.000838219               0.000000000               0.000000000               0.000000000               0.000000000              -0.000015614               0.004295217               0.000701992              -0.000542756               0.001612643               0.001069887               0.000000000               0.000000000               0.000000000               0.000000000               0.000565012               0.004579035               0.000643199              -0.000360499               0.001646496               0.001285997               0.000000000               0.000000000               0.000000000               0.000000000               0.001163651               0.004795514               0.000583243              -0.000163070               0.001652845               0.001489775               0.000000000               0.000000000               0.000000000               0.000000000               0.001790063               0.004949224               0.000522767               0.000052620               0.001632185               0.001684804               0.000000000               0.000000000               0.000000000               0.000000000               0.002457044               0.005041560               0.000447481               0.000291194               0.001583439               0.001874632               0.000000000               0.000000000               0.000000000               0.000000000               0.003182171               0.005075190               0.000340878               0.000558910               0.001505410               0.002064320               0.000000000               0.000000000               0.000000000               0.000000000               0.003987553               0.005054924               0.000192845               0.000863458               0.001397138               0.002260596               0.000000000               0.000000000               0.000000000               0.000000000               0.004594765               0.005095661               0.000119657               0.001086068               0.001336514               0.002422582               0.000000000               0.000000000               0.000000000               0.000000000              -0.014904602              -0.001301156              -0.000000000              -0.005426578               0.001375131              -0.004051446               0.000000000               0.000000000               0.000000000               0.000000000              -0.010310112              -0.000752629              -0.000000000              -0.003772211               0.001006520              -0.002765690               0.000000000               0.000000000               0.000000000               0.000000000              -0.006629754              -0.000457944               0.000000000              -0.002428913               0.000656985              -0.001771928               0.000000000               0.000000000               0.000000000               0.000000000              -0.004617257               0.000366933              -0.000000000              -0.001777336               0.000714751              -0.001062585               0.000000000               0.000000000               0.000000000               0.000000000              -0.003355011               0.001245278              -0.000000000              -0.001413787               0.000886349              -0.000527438               0.000000000               0.000000000               0.000000000               0.000000000              -0.002448641               0.002040616               0.000000000              -0.001173315               0.001071303              -0.000102012               0.000000000               0.000000000               0.000000000               0.000000000              -0.001721126               0.002720701              -0.000000000              -0.000985507               0.001235393               0.000249886               0.000000000               0.000000000               0.000000000               0.000000000              -0.001078534               0.003283815              -0.000000000              -0.000814925               0.001366236               0.000551310               0.000000000               0.000000000               0.000000000               0.000000000              -0.000487879               0.003738229               0.000000000              -0.000650232               0.001462808               0.000812576               0.000000000               0.000000000               0.000000000               0.000000000               0.000083365               0.004115675               0.000000000              -0.000483196               0.001532943               0.001049747               0.000000000               0.000000000               0.000000000               0.000000000               0.000664063               0.004435813              -0.000000000              -0.000305452               0.001580407               0.001274955               0.000000000               0.000000000               0.000000000               0.000000000               0.001270887               0.004689152              -0.000000000              -0.000109561               0.001599555               0.001489994               0.000000000               0.000000000               0.000000000               0.000000000               0.001913307               0.004875772              -0.000000000               0.000108018               0.001589235               0.001697253               0.000000000               0.000000000               0.000000000               0.000000000               0.002599824               0.004994571               0.000000000               0.000350609               0.001547971               0.001898580               0.000000000               0.000000000               0.000000000               0.000000000               0.003362518               0.005046192               0.000000000               0.000630164               0.001471992               0.002102156               0.000000000               0.000000000               0.000000000               0.000000000               0.004236804               0.005040395               0.000000000               0.000958743               0.001360534               0.002319277               0.000000000               0.000000000               0.000000000               0.000000000               0.004912112               0.005095719               0.000000000               0.001205065               0.001296868               0.002501933               0.000000000               0.000000000               0.000000000               0.000000000               0.002181295               0.023012891               0.000000000              -0.002058621               0.008357094               0.006298473               0.000000000               0.000000000               0.000000000               0.000000000               0.002082064               0.017567668               0.000000000              -0.001415181               0.006327558               0.004912377               0.000000000               0.000000000               0.000000000               0.000000000               0.002683369               0.013153335               0.000000000              -0.000637902               0.004597035               0.003959133               0.000000000               0.000000000               0.000000000               0.000000000               0.002486073               0.010661235              -0.000000000              -0.000400376               0.003687168               0.003286792               0.000000000               0.000000000               0.000000000               0.000000000               0.002070233               0.009076612              -0.000000000              -0.000358238               0.003144920               0.002786682               0.000000000               0.000000000               0.000000000               0.000000000               0.001631139               0.007954808               0.000000000              -0.000382673               0.002779134               0.002396461               0.000000000               0.000000000               0.000000000               0.000000000               0.001225824               0.007086696               0.000000000              -0.000426152               0.002504259               0.002078107               0.000000000               0.000000000               0.000000000               0.000000000               0.000884585               0.006358271              -0.000000000              -0.000463063               0.002273757               0.001810694               0.000000000               0.000000000               0.000000000               0.000000000               0.000613315               0.005696251              -0.000000000              -0.000482037               0.002059410               0.001577373               0.000000000               0.000000000               0.000000000               0.000000000               0.000388733               0.005065670               0.000000000              -0.000487433               0.001851017               0.001363585               0.000000000               0.000000000               0.000000000               0.000000000               0.000202145               0.004451636               0.000000000              -0.000480649               0.001644080               0.001163431               0.000000000               0.000000000               0.000000000               0.000000000               0.000058247               0.003836569               0.000000000              -0.000457727               0.001431419               0.000973692               0.000000000               0.000000000               0.000000000               0.000000000              -0.000046744               0.003194929               0.000000000              -0.000416894               0.001203930               0.000787036               0.000000000               0.000000000               0.000000000               0.000000000              -0.000106627               0.002499277               0.000000000              -0.000352394               0.000950548               0.000598154               0.000000000               0.000000000               0.000000000               0.000000000              -0.000117246               0.001728585              -0.000000000              -0.000260040               0.000662869               0.000402829               0.000000000               0.000000000               0.000000000               0.000000000              -0.000073728               0.000868263               0.000000000              -0.000136181               0.000334811               0.000198631               0.000000000               0.000000000               0.000000000               0.000000000              -0.000106691               0.000215183               0.000000000              -0.000066907               0.000094029               0.000027122               0.000000000               0.000000000               0.000000000               0.000000000               0.002238340               0.022513097              -0.001500778              -0.001974755               0.008162542               0.006187787               0.000000000               0.000000000               0.000000000               0.000000000               0.002009826               0.017255002              -0.000643515              -0.001403187               0.006219339               0.004816152               0.000000000               0.000000000               0.000000000               0.000000000               0.002470256               0.013037230               0.000197598              -0.000703306               0.004580135               0.003876829               0.000000000               0.000000000               0.000000000               0.000000000               0.002220334               0.010649036               0.000533967              -0.000498503               0.003715811               0.003217308               0.000000000               0.000000000               0.000000000               0.000000000               0.001796785               0.009116308               0.000654779              -0.000465743               0.003193987               0.002728244               0.000000000               0.000000000               0.000000000               0.000000000               0.001370694               0.008020444               0.000683291              -0.000488544               0.002836303               0.002347758               0.000000000               0.000000000               0.000000000               0.000000000               0.000991373               0.007160777               0.000673113              -0.000523331               0.002561346               0.002038014               0.000000000               0.000000000               0.000000000               0.000000000               0.000679295               0.006431670               0.000642285              -0.000549222               0.002326942               0.001777720               0.000000000               0.000000000               0.000000000               0.000000000               0.000431527               0.005771251               0.000603344              -0.000559582               0.002110259               0.001550676               0.000000000               0.000000000               0.000000000               0.000000000               0.000234659               0.005145667               0.000568736              -0.000555210               0.001900275               0.001345065               0.000000000               0.000000000               0.000000000               0.000000000               0.000079673               0.004538092               0.000536406              -0.000537383               0.001691810               0.001154427               0.000000000               0.000000000               0.000000000               0.000000000              -0.000036267               0.003927449               0.000498676              -0.000504530               0.001477313               0.000972783               0.000000000               0.000000000               0.000000000               0.000000000              -0.000111033               0.003298620               0.000447306              -0.000453964               0.001250850               0.000796886               0.000000000               0.000000000               0.000000000               0.000000000              -0.000143576               0.002631403               0.000374791              -0.000382766               0.001004714               0.000621948               0.000000000               0.000000000               0.000000000               0.000000000              -0.000133027               0.001907816               0.000281829              -0.000288362               0.000732053               0.000443691               0.000000000               0.000000000               0.000000000               0.000000000              -0.000078924               0.001116242               0.000158903              -0.000169127               0.000428452               0.000259326               0.000000000               0.000000000               0.000000000               0.000000000              -0.000103245               0.000528550               0.000099121              -0.000104785               0.000211110               0.000106324               0.000000000               0.000000000               0.000000000               0.000000000               0.002359735               0.021072386              -0.002758749              -0.001749144               0.007607106               0.005857962               0.000000000               0.000000000               0.000000000               0.000000000               0.001775154               0.016362085              -0.001170641              -0.001379575               0.005913832               0.004534257               0.000000000               0.000000000               0.000000000               0.000000000               0.001854782               0.012707867               0.000367994              -0.000892938               0.004533559               0.003640621               0.000000000               0.000000000               0.000000000               0.000000000               0.001473622               0.010603201               0.000956408              -0.000772790               0.003791962               0.003019172               0.000000000               0.000000000               0.000000000               0.000000000               0.001037871               0.009211430               0.001155748              -0.000762226               0.003324521               0.002562295               0.000000000               0.000000000               0.000000000               0.000000000               0.000660293               0.008183935               0.001193700              -0.000775381               0.002986411               0.002211030               0.000000000               0.000000000               0.000000000               0.000000000               0.000357895               0.007351910               0.001165585              -0.000784776               0.002712204               0.001927428               0.000000000               0.000000000               0.000000000               0.000000000               0.000128170               0.006630967               0.001106336              -0.000780806               0.002470569               0.001689763               0.000000000               0.000000000               0.000000000               0.000000000              -0.000039064               0.005975013               0.001037039              -0.000761524               0.002245492               0.001483968               0.000000000               0.000000000               0.000000000               0.000000000              -0.000153439               0.005359497               0.000975472              -0.000727475               0.002028973               0.001301497               0.000000000               0.000000000               0.000000000               0.000000000              -0.000225798               0.004763414               0.000914787              -0.000680100               0.001814489               0.001134389               0.000000000               0.000000000               0.000000000               0.000000000              -0.000260756               0.004172026               0.000844632              -0.000619286               0.001597090               0.000977804               0.000000000               0.000000000               0.000000000               0.000000000              -0.000260300               0.003578922               0.000754908              -0.000544977               0.001374621               0.000829644               0.000000000               0.000000000               0.000000000               0.000000000              -0.000230614               0.002980912               0.000629266              -0.000459093               0.001146658               0.000687565               0.000000000               0.000000000               0.000000000               0.000000000              -0.000175411               0.002375541               0.000465501              -0.000362721               0.000912746               0.000550025               0.000000000               0.000000000               0.000000000               0.000000000              -0.000095897               0.001768950               0.000257774              -0.000257080               0.000675337               0.000418258               0.000000000               0.000000000               0.000000000               0.000000000              -0.000093383               0.001352039               0.000156774              -0.000204023               0.000518683               0.000314660               0.000000000               0.000000000               0.000000000               0.000000000               0.002427286               0.018871878              -0.003601147              -0.001448751               0.006773480               0.005324729               0.000000000               0.000000000               0.000000000               0.000000000               0.001349866               0.015018386              -0.001519537              -0.001371096               0.005463110               0.004092015               0.000000000               0.000000000               0.000000000               0.000000000               0.000906944               0.012210525               0.000462861              -0.001186209               0.004465537               0.003279328               0.000000000               0.000000000               0.000000000               0.000000000               0.000388670               0.010504697               0.001173510              -0.001167334               0.003890642               0.002723308               0.000000000               0.000000000               0.000000000               0.000000000              -0.000020142               0.009305608               0.001393578              -0.001170752               0.003492089               0.002321337               0.000000000               0.000000000               0.000000000               0.000000000              -0.000304107               0.008366375               0.001421136              -0.001159835               0.003175375               0.002015541               0.000000000               0.000000000               0.000000000               0.000000000              -0.000485215               0.007573497               0.001375126              -0.001128640               0.002900687               0.001772047               0.000000000               0.000000000               0.000000000               0.000000000              -0.000587125               0.006870475               0.001295962              -0.001078979               0.002649795               0.001570816               0.000000000               0.000000000               0.000000000               0.000000000              -0.000628233               0.006224463               0.001209474              -0.001013643               0.002412681               0.001399038               0.000000000               0.000000000               0.000000000               0.000000000              -0.000622890               0.005617958               0.001131284              -0.000935827               0.002184576               0.001248749               0.000000000               0.000000000               0.000000000               0.000000000              -0.000581031               0.005037016               0.001051680              -0.000847512               0.001961492               0.001113980               0.000000000               0.000000000               0.000000000               0.000000000              -0.000508825               0.004478605               0.000958120              -0.000750634               0.001743065               0.000992431               0.000000000               0.000000000               0.000000000               0.000000000              -0.000414874               0.003942133               0.000842712              -0.000648343               0.001530146               0.000881802               0.000000000               0.000000000               0.000000000               0.000000000              -0.000310072               0.003441033               0.000690117              -0.000546405               0.001329135               0.000782729               0.000000000               0.000000000               0.000000000               0.000000000              -0.000202601               0.002992143               0.000497811              -0.000449992               0.001147369               0.000697376               0.000000000               0.000000000               0.000000000               0.000000000              -0.000098922               0.002615559               0.000267888              -0.000364040               0.000993191               0.000629151               0.000000000               0.000000000               0.000000000               0.000000000              -0.000066364               0.002403524               0.000151311              -0.000325326               0.000909609               0.000584282               0.000000000               0.000000000               0.000000000               0.000000000               0.002295836               0.016193232              -0.003955644              -0.001163216               0.005785428               0.004622212               0.000000000               0.000000000               0.000000000               0.000000000               0.000723358               0.013416326              -0.001682296              -0.001405779               0.004940657               0.003534878               0.000000000               0.000000000               0.000000000               0.000000000              -0.000244717               0.011606474               0.000444125              -0.001542574               0.004382977               0.002840403               0.000000000               0.000000000               0.000000000               0.000000000              -0.000836704               0.010330271               0.001148292              -0.001605044               0.003978404               0.002373360               0.000000000               0.000000000               0.000000000               0.000000000              -0.001152495               0.009326548               0.001342305              -0.001598001               0.003641485               0.002043484               0.000000000               0.000000000               0.000000000               0.000000000              -0.001289131               0.008478591               0.001349716              -0.001543245               0.003340583               0.001797339               0.000000000               0.000000000               0.000000000               0.000000000              -0.001312654               0.007729776               0.001291558              -0.001458464               0.003062721               0.001604257               0.000000000               0.000000000               0.000000000               0.000000000              -0.001259431               0.007045813               0.001207570              -0.001353010               0.002799584               0.001446574               0.000000000               0.000000000               0.000000000               0.000000000              -0.001153292               0.006414507               0.001116839              -0.001234295               0.002549579               0.001315284               0.000000000               0.000000000               0.000000000               0.000000000              -0.001014184               0.005824852               0.001031084              -0.001108423               0.002311072               0.001202649               0.000000000               0.000000000               0.000000000               0.000000000              -0.000851068               0.005271861               0.000942893              -0.000978131               0.002083313               0.001105182               0.000000000               0.000000000               0.000000000               0.000000000              -0.000671683               0.004761480               0.000837894              -0.000847064               0.001869499               0.001022434               0.000000000               0.000000000               0.000000000               0.000000000              -0.000490726               0.004301214               0.000712889              -0.000721672               0.001674281               0.000952609               0.000000000               0.000000000               0.000000000               0.000000000              -0.000326291               0.003909935               0.000563004              -0.000611100               0.001506998               0.000895899               0.000000000               0.000000000               0.000000000               0.000000000              -0.000186487               0.003614797               0.000384847              -0.000521781               0.001378847               0.000857066               0.000000000               0.000000000               0.000000000               0.000000000              -0.000082586               0.003433297               0.000193152              -0.000460131               0.001297798               0.000837667               0.000000000               0.000000000               0.000000000               0.000000000              -0.000038973               0.003375142               0.000096336              -0.000436506               0.001270538               0.000834032               0.000000000               0.000000000               0.000000000               0.000000000               0.001852198               0.013331975              -0.003836129              -0.000971923               0.004767921               0.003795998               0.000000000               0.000000000               0.000000000               0.000000000              -0.000092449               0.011736697              -0.001686606              -0.001501753               0.004412777               0.002911024               0.000000000               0.000000000               0.000000000               0.000000000              -0.001466741               0.010941204               0.000291985              -0.001917674               0.004286256               0.002368582               0.000000000               0.000000000               0.000000000               0.000000000              -0.002012727               0.010060649               0.000892609              -0.002012349               0.004024299               0.002011950               0.000000000               0.000000000               0.000000000               0.000000000              -0.002157019               0.009226781               0.001042678              -0.001962225               0.003729638               0.001767413               0.000000000               0.000000000               0.000000000               0.000000000              -0.002102271               0.008462377               0.001038474              -0.001846144               0.003436145               0.001590001               0.000000000               0.000000000               0.000000000               0.000000000              -0.001947019               0.007756036               0.000981895              -0.001699633               0.003151863               0.001452231               0.000000000               0.000000000               0.000000000               0.000000000              -0.001734330               0.007097700               0.000906728              -0.001537583               0.002878404               0.001340821               0.000000000               0.000000000               0.000000000               0.000000000              -0.001485947               0.006493192               0.000825907              -0.001368876               0.002620667               0.001251792               0.000000000               0.000000000               0.000000000               0.000000000              -0.001222783               0.005937631               0.000745602              -0.001200745               0.002379439               0.001178694               0.000000000               0.000000000               0.000000000               0.000000000              -0.000954239               0.005430886               0.000662071              -0.001036698               0.002155843               0.001119145               0.000000000               0.000000000               0.000000000               0.000000000              -0.000698283               0.004981009               0.000564669              -0.000884480               0.001955146               0.001070666               0.000000000               0.000000000               0.000000000               0.000000000              -0.000466834               0.004603126               0.000452886              -0.000750452               0.001784511               0.001034059               0.000000000               0.000000000               0.000000000               0.000000000              -0.000274267               0.004317890               0.000334581              -0.000642585               0.001653477               0.001010892               0.000000000               0.000000000               0.000000000               0.000000000              -0.000134555               0.004138365               0.000211103              -0.000567752               0.001568692               0.001000940               0.000000000               0.000000000               0.000000000               0.000000000              -0.000049256               0.004064479               0.000095658              -0.000526530               0.001530323               0.001003793               0.000000000               0.000000000               0.000000000               0.000000000              -0.000015693               0.004061373               0.000041105              -0.000513555               0.001524963               0.001011407               0.000000000               0.000000000               0.000000000               0.000000000               0.001038456               0.010528745              -0.003333110              -0.000926672               0.003818437               0.002891764               0.000000000               0.000000000               0.000000000               0.000000000              -0.001045881               0.010107704              -0.001591880              -0.001655665               0.003921089               0.002265424               0.000000000               0.000000000               0.000000000               0.000000000              -0.002621886               0.010235899               0.000002536              -0.002262689               0.004166162               0.001903473               0.000000000               0.000000000               0.000000000               0.000000000              -0.002994086               0.009685433               0.000456976              -0.002333456               0.004006264               0.001672808               0.000000000               0.000000000               0.000000000               0.000000000              -0.002905444               0.008992234               0.000577657              -0.002213565               0.003735236               0.001521671               0.000000000               0.000000000               0.000000000               0.000000000              -0.002640819               0.008298581               0.000584820              -0.002027625               0.003442041               0.001414416               0.000000000               0.000000000               0.000000000               0.000000000              -0.002308570               0.007635269               0.000550388              -0.001820118               0.003151770               0.001331652               0.000000000               0.000000000               0.000000000               0.000000000              -0.001947460               0.007018777               0.000501232              -0.001607640               0.002875449               0.001267809               0.000000000               0.000000000               0.000000000               0.000000000              -0.001576958               0.006459354               0.000444104              -0.001398775               0.002619355               0.001220580               0.000000000               0.000000000               0.000000000               0.000000000              -0.001215817               0.005949117               0.000384091              -0.001199568               0.002382875               0.001183307               0.000000000               0.000000000               0.000000000               0.000000000              -0.000876274               0.005497832               0.000322405              -0.001015829               0.002171202               0.001155373               0.000000000               0.000000000               0.000000000               0.000000000              -0.000584833               0.005113909               0.000253322              -0.000858549               0.001990802               0.001132254               0.000000000               0.000000000               0.000000000               0.000000000              -0.000353544               0.004816976               0.000183515              -0.000734699               0.001850542               0.001115843               0.000000000               0.000000000               0.000000000               0.000000000              -0.000182711               0.004618622               0.000122326              -0.000645843               0.001754806               0.001108963               0.000000000               0.000000000               0.000000000               0.000000000              -0.000075697               0.004510152               0.000067950              -0.000592154               0.001700754               0.001108600               0.000000000               0.000000000               0.000000000               0.000000000              -0.000022098               0.004469772               0.000025279              -0.000567007               0.001678911               0.001111904               0.000000000               0.000000000               0.000000000               0.000000000              -0.000009783               0.004464240               0.000008937              -0.000561697               0.001675298               0.001113600               0.000000000               0.000000000               0.000000000               0.000000000              -0.000106975               0.007957434              -0.002567136              -0.001034794               0.002997382               0.001962588               0.000000000               0.000000000               0.000000000               0.000000000              -0.002078746               0.008627573              -0.001455531              -0.001857972               0.003495153               0.001637180               0.000000000               0.000000000               0.000000000               0.000000000              -0.003591074               0.009499213              -0.000405765              -0.002534048               0.004011055               0.001477007               0.000000000               0.000000000               0.000000000               0.000000000              -0.003685468               0.009200810              -0.000078615              -0.002532145               0.003910955               0.001378809               0.000000000               0.000000000               0.000000000               0.000000000              -0.003346410               0.008630666               0.000045414              -0.002333731               0.003654770               0.001321039               0.000000000               0.000000000               0.000000000               0.000000000              -0.002883311               0.008006302               0.000090513              -0.002082024               0.003362749               0.001280725               0.000000000               0.000000000               0.000000000               0.000000000              -0.002394248               0.007401252               0.000098017              -0.001822995               0.003074725               0.001251729               0.000000000               0.000000000               0.000000000               0.000000000              -0.001907838               0.006844043               0.000087108              -0.001570941               0.002804972               0.001234031               0.000000000               0.000000000               0.000000000               0.000000000              -0.001446217               0.006332777               0.000065267              -0.001333925               0.002555546               0.001221621               0.000000000               0.000000000               0.000000000               0.000000000              -0.001025080               0.005871310               0.000039670              -0.001118316               0.002329856               0.001211540               0.000000000               0.000000000               0.000000000               0.000000000              -0.000660010               0.005476619               0.000019368              -0.000932079               0.002136214               0.001204136               0.000000000               0.000000000               0.000000000               0.000000000              -0.000374657               0.005163210               0.000001889              -0.000785896               0.001983018               0.001197122               0.000000000               0.000000000               0.000000000               0.000000000              -0.000180788               0.004941188              -0.000007152              -0.000685442               0.001875527               0.001190085               0.000000000               0.000000000               0.000000000               0.000000000              -0.000067606               0.004806721              -0.000004186              -0.000626191               0.001810954               0.001184764               0.000000000               0.000000000               0.000000000               0.000000000              -0.000012490               0.004745080               0.000002164              -0.000597817               0.001780950               0.001183133               0.000000000               0.000000000               0.000000000               0.000000000               0.000003675               0.004731789               0.000004024              -0.000590094               0.001773945               0.001183851               0.000000000               0.000000000               0.000000000               0.000000000              -0.000000372               0.004736571               0.000003993              -0.000592209               0.001776244               0.001184035               0.000000000               0.000000000               0.000000000               0.000000000              -0.001438568               0.005810754              -0.001659352              -0.001265805               0.002358833               0.001093028               0.000000000               0.000000000               0.000000000               0.000000000              -0.003083340               0.007309981              -0.001313956              -0.002069995               0.003126634               0.001056639               0.000000000               0.000000000               0.000000000               0.000000000              -0.004347397               0.008749042              -0.000891635              -0.002723898               0.003824284               0.001100386               0.000000000               0.000000000               0.000000000               0.000000000              -0.004154008               0.008709923              -0.000640058              -0.002646487               0.003785441               0.001138954               0.000000000               0.000000000               0.000000000               0.000000000              -0.003606261               0.008285196              -0.000485098              -0.002387991               0.003557702               0.001169710               0.000000000               0.000000000               0.000000000               0.000000000              -0.002988337               0.007757264              -0.000386422              -0.002090279               0.003282488               0.001192209               0.000000000               0.000000000               0.000000000               0.000000000              -0.002378794               0.007230049              -0.000323761              -0.001795799               0.003008592               0.001212793               0.000000000               0.000000000               0.000000000               0.000000000              -0.001799619               0.006734080              -0.000288694              -0.001516613               0.002750209               0.001233595               0.000000000               0.000000000               0.000000000               0.000000000              -0.001269692               0.006267120              -0.000266800              -0.001259521               0.002508860               0.001249338               0.000000000               0.000000000               0.000000000               0.000000000              -0.000807708               0.005846930              -0.000245661              -0.001033754               0.002293542               0.001259788               0.000000000               0.000000000               0.000000000               0.000000000              -0.000428185               0.005497196              -0.000214275              -0.000847717               0.002114953               0.001267236               0.000000000               0.000000000               0.000000000               0.000000000              -0.000156747               0.005226098              -0.000173921              -0.000712041               0.001979362               0.001267322               0.000000000               0.000000000               0.000000000               0.000000000               0.000001314               0.005040997              -0.000125609              -0.000629630               0.001890192               0.001260562               0.000000000               0.000000000               0.000000000               0.000000000               0.000067296               0.004939932              -0.000068558              -0.000592254               0.001844046               0.001251791               0.000000000               0.000000000               0.000000000               0.000000000               0.000073120               0.004899865              -0.000017323              -0.000585062               0.001828293               0.001243231               0.000000000               0.000000000               0.000000000               0.000000000               0.000048523               0.004897703               0.000010082              -0.000594015               0.001830556               0.001236541               0.000000000               0.000000000               0.000000000               0.000000000               0.000029873               0.004907809               0.000015943              -0.000602272               0.001836677               0.001234405               0.000000000               0.000000000               0.000000000               0.000000000              -0.002963317               0.003846783              -0.000723355              -0.001592088               0.001812944               0.000220856               0.000000000               0.000000000               0.000000000               0.000000000              -0.003936079               0.005782898              -0.001161035              -0.002198887               0.002660575               0.000461689               0.000000000               0.000000000               0.000000000               0.000000000              -0.004817335               0.007627431              -0.001394143              -0.002759923               0.003462426               0.000702503               0.000000000               0.000000000               0.000000000               0.000000000              -0.004473250               0.007975702              -0.001228797              -0.002674425               0.003550016               0.000875591               0.000000000               0.000000000               0.000000000               0.000000000              -0.003835778               0.007823095              -0.001041100              -0.002416298               0.003413105               0.000996807               0.000000000               0.000000000               0.000000000               0.000000000              -0.003156617               0.007502679              -0.000883477              -0.002121561               0.003208055               0.001086494               0.000000000               0.000000000               0.000000000               0.000000000              -0.002502396               0.007134803              -0.000762467              -0.001830245               0.002988326               0.001158081               0.000000000               0.000000000               0.000000000               0.000000000              -0.001891448               0.006761288              -0.000673056              -0.001554450               0.002771890               0.001217440               0.000000000               0.000000000               0.000000000               0.000000000              -0.001333515               0.006386168              -0.000598839              -0.001298336               0.002561480               0.001263144               0.000000000               0.000000000               0.000000000               0.000000000              -0.000845257               0.006021403              -0.000528036              -0.001069644               0.002363662               0.001294018               0.000000000               0.000000000               0.000000000               0.000000000              -0.000440074               0.005689078              -0.000450566              -0.000876160               0.002188394               0.001312233               0.000000000               0.000000000               0.000000000               0.000000000              -0.000130182               0.005404321              -0.000364331              -0.000724357               0.002042874               0.001318518               0.000000000               0.000000000               0.000000000               0.000000000               0.000072096               0.005185494              -0.000267293              -0.000621149               0.001935530               0.001314381               0.000000000               0.000000000               0.000000000               0.000000000               0.000173439               0.005048247              -0.000164884              -0.000565990               0.001871396               0.001305406               0.000000000               0.000000000               0.000000000               0.000000000               0.000192699               0.004980453              -0.000074910              -0.000550293               0.001843566               0.001293272               0.000000000               0.000000000               0.000000000               0.000000000               0.000162385               0.004968822              -0.000017358              -0.000560207               0.001842993               0.001282786               0.000000000               0.000000000               0.000000000               0.000000000               0.000127567               0.004968149               0.000005821              -0.000573180               0.001847093               0.001273913               0.000000000               0.000000000               0.000000000               0.000000000              -0.004878739               0.002090340               0.000166502              -0.002090816               0.001393709              -0.000697107               0.000000000               0.000000000               0.000000000               0.000000000              -0.004905417               0.004249614              -0.000949047              -0.002370728               0.002206766              -0.000163963               0.000000000               0.000000000               0.000000000               0.000000000              -0.005219922               0.006297545              -0.001796731              -0.002744657               0.003014046               0.000269388               0.000000000               0.000000000               0.000000000               0.000000000              -0.004741031               0.007007538              -0.001789596              -0.002653823               0.003220430               0.000566607               0.000000000               0.000000000               0.000000000               0.000000000              -0.004055043               0.007169725              -0.001603624              -0.002416851               0.003195501               0.000778650               0.000000000               0.000000000               0.000000000               0.000000000              -0.003345622               0.007093005              -0.001403904              -0.002141229               0.003078054               0.000936825               0.000000000               0.000000000               0.000000000               0.000000000              -0.002670049               0.006914649              -0.001230285              -0.001865595               0.002926725               0.001061130               0.000000000               0.000000000               0.000000000               0.000000000              -0.002041533               0.006694426              -0.001087686              -0.001602374               0.002765578               0.001163203               0.000000000               0.000000000               0.000000000               0.000000000              -0.001462808               0.006443368              -0.000964410              -0.001353971               0.002599091               0.001245120               0.000000000               0.000000000               0.000000000               0.000000000              -0.000940010               0.006166581              -0.000849408              -0.001123324               0.002429948               0.001306624               0.000000000               0.000000000               0.000000000               0.000000000              -0.000482947               0.005882404              -0.000736554              -0.000916403               0.002266249               0.001349846               0.000000000               0.000000000               0.000000000               0.000000000              -0.000104905               0.005601563              -0.000617866              -0.000739533               0.002113680               0.001374147               0.000000000               0.000000000               0.000000000               0.000000000               0.000178939               0.005350575              -0.000485166              -0.000601718               0.001984080               0.001382362               0.000000000               0.000000000               0.000000000               0.000000000               0.000364435               0.005161274              -0.000342651              -0.000508495               0.001889906               0.001381411               0.000000000               0.000000000               0.000000000               0.000000000               0.000449207               0.005043990              -0.000201248              -0.000462045               0.001835328               0.001373283               0.000000000               0.000000000               0.000000000               0.000000000               0.000437784               0.004999366              -0.000083835              -0.000460751               0.001820022               0.001359271               0.000000000               0.000000000               0.000000000               0.000000000               0.000381019               0.004973377              -0.000024417              -0.000478789               0.001817372               0.001338583               0.000000000               0.000000000               0.000000000               0.000000000              -0.007049177               0.000688336               0.000924923              -0.002729480               0.001139264              -0.001590216               0.000000000               0.000000000               0.000000000               0.000000000              -0.006022276               0.002817039              -0.000673469              -0.002610479               0.001809160              -0.000801319               0.000000000               0.000000000               0.000000000               0.000000000              -0.005564769               0.004786829              -0.001999888              -0.002685136               0.002490638              -0.000194499               0.000000000               0.000000000               0.000000000               0.000000000              -0.004866898               0.005746436              -0.002189578              -0.002543386               0.002763254               0.000219868               0.000000000               0.000000000               0.000000000               0.000000000              -0.004119813               0.006194205              -0.002058849              -0.002319200               0.002837781               0.000518580               0.000000000               0.000000000               0.000000000               0.000000000              -0.003391290               0.006371314              -0.001852639              -0.002068143               0.002813131               0.000744987               0.000000000               0.000000000               0.000000000               0.000000000              -0.002709901               0.006405346              -0.001650942              -0.001816877               0.002740719               0.000923842               0.000000000               0.000000000               0.000000000               0.000000000              -0.002077497               0.006361940              -0.001473261              -0.001574300               0.002645392               0.001071092               0.000000000               0.000000000               0.000000000               0.000000000              -0.001487311               0.006264704              -0.001315053              -0.001340827               0.002535156               0.001194329               0.000000000               0.000000000               0.000000000               0.000000000              -0.000940173               0.006113192              -0.001169792              -0.001116712               0.002409947               0.001293236               0.000000000               0.000000000               0.000000000               0.000000000              -0.000440699               0.005918333              -0.001031868              -0.000905052               0.002274442               0.001369390               0.000000000               0.000000000               0.000000000               0.000000000              -0.000000403               0.005694446              -0.000887477              -0.000711955               0.002135448               0.001423493               0.000000000               0.000000000               0.000000000               0.000000000               0.000368034               0.005470904              -0.000728240              -0.000545849               0.002005566               0.001459717               0.000000000               0.000000000               0.000000000               0.000000000               0.000649050               0.005270887              -0.000554799              -0.000415466               0.001895433               0.001479967               0.000000000               0.000000000               0.000000000               0.000000000               0.000831876               0.005121405              -0.000368130              -0.000328222               0.001816525               0.001488304               0.000000000               0.000000000               0.000000000               0.000000000               0.000902789               0.005038450              -0.000179462              -0.000291260               0.001776553               0.001485294               0.000000000               0.000000000               0.000000000               0.000000000               0.000880488               0.004996631              -0.000079491              -0.000294395               0.001763659               0.001469264               0.000000000               0.000000000               0.000000000               0.000000000              -0.009326412              -0.000291210               0.001431118              -0.003461001               0.001056589              -0.002404411               0.000000000               0.000000000               0.000000000               0.000000000              -0.007217051               0.001559176              -0.000384666              -0.002901287               0.001486811              -0.001414477               0.000000000               0.000000000               0.000000000               0.000000000              -0.005875231               0.003223559              -0.001971398              -0.002606152               0.001943223              -0.000662929               0.000000000               0.000000000               0.000000000               0.000000000              -0.004875617               0.004293619              -0.002332326              -0.002365054               0.002219542              -0.000145512               0.000000000               0.000000000               0.000000000               0.000000000              -0.004033156               0.004961195              -0.002288505              -0.002132578               0.002364574               0.000231995               0.000000000               0.000000000               0.000000000               0.000000000              -0.003285453               0.005376242              -0.002114130              -0.001904071               0.002426752               0.000522681               0.000000000               0.000000000               0.000000000               0.000000000              -0.002601037               0.005625443              -0.001915971              -0.001678566               0.002434650               0.000756085               0.000000000               0.000000000               0.000000000               0.000000000              -0.001973240               0.005764329              -0.001731340              -0.001460503               0.002408258               0.000947755               0.000000000               0.000000000               0.000000000               0.000000000              -0.001376833               0.005832198              -0.001563652              -0.001245335               0.002359158               0.001113823               0.000000000               0.000000000               0.000000000               0.000000000              -0.000811607               0.005830252              -0.001407024              -0.001033132               0.002287775               0.001254643               0.000000000               0.000000000               0.000000000               0.000000000              -0.000282369               0.005762153              -0.001258504              -0.000826156               0.002196083               0.001369927               0.000000000               0.000000000               0.000000000               0.000000000               0.000210095               0.005644556              -0.001105215              -0.000626783               0.002090427               0.001463644               0.000000000               0.000000000               0.000000000               0.000000000               0.000661648               0.005494852              -0.000934996              -0.000438738               0.001977845               0.001539107               0.000000000               0.000000000               0.000000000               0.000000000               0.001055423               0.005331444              -0.000743333              -0.000270647               0.001867346               0.001596699               0.000000000               0.000000000               0.000000000               0.000000000               0.001373463               0.005184459              -0.000525976              -0.000133009               0.001772472               0.001639463               0.000000000               0.000000000               0.000000000               0.000000000               0.001593699               0.005077048              -0.000278557              -0.000036994               0.001704664               0.001667670               0.000000000               0.000000000               0.000000000               0.000000000               0.001678956               0.005036342              -0.000148589               0.000000065               0.001678742               0.001678807               0.000000000               0.000000000               0.000000000               0.000000000              -0.011493042              -0.000884832               0.001582280              -0.004199284               0.001104809              -0.003094475               0.000000000               0.000000000               0.000000000               0.000000000              -0.008387207               0.000543365              -0.000144294              -0.003213120               0.001252153              -0.001960967               0.000000000               0.000000000               0.000000000               0.000000000              -0.006159089               0.001763795              -0.001709532              -0.002530129               0.001431298              -0.001098831               0.000000000               0.000000000               0.000000000               0.000000000              -0.004811190               0.002820843              -0.002156094              -0.002156798               0.001659201              -0.000497596               0.000000000               0.000000000               0.000000000               0.000000000              -0.003841865               0.003630221              -0.002188890              -0.001894473               0.001841551              -0.000052922               0.000000000               0.000000000               0.000000000               0.000000000              -0.003057012               0.004229493              -0.002071635              -0.001675063               0.001968170               0.000293108               0.000000000               0.000000000               0.000000000               0.000000000              -0.002367840               0.004661414              -0.001909186              -0.001470614               0.002043993               0.000573379               0.000000000               0.000000000               0.000000000               0.000000000              -0.001738924               0.004967377              -0.001748792              -0.001273016               0.002080114               0.000807098               0.000000000               0.000000000               0.000000000               0.000000000              -0.001143088               0.005188238              -0.001599702              -0.001077186               0.002088457               0.001011271               0.000000000               0.000000000               0.000000000               0.000000000              -0.000564199               0.005341051              -0.001453862              -0.000879204               0.002073400               0.001194196               0.000000000               0.000000000               0.000000000               0.000000000              -0.000006333               0.005416052              -0.001311777              -0.000679381               0.002031793               0.001352412               0.000000000               0.000000000               0.000000000               0.000000000               0.000530847               0.005421318              -0.001168007              -0.000478597               0.001966620               0.001488023               0.000000000               0.000000000               0.000000000               0.000000000               0.001055699               0.005372980              -0.001010397              -0.000275735               0.001882887               0.001607152               0.000000000               0.000000000               0.000000000               0.000000000               0.001563914               0.005287212              -0.000827589              -0.000074434               0.001787198               0.001712763               0.000000000               0.000000000               0.000000000               0.000000000               0.002041030               0.005185672              -0.000607939               0.000117176               0.001689481               0.001806657               0.000000000               0.000000000               0.000000000               0.000000000               0.002462255               0.005089154              -0.000332490               0.000287199               0.001600635               0.001887833               0.000000000               0.000000000               0.000000000               0.000000000               0.002713498               0.005068812              -0.000190825               0.000383956               0.001561602               0.001945558               0.000000000               0.000000000               0.000000000               0.000000000              -0.013290897              -0.001177476               0.001346793              -0.004836899               0.001219799              -0.003617100               0.000000000               0.000000000               0.000000000               0.000000000              -0.009387843              -0.000185910               0.000001079              -0.003497200               0.001103756              -0.002393444               0.000000000               0.000000000               0.000000000               0.000000000              -0.006399399               0.000578144              -0.001251272              -0.002472040               0.001016721              -0.001455319               0.000000000               0.000000000               0.000000000               0.000000000              -0.004718384               0.001545363              -0.001657562              -0.001962562               0.001169300              -0.000793262               0.000000000               0.000000000               0.000000000               0.000000000              -0.003611810               0.002416017              -0.001726219              -0.001656428               0.001357472              -0.000298956               0.000000000               0.000000000               0.000000000               0.000000000              -0.002772626               0.003134272              -0.001662872              -0.001431516               0.001521918               0.000090402               0.000000000               0.000000000               0.000000000               0.000000000              -0.002069511               0.003701378              -0.001553678              -0.001238736               0.001646692               0.000407956               0.000000000               0.000000000               0.000000000               0.000000000              -0.001439179               0.004141029              -0.001438312              -0.001057319               0.001732768               0.000675450               0.000000000               0.000000000               0.000000000               0.000000000              -0.000847535               0.004486658              -0.001330650              -0.000878656               0.001788423               0.000909767               0.000000000               0.000000000               0.000000000               0.000000000              -0.000266820               0.004760048              -0.001223174              -0.000695062               0.001818354               0.001123292               0.000000000               0.000000000               0.000000000               0.000000000               0.000310051               0.004956624              -0.001112619              -0.000503308               0.001819961               0.001316652               0.000000000               0.000000000               0.000000000               0.000000000               0.000886476               0.005082365              -0.001000682              -0.000302867               0.001795060               0.001492193               0.000000000               0.000000000               0.000000000               0.000000000               0.001472069               0.005149001              -0.000881169              -0.000091600               0.001746850               0.001655250               0.000000000               0.000000000               0.000000000               0.000000000               0.002077142               0.005162895              -0.000739001               0.000133565               0.001676426               0.001809991               0.000000000               0.000000000               0.000000000               0.000000000               0.002698982               0.005136692              -0.000554953               0.000370028               0.001588871               0.001958899               0.000000000               0.000000000               0.000000000               0.000000000               0.003332682               0.005080132              -0.000308706               0.000614733               0.001488449               0.002103182               0.000000000               0.000000000               0.000000000               0.000000000               0.003775784               0.005090887              -0.000185162               0.000779550               0.001437095               0.002216646               0.000000000               0.000000000               0.000000000               0.000000000              -0.014485084              -0.001281678               0.000772778              -0.005271694               0.001329996              -0.003941697               0.000000000               0.000000000               0.000000000               0.000000000              -0.010068074              -0.000614175               0.000036541              -0.003698753               0.001028186              -0.002670567               0.000000000               0.000000000               0.000000000               0.000000000              -0.006567244              -0.000190939              -0.000659555              -0.002438847               0.000749298              -0.001689550               0.000000000               0.000000000               0.000000000               0.000000000              -0.004643577               0.000677060              -0.000900638              -0.001825972               0.000834338              -0.000991634               0.000000000               0.000000000               0.000000000               0.000000000              -0.003424884               0.001557863              -0.000952511              -0.001479062               0.001012301              -0.000466761               0.000000000               0.000000000               0.000000000               0.000000000              -0.002538289               0.002336861              -0.000927096              -0.001243963               0.001193600              -0.000050364               0.000000000               0.000000000               0.000000000               0.000000000              -0.001817696               0.002986165              -0.000871938              -0.001054904               0.001347013               0.000292109               0.000000000               0.000000000               0.000000000               0.000000000              -0.001182068               0.003514067              -0.000812134              -0.000882532               0.001465521               0.000582989               0.000000000               0.000000000               0.000000000               0.000000000              -0.000590574               0.003943502              -0.000757602              -0.000714402               0.001552621               0.000838219               0.000000000               0.000000000               0.000000000               0.000000000              -0.000015614               0.004295217              -0.000701992              -0.000542756               0.001612643               0.001069887               0.000000000               0.000000000               0.000000000               0.000000000               0.000565012               0.004579035              -0.000643199              -0.000360499               0.001646496               0.001285997               0.000000000               0.000000000               0.000000000               0.000000000               0.001163651               0.004795514              -0.000583243              -0.000163070               0.001652845               0.001489775               0.000000000               0.000000000               0.000000000               0.000000000               0.001790063               0.004949224              -0.000522767               0.000052620               0.001632185               0.001684804               0.000000000               0.000000000               0.000000000               0.000000000               0.002457044               0.005041560              -0.000447481               0.000291194               0.001583439               0.001874632               0.000000000               0.000000000               0.000000000               0.000000000               0.003182171               0.005075190              -0.000340878               0.000558910               0.001505410               0.002064320               0.000000000               0.000000000               0.000000000               0.000000000               0.003987553               0.005054924              -0.000192845               0.000863458               0.001397138               0.002260596               0.000000000               0.000000000               0.000000000               0.000000000               0.004594765               0.005095661              -0.000119657               0.001086068               0.001336514               0.002422582               0.000000000               0.000000000               0.000000000               0.000000000               0.000000000               0.000000000               0.000000000               0.000000000               0.000000000               0.000000000               0.000000000               0.000000000               0.000000000               0.000000000               0.000000000               0.000000000               0.000000000               0.000000000               0.000000000               0.000000000               0.000000000               0.000000000               0.000000000               0.000000000               0.000000000               0.000000000               0.000000000               0.000000000               0.000000000               0.000000000               0.000000000               0.000000000               0.000000000               0.000000000               0.000000000               0.000000000               0.000000000               0.000000000               0.000000000               0.000000000               0.000000000               0.000000000               0.000000000               0.000000000               0.000000000               0.000000000               0.000000000               0.000000000               0.000000000               0.000000000               0.000000000               0.000000000               0.000000000               0.000000000               0.000000000               0.000000000               0.000000000               0.000000000               0.000000000               0.000000000               0.000000000               0.000000000               0.000000000               0.000000000               0.000000000               0.000000000               0.000000000               0.000000000               0.000000000               0.000000000               0.000000000               0.000000000               0.000000000               0.000000000               0.000000000               0.000000000               0.000000000               0.000000000               0.000000000               0.000000000               0.000000000               0.000000000               0.000000000               0.000000000               0.000000000               0.000000000               0.000000000               0.000000000               0.000000000               0.000000000               0.000000000               0.000000000               0.000000000               0.000000000               0.000000000               0.000000000               0.000000000               0.000000000               0.000000000               0.000000000               0.000000000               0.000000000               0.000000000               0.000000000               0.000000000               0.000000000               0.000000000               0.000000000               0.000000000               0.000000000               0.000000000               0.000000000               0.000000000               0.000000000               0.000000000               0.000000000               0.000000000               0.000000000               0.000000000               0.000000000               0.000000000               0.000000000               0.000000000               0.000000000               0.000000000               0.000000000               0.000000000               0.000000000               0.000000000               0.000000000               0.000000000               0.000000000               0.000000000               0.000000000               0.000000000               0.000000000               0.000000000               0.000000000               0.000000000               0.000000000               0.000000000               0.000000000               0.000000000               0.000000000               0.000000000               0.000000000               0.000000000               0.000000000               0.000000000               0.000000000               0.000000000               0.000000000               0.000000000               0.000000000               0.000000000               0.000000000               0.000000000               0.000000000               0.000000000               0.000000000               0.000000000               0.000000000               0.000000000               0.000000000               0.000000000               0.000000000               0.000000000               0.000000000               0.000000000               0.000000000               0.000000000               0.000000000               0.000000000               0.000000000               0.000000000               0.000000000               0.000000000               0.000000000               0.000000000               0.000000000               0.000000000               0.000000000               0.000000000               0.000000000               0.000000000               0.000000000               0.000000000               0.000000000               0.000000000               0.000000000               0.000000000               0.000000000               0.000000000               0.000000000               0.000000000               0.000000000               0.000000000               0.000000000               0.000000000               0.000000000               0.000000000               0.000000000               0.000000000               0.000000000               0.000000000               0.000000000               0.000000000               0.000000000               0.000000000               0.000000000               0.000000000               0.000000000               0.000000000               0.000000000               0.000000000               0.000000000               0.000000000               0.000000000               0.000000000               0.000000000               0.000000000               0.000000000               0.000000000               0.000000000               0.000000000               0.000000000               0.000000000               0.000000000               0.000000000               0.000000000               0.000000000               0.000000000               0.000000000               0.000000000               0.000000000               0.000000000               0.000000000               0.000000000               0.000000000               0.000000000               0.000000000               0.000000000               0.000000000               0.000000000               0.000000000               0.000000000               0.000000000               0.000000000               0.000000000               0.000000000               0.000000000               0.000000000               0.000000000               0.000000000               0.000000000               0.000000000               0.000000000               0.000000000               0.000000000               0.000000000               0.000000000               0.000000000               0.000000000               0.000000000               0.000000000               0.000000000               0.000000000               0.000000000               0.000000000               0.000000000               0.000000000               0.000000000               0.000000000               0.000000000               0.000000000               0.000000000               0.000000000               0.000000000               0.000000000               0.000000000               0.000000000               0.000000000               0.000000000               0.000000000               0.000000000               0.000000000               0.000000000               0.000000000               0.000000000               0.000000000               0.000000000               0.000000000               0.000000000               0.000000000               0.000000000               0.000000000               0.000000000               0.000000000               0.000000000               0.000000000               0.000000000               0.000000000               0.000000000               0.000000000               0.000000000               0.000000000               0.000000000               0.000000000               0.000000000               0.000000000               0.000000000               0.000000000               0.000000000               0.000000000               0.000000000               0.000000000               0.000000000               0.000000000               0.000000000               0.000000000               0.000000000               0.000000000               0.000000000               0.000000000               0.000000000               0.000000000               0.000000000               0.000000000               0.000000000               0.000000000               0.000000000               0.000000000               0.000000000               0.000000000               0.000000000               0.000000000               0.000000000               0.000000000               0.000000000               0.000000000               0.000000000               0.000000000               0.000000000               0.000000000               0.002238340               0.022513097               0.001500778              -0.001974755               0.008162542               0.006187787               0.000000000               0.000000000               0.000000000               0.000000000               0.002009826               0.017255002               0.000643515              -0.001403187               0.006219339               0.004816152               0.000000000               0.000000000               0.000000000               0.000000000               0.002470256               0.013037230              -0.000197598              -0.000703306               0.004580135               0.003876829               0.000000000               0.000000000               0.000000000               0.000000000               0.002220334               0.010649036              -0.000533967              -0.000498503               0.003715811               0.003217308               0.000000000               0.000000000               0.000000000               0.000000000               0.001796785               0.009116308              -0.000654779              -0.000465743               0.003193987               0.002728244               0.000000000               0.000000000               0.000000000               0.000000000               0.001370694               0.008020444              -0.000683291              -0.000488544               0.002836303               0.002347758               0.000000000               0.000000000               0.000000000               0.000000000               0.000991373               0.007160777              -0.000673113              -0.000523331               0.002561346               0.002038014               0.000000000               0.000000000               0.000000000               0.000000000               0.000679295               0.006431670              -0.000642285              -0.000549222               0.002326942               0.001777720               0.000000000               0.000000000               0.000000000               0.000000000               0.000431527               0.005771251              -0.000603344              -0.000559582               0.002110259               0.001550676               0.000000000               0.000000000               0.000000000               0.000000000               0.000234659               0.005145667              -0.000568736              -0.000555210               0.001900275               0.001345065               0.000000000               0.000000000               0.000000000               0.000000000               0.000079673               0.004538092              -0.000536406              -0.000537383               0.001691810               0.001154427               0.000000000               0.000000000               0.000000000               0.000000000              -0.000036267               0.003927449              -0.000498676              -0.000504530               0.001477313               0.000972783               0.000000000               0.000000000               0.000000000               0.000000000              -0.000111033               0.003298620              -0.000447306              -0.000453964               0.001250850               0.000796886               0.000000000               0.000000000               0.000000000               0.000000000              -0.000143576               0.002631403              -0.000374791              -0.000382766               0.001004714               0.000621948               0.000000000               0.000000000               0.000000000               0.000000000              -0.000133027               0.001907816              -0.000281829              -0.000288362               0.000732053               0.000443691               0.000000000               0.000000000               0.000000000               0.000000000              -0.000078924               0.001116242              -0.000158903              -0.000169127               0.000428452               0.000259326               0.000000000               0.000000000               0.000000000               0.000000000              -0.000103245               0.000528550              -0.000099121              -0.000104785               0.000211110               0.000106324               0.000000000               0.000000000               0.000000000               0.000000000               0.002359735               0.021072386               0.002758749              -0.001749144               0.007607106               0.005857962               0.000000000               0.000000000               0.000000000               0.000000000               0.001775154               0.016362085               0.001170641              -0.001379575               0.005913832               0.004534257               0.000000000               0.000000000               0.000000000               0.000000000               0.001854782               0.012707867              -0.000367994              -0.000892938               0.004533559               0.003640621               0.000000000               0.000000000               0.000000000               0.000000000               0.001473622               0.010603201              -0.000956408              -0.000772790               0.003791962               0.003019172               0.000000000               0.000000000               0.000000000               0.000000000               0.001037871               0.009211430              -0.001155748              -0.000762226               0.003324521               0.002562295               0.000000000               0.000000000               0.000000000               0.000000000               0.000660293               0.008183935              -0.001193700              -0.000775381               0.002986411               0.002211030               0.000000000               0.000000000               0.000000000               0.000000000               0.000357895               0.007351910              -0.001165585              -0.000784776               0.002712204               0.001927428               0.000000000               0.000000000               0.000000000               0.000000000               0.000128170               0.006630967              -0.001106336              -0.000780806               0.002470569               0.001689763               0.000000000               0.000000000               0.000000000               0.000000000              -0.000039064               0.005975013              -0.001037039              -0.000761524               0.002245492               0.001483968               0.000000000               0.000000000               0.000000000               0.000000000              -0.000153439               0.005359497              -0.000975472              -0.000727475               0.002028973               0.001301497               0.000000000               0.000000000               0.000000000               0.000000000              -0.000225798               0.004763414              -0.000914787              -0.000680100               0.001814489               0.001134389               0.000000000               0.000000000               0.000000000               0.000000000              -0.000260756               0.004172026              -0.000844632              -0.000619286               0.001597090               0.000977804               0.000000000               0.000000000               0.000000000               0.000000000              -0.000260300               0.003578922              -0.000754908              -0.000544977               0.001374621               0.000829644               0.000000000               0.000000000               0.000000000               0.000000000              -0.000230614               0.002980912              -0.000629266              -0.000459093               0.001146658               0.000687565               0.000000000               0.000000000               0.000000000               0.000000000              -0.000175411               0.002375541              -0.000465501              -0.000362721               0.000912746               0.000550025               0.000000000               0.000000000               0.000000000               0.000000000              -0.000095897               0.001768950              -0.000257774              -0.000257080               0.000675337               0.000418258               0.000000000               0.000000000               0.000000000               0.000000000              -0.000093383               0.001352039              -0.000156774              -0.000204023               0.000518683               0.000314660               0.000000000               0.000000000               0.000000000               0.000000000               0.002427286               0.018871878               0.003601147              -0.001448751               0.006773480               0.005324729               0.000000000               0.000000000               0.000000000               0.000000000               0.001349866               0.015018386               0.001519537              -0.001371096               0.005463110               0.004092015               0.000000000               0.000000000               0.000000000               0.000000000               0.000906944               0.012210525              -0.000462861              -0.001186209               0.004465537               0.003279328               0.000000000               0.000000000               0.000000000               0.000000000               0.000388670               0.010504697              -0.001173510              -0.001167334               0.003890642               0.002723308               0.000000000               0.000000000               0.000000000               0.000000000              -0.000020142               0.009305608              -0.001393578              -0.001170752               0.003492089               0.002321337               0.000000000               0.000000000               0.000000000               0.000000000              -0.000304107               0.008366375              -0.001421136              -0.001159835               0.003175375               0.002015541               0.000000000               0.000000000               0.000000000               0.000000000              -0.000485215               0.007573497              -0.001375126              -0.001128640               0.002900687               0.001772047               0.000000000               0.000000000               0.000000000               0.000000000              -0.000587125               0.006870475              -0.001295962              -0.001078979               0.002649795               0.001570816               0.000000000               0.000000000               0.000000000               0.000000000              -0.000628233               0.006224463              -0.001209474              -0.001013643               0.002412681               0.001399038               0.000000000               0.000000000               0.000000000               0.000000000              -0.000622890               0.005617958              -0.001131284              -0.000935827               0.002184576               0.001248749               0.000000000               0.000000000               0.000000000               0.000000000              -0.000581031               0.005037016              -0.001051680              -0.000847512               0.001961492               0.001113980               0.000000000               0.000000000               0.000000000               0.000000000              -0.000508825               0.004478605              -0.000958120              -0.000750634               0.001743065               0.000992431               0.000000000               0.000000000               0.000000000               0.000000000              -0.000414874               0.003942133              -0.000842712              -0.000648343               0.001530146               0.000881802               0.000000000               0.000000000               0.000000000               0.000000000              -0.000310072               0.003441033              -0.000690117              -0.000546405               0.001329135               0.000782729               0.000000000               0.000000000               0.000000000               0.000000000              -0.000202601               0.002992143              -0.000497811              -0.000449992               0.001147369               0.000697376               0.000000000               0.000000000               0.000000000               0.000000000              -0.000098922               0.002615559              -0.000267888              -0.000364040               0.000993191               0.000629151               0.000000000               0.000000000               0.000000000               0.000000000              -0.000066364               0.002403524              -0.000151311              -0.000325326               0.000909609               0.000584282               0.000000000               0.000000000               0.000000000               0.000000000               0.002295836               0.016193232               0.003955644              -0.001163216               0.005785428               0.004622212               0.000000000               0.000000000               0.000000000               0.000000000               0.000723358               0.013416326               0.001682296              -0.001405779               0.004940657               0.003534878               0.000000000               0.000000000               0.000000000               0.000000000              -0.000244717               0.011606474              -0.000444125              -0.001542574               0.004382977               0.002840403               0.000000000               0.000000000               0.000000000               0.000000000              -0.000836704               0.010330271              -0.001148292              -0.001605044               0.003978404               0.002373360               0.000000000               0.000000000               0.000000000               0.000000000              -0.001152495               0.009326548              -0.001342305              -0.001598001               0.003641485               0.002043484               0.000000000               0.000000000               0.000000000               0.000000000              -0.001289131               0.008478591              -0.001349716              -0.001543245               0.003340583               0.001797339               0.000000000               0.000000000               0.000000000               0.000000000              -0.001312654               0.007729776              -0.001291558              -0.001458464               0.003062721               0.001604257               0.000000000               0.000000000               0.000000000               0.000000000              -0.001259431               0.007045813              -0.001207570              -0.001353010               0.002799584               0.001446574               0.000000000               0.000000000               0.000000000               0.000000000              -0.001153292               0.006414507              -0.001116839              -0.001234295               0.002549579               0.001315284               0.000000000               0.000000000               0.000000000               0.000000000              -0.001014184               0.005824852              -0.001031084              -0.001108423               0.002311072               0.001202649               0.000000000               0.000000000               0.000000000               0.000000000              -0.000851068               0.005271861              -0.000942893              -0.000978131               0.002083313               0.001105182               0.000000000               0.000000000               0.000000000               0.000000000              -0.000671683               0.004761480              -0.000837894              -0.000847064               0.001869499               0.001022434               0.000000000               0.000000000               0.000000000               0.000000000              -0.000490726               0.004301214              -0.000712889              -0.000721672               0.001674281               0.000952609               0.000000000               0.000000000               0.000000000               0.000000000              -0.000326291               0.003909935              -0.000563004              -0.000611100               0.001506998               0.000895899               0.000000000               0.000000000               0.000000000               0.000000000              -0.000186487               0.003614797              -0.000384847              -0.000521781               0.001378847               0.000857066               0.000000000               0.000000000               0.000000000               0.000000000              -0.000082586               0.003433297              -0.000193152              -0.000460131               0.001297798               0.000837667               0.000000000               0.000000000               0.000000000               0.000000000              -0.000038973               0.003375142              -0.000096336              -0.000436506               0.001270538               0.000834032               0.000000000               0.000000000               0.000000000               0.000000000               0.001852198               0.013331975               0.003836129              -0.000971923               0.004767921               0.003795998               0.000000000               0.000000000               0.000000000               0.000000000              -0.000092449               0.011736697               0.001686606              -0.001501753               0.004412777               0.002911024               0.000000000               0.000000000               0.000000000               0.000000000              -0.001466741               0.010941204              -0.000291985              -0.001917674               0.004286256               0.002368582               0.000000000               0.000000000               0.000000000               0.000000000              -0.002012727               0.010060649              -0.000892609              -0.002012349               0.004024299               0.002011950               0.000000000               0.000000000               0.000000000               0.000000000              -0.002157019               0.009226781              -0.001042678              -0.001962225               0.003729638               0.001767413               0.000000000               0.000000000               0.000000000               0.000000000              -0.002102271               0.008462377              -0.001038474              -0.001846144               0.003436145               0.001590001               0.000000000               0.000000000               0.000000000               0.000000000              -0.001947019               0.007756036              -0.000981895              -0.001699633               0.003151863               0.001452231               0.000000000               0.000000000               0.000000000               0.000000000              -0.001734330               0.007097700              -0.000906728              -0.001537583               0.002878404               0.001340821               0.000000000               0.000000000               0.000000000               0.000000000              -0.001485947               0.006493192              -0.000825907              -0.001368876               0.002620667               0.001251792               0.000000000               0.000000000               0.000000000               0.000000000              -0.001222783               0.005937631              -0.000745602              -0.001200745               0.002379439               0.001178694               0.000000000               0.000000000               0.000000000               0.000000000              -0.000954239               0.005430886              -0.000662071              -0.001036698               0.002155843               0.001119145               0.000000000               0.000000000               0.000000000               0.000000000              -0.000698283               0.004981009              -0.000564669              -0.000884480               0.001955146               0.001070666               0.000000000               0.000000000               0.000000000               0.000000000              -0.000466834               0.004603126              -0.000452886              -0.000750452               0.001784511               0.001034059               0.000000000               0.000000000               0.000000000               0.000000000              -0.000274267               0.004317890              -0.000334581              -0.000642585               0.001653477               0.001010892               0.000000000               0.000000000               0.000000000               0.000000000              -0.000134555               0.004138365              -0.000211103              -0.000567752               0.001568692               0.001000940               0.000000000               0.000000000               0.000000000               0.000000000              -0.000049256               0.004064479              -0.000095658              -0.000526530               0.001530323               0.001003793               0.000000000               0.000000000               0.000000000               0.000000000              -0.000015693               0.004061373              -0.000041105              -0.000513555               0.001524963               0.001011407               0.000000000               0.000000000               0.000000000               0.000000000               0.001038456               0.010528745               0.003333110              -0.000926672               0.003818437               0.002891764               0.000000000               0.000000000               0.000000000               0.000000000              -0.001045881               0.010107704               0.001591880              -0.001655665               0.003921089               0.002265424               0.000000000               0.000000000               0.000000000               0.000000000              -0.002621886               0.010235899              -0.000002536              -0.002262689               0.004166162               0.001903473               0.000000000               0.000000000               0.000000000               0.000000000              -0.002994086               0.009685433              -0.000456976              -0.002333456               0.004006264               0.001672808               0.000000000               0.000000000               0.000000000               0.000000000              -0.002905444               0.008992234              -0.000577657              -0.002213565               0.003735236               0.001521671               0.000000000               0.000000000               0.000000000               0.000000000              -0.002640819               0.008298581              -0.000584820              -0.002027625               0.003442041               0.001414416               0.000000000               0.000000000               0.000000000               0.000000000              -0.002308570               0.007635269              -0.000550388              -0.001820118               0.003151770               0.001331652               0.000000000               0.000000000               0.000000000               0.000000000              -0.001947460               0.007018777              -0.000501232              -0.001607640               0.002875449               0.001267809               0.000000000               0.000000000               0.000000000               0.000000000              -0.001576958               0.006459354              -0.000444104              -0.001398775               0.002619355               0.001220580               0.000000000               0.000000000               0.000000000               0.000000000              -0.001215817               0.005949117              -0.000384091              -0.001199568               0.002382875               0.001183307               0.000000000               0.000000000               0.000000000               0.000000000              -0.000876274               0.005497832              -0.000322405              -0.001015829               0.002171202               0.001155373               0.000000000               0.000000000               0.000000000               0.000000000              -0.000584833               0.005113909              -0.000253322              -0.000858549               0.001990802               0.001132254               0.000000000               0.000000000               0.000000000               0.000000000              -0.000353544               0.004816976              -0.000183515              -0.000734699               0.001850542               0.001115843               0.000000000               0.000000000               0.000000000               0.000000000              -0.000182711               0.004618622              -0.000122326              -0.000645843               0.001754806               0.001108963               0.000000000               0.000000000               0.000000000               0.000000000              -0.000075697               0.004510152              -0.000067950              -0.000592154               0.001700754               0.001108600               0.000000000               0.000000000               0.000000000               0.000000000              -0.000022098               0.004469772              -0.000025279              -0.000567007               0.001678911               0.001111904               0.000000000               0.000000000               0.000000000               0.000000000              -0.000009783               0.004464240              -0.000008937              -0.000561697               0.001675298               0.001113600               0.000000000               0.000000000               0.000000000               0.000000000              -0.000106975               0.007957434               0.002567136              -0.001034794               0.002997382               0.001962588               0.000000000               0.000000000               0.000000000               0.000000000              -0.002078746               0.008627573               0.001455531              -0.001857972               0.003495153               0.001637180               0.000000000               0.000000000               0.000000000               0.000000000              -0.003591074               0.009499213               0.000405765              -0.002534048               0.004011055               0.001477007               0.000000000               0.000000000               0.000000000               0.000000000              -0.003685468               0.009200810               0.000078615              -0.002532145               0.003910955               0.001378809               0.000000000               0.000000000               0.000000000               0.000000000              -0.003346410               0.008630666              -0.000045414              -0.002333731               0.003654770               0.001321039               0.000000000               0.000000000               0.000000000               0.000000000              -0.002883311               0.008006302              -0.000090513              -0.002082024               0.003362749               0.001280725               0.000000000               0.000000000               0.000000000               0.000000000              -0.002394248               0.007401252              -0.000098017              -0.001822995               0.003074725               0.001251729               0.000000000               0.000000000               0.000000000               0.000000000              -0.001907838               0.006844043              -0.000087108              -0.001570941               0.002804972               0.001234031               0.000000000               0.000000000               0.000000000               0.000000000              -0.001446217               0.006332777              -0.000065267              -0.001333925               0.002555546               0.001221621               0.000000000               0.000000000               0.000000000               0.000000000              -0.001025080               0.005871310              -0.000039670              -0.001118316               0.002329856               0.001211540               0.000000000               0.000000000               0.000000000               0.000000000              -0.000660010               0.005476619              -0.000019368              -0.000932079               0.002136214               0.001204136               0.000000000               0.000000000               0.000000000               0.000000000              -0.000374657               0.005163210              -0.000001889              -0.000785896               0.001983018               0.001197122               0.000000000               0.000000000               0.000000000               0.000000000              -0.000180788               0.004941188               0.000007152              -0.000685442               0.001875527               0.001190085               0.000000000               0.000000000               0.000000000               0.000000000              -0.000067606               0.004806721               0.000004186              -0.000626191               0.001810954               0.001184764               0.000000000               0.000000000               0.000000000               0.000000000              -0.000012490               0.004745080              -0.000002164              -0.000597817               0.001780950               0.001183133               0.000000000               0.000000000               0.000000000               0.000000000               0.000003675               0.004731789              -0.000004024              -0.000590094               0.001773945               0.001183851               0.000000000               0.000000000               0.000000000               0.000000000              -0.000000372               0.004736571              -0.000003993              -0.000592209               0.001776244               0.001184035               0.000000000               0.000000000               0.000000000               0.000000000              -0.001438568               0.005810754               0.001659352              -0.001265805               0.002358833               0.001093028               0.000000000               0.000000000               0.000000000               0.000000000              -0.003083340               0.007309981               0.001313956              -0.002069995               0.003126634               0.001056639               0.000000000               0.000000000               0.000000000               0.000000000              -0.004347397               0.008749042               0.000891635              -0.002723898               0.003824284               0.001100386               0.000000000               0.000000000               0.000000000               0.000000000              -0.004154008               0.008709923               0.000640058              -0.002646487               0.003785441               0.001138954               0.000000000               0.000000000               0.000000000               0.000000000              -0.003606261               0.008285196               0.000485098              -0.002387991               0.003557702               0.001169710               0.000000000               0.000000000               0.000000000               0.000000000              -0.002988337               0.007757264               0.000386422              -0.002090279               0.003282488               0.001192209               0.000000000               0.000000000               0.000000000               0.000000000              -0.002378794               0.007230049               0.000323761              -0.001795799               0.003008592               0.001212793               0.000000000               0.000000000               0.000000000               0.000000000              -0.001799619               0.006734080               0.000288694              -0.001516613               0.002750209               0.001233595               0.000000000               0.000000000               0.000000000               0.000000000              -0.001269692               0.006267120               0.000266800              -0.001259521               0.002508860               0.001249338               0.000000000               0.000000000               0.000000000               0.000000000              -0.000807708               0.005846930               0.000245661              -0.001033754               0.002293542               0.001259788               0.000000000               0.000000000               0.000000000               0.000000000              -0.000428185               0.005497196               0.000214275              -0.000847717               0.002114953               0.001267236               0.000000000               0.000000000               0.000000000               0.000000000              -0.000156747               0.005226098               0.000173921              -0.000712041               0.001979362               0.001267322               0.000000000               0.000000000               0.000000000               0.000000000               0.000001314               0.005040997               0.000125609              -0.000629630               0.001890192               0.001260562               0.000000000               0.000000000               0.000000000               0.000000000               0.000067296               0.004939932               0.000068558              -0.000592254               0.001844046               0.001251791               0.000000000               0.000000000               0.000000000               0.000000000               0.000073120               0.004899865               0.000017323              -0.000585062               0.001828293               0.001243231               0.000000000               0.000000000               0.000000000               0.000000000               0.000048523               0.004897703              -0.000010082              -0.000594015               0.001830556               0.001236541               0.000000000               0.000000000               0.000000000               0.000000000               0.000029873               0.004907809              -0.000015943              -0.000602272               0.001836677               0.001234405               0.000000000               0.000000000               0.000000000               0.000000000              -0.002963317               0.003846783               0.000723355              -0.001592088               0.001812944               0.000220856               0.000000000               0.000000000               0.000000000               0.000000000              -0.003936079               0.005782898               0.001161035              -0.002198887               0.002660575               0.000461689               0.000000000               0.000000000               0.000000000               0.000000000              -0.004817335               0.007627431               0.001394143              -0.002759923               0.003462426               0.000702503               0.000000000               0.000000000               0.000000000               0.000000000              -0.004473250               0.007975702               0.001228797              -0.002674425               0.003550016               0.000875591               0.000000000               0.000000000               0.000000000               0.000000000              -0.003835778               0.007823095               0.001041100              -0.002416298               0.003413105               0.000996807               0.000000000               0.000000000               0.000000000               0.000000000              -0.003156617               0.007502679               0.000883477              -0.002121561               0.003208055               0.001086494               0.000000000               0.000000000               0.000000000               0.000000000              -0.002502396               0.007134803               0.000762467              -0.001830245               0.002988326               0.001158081               0.000000000               0.000000000               0.000000000               0.000000000              -0.001891448               0.006761288               0.000673056              -0.001554450               0.002771890               0.001217440               0.000000000               0.000000000               0.000000000               0.000000000              -0.001333515               0.006386168               0.000598839              -0.001298336               0.002561480               0.001263144               0.000000000               0.000000000               0.000000000               0.000000000              -0.000845257               0.006021403               0.000528036              -0.001069644               0.002363662               0.001294018               0.000000000               0.000000000               0.000000000               0.000000000              -0.000440074               0.005689078               0.000450566              -0.000876160               0.002188394               0.001312233               0.000000000               0.000000000               0.000000000               0.000000000              -0.000130182               0.005404321               0.000364331              -0.000724357               0.002042874               0.001318518               0.000000000               0.000000000               0.000000000               0.000000000               0.000072096               0.005185494               0.000267293              -0.000621149               0.001935530               0.001314381               0.000000000               0.000000000               0.000000000               0.000000000               0.000173439               0.005048247               0.000164884              -0.000565990               0.001871396               0.001305406               0.000000000               0.000000000               0.000000000               0.000000000               0.000192699               0.004980453               0.000074910              -0.000550293               0.001843566               0.001293272               0.000000000               0.000000000               0.000000000               0.000000000               0.000162385               0.004968822               0.000017358              -0.000560207               0.001842993               0.001282786               0.000000000               0.000000000               0.000000000               0.000000000               0.000127567               0.004968149              -0.000005821              -0.000573180               0.001847093               0.001273913               0.000000000               0.000000000               0.000000000               0.000000000              -0.004878739               0.002090340              -0.000166502              -0.002090816               0.001393709              -0.000697107               0.000000000               0.000000000               0.000000000               0.000000000              -0.004905417               0.004249614               0.000949047              -0.002370728               0.002206766              -0.000163963               0.000000000               0.000000000               0.000000000               0.000000000              -0.005219922               0.006297545               0.001796731              -0.002744657               0.003014046               0.000269388               0.000000000               0.000000000               0.000000000               0.000000000              -0.004741031               0.007007538               0.001789596              -0.002653823               0.003220430               0.000566607               0.000000000               0.000000000               0.000000000               0.000000000              -0.004055043               0.007169725               0.001603624              -0.002416851               0.003195501               0.000778650               0.000000000               0.000000000               0.000000000               0.000000000              -0.003345622               0.007093005               0.001403904              -0.002141229               0.003078054               0.000936825               0.000000000               0.000000000               0.000000000               0.000000000              -0.002670049               0.006914649               0.001230285              -0.001865595               0.002926725               0.001061130               0.000000000               0.000000000               0.000000000               0.000000000              -0.002041533               0.006694426               0.001087686              -0.001602374               0.002765578               0.001163203               0.000000000               0.000000000               0.000000000               0.000000000              -0.001462808               0.006443368               0.000964410              -0.001353971               0.002599091               0.001245120               0.000000000               0.000000000               0.000000000               0.000000000              -0.000940010               0.006166581               0.000849408              -0.001123324               0.002429948               0.001306624               0.000000000               0.000000000               0.000000000               0.000000000              -0.000482947               0.005882404               0.000736554              -0.000916403               0.002266249               0.001349846               0.000000000               0.000000000               0.000000000               0.000000000              -0.000104905               0.005601563               0.000617866              -0.000739533               0.002113680               0.001374147               0.000000000               0.000000000               0.000000000               0.000000000               0.000178939               0.005350575               0.000485166              -0.000601718               0.001984080               0.001382362               0.000000000               0.000000000               0.000000000               0.000000000               0.000364435               0.005161274               0.000342651              -0.000508495               0.001889906               0.001381411               0.000000000               0.000000000               0.000000000               0.000000000               0.000449207               0.005043990               0.000201248              -0.000462045               0.001835328               0.001373283               0.000000000               0.000000000               0.000000000               0.000000000               0.000437784               0.004999366               0.000083835              -0.000460751               0.001820022               0.001359271               0.000000000               0.000000000               0.000000000               0.000000000               0.000381019               0.004973377               0.000024417              -0.000478789               0.001817372               0.001338583               0.000000000               0.000000000               0.000000000               0.000000000              -0.007049177               0.000688336              -0.000924923              -0.002729480               0.001139264              -0.001590216               0.000000000               0.000000000               0.000000000               0.000000000              -0.006022276               0.002817039               0.000673469              -0.002610479               0.001809160              -0.000801319               0.000000000               0.000000000               0.000000000               0.000000000              -0.005564769               0.004786829               0.001999888              -0.002685136               0.002490638              -0.000194499               0.000000000               0.000000000               0.000000000               0.000000000              -0.004866898               0.005746436               0.002189578              -0.002543386               0.002763254               0.000219868               0.000000000               0.000000000               0.000000000               0.000000000              -0.004119813               0.006194205               0.002058849              -0.002319200               0.002837781               0.000518580               0.000000000               0.000000000               0.000000000               0.000000000              -0.003391290               0.006371314               0.001852639              -0.002068143               0.002813131               0.000744987               0.000000000               0.000000000               0.000000000               0.000000000              -0.002709901               0.006405346               0.001650942              -0.001816877               0.002740719               0.000923842               0.000000000               0.000000000               0.000000000               0.000000000              -0.002077497               0.006361940               0.001473261              -0.001574300               0.002645392               0.001071092               0.000000000               0.000000000               0.000000000               0.000000000              -0.001487311               0.006264704               0.001315053              -0.001340827               0.002535156               0.001194329               0.000000000               0.000000000               0.000000000               0.000000000              -0.000940173               0.006113192               0.001169792              -0.001116712               0.002409947               0.001293236               0.000000000               0.000000000               0.000000000               0.000000000              -0.000440699               0.005918333               0.001031868              -0.000905052               0.002274442               0.001369390               0.000000000               0.000000000               0.000000000               0.000000000              -0.000000403               0.005694446               0.000887477              -0.000711955               0.002135448               0.001423493               0.000000000               0.000000000               0.000000000               0.000000000               0.000368034               0.005470904               0.000728240              -0.000545849               0.002005566               0.001459717               0.000000000               0.000000000               0.000000000               0.000000000               0.000649050               0.005270887               0.000554799              -0.000415466               0.001895433               0.001479967               0.000000000               0.000000000               0.000000000               0.000000000               0.000831876               0.005121405               0.000368130              -0.000328222               0.001816525               0.001488304               0.000000000               0.000000000               0.000000000               0.000000000               0.000902789               0.005038450               0.000179462              -0.000291260               0.001776553               0.001485294               0.000000000               0.000000000               0.000000000               0.000000000               0.000880488               0.004996631               0.000079491              -0.000294395               0.001763659               0.001469264               0.000000000               0.000000000               0.000000000               0.000000000              -0.009326412              -0.000291210              -0.001431118              -0.003461001               0.001056589              -0.002404411               0.000000000               0.000000000               0.000000000               0.000000000              -0.007217051               0.001559176               0.000384666              -0.002901287               0.001486811              -0.001414477               0.000000000               0.000000000               0.000000000               0.000000000              -0.005875231               0.003223559               0.001971398              -0.002606152               0.001943223              -0.000662929               0.000000000               0.000000000               0.000000000               0.000000000              -0.004875617               0.004293619               0.002332326              -0.002365054               0.002219542              -0.000145512               0.000000000               0.000000000               0.000000000               0.000000000              -0.004033156               0.004961195               0.002288505              -0.002132578               0.002364574               0.000231995               0.000000000               0.000000000               0.000000000               0.000000000              -0.003285453               0.005376242               0.002114130              -0.001904071               0.002426752               0.000522681               0.000000000               0.000000000               0.000000000               0.000000000              -0.002601037               0.005625443               0.001915971              -0.001678566               0.002434650               0.000756085               0.000000000               0.000000000               0.000000000               0.000000000              -0.001973240               0.005764329               0.001731340              -0.001460503               0.002408258               0.000947755               0.000000000               0.000000000               0.000000000               0.000000000              -0.001376833               0.005832198               0.001563652              -0.001245335               0.002359158               0.001113823               0.000000000               0.000000000               0.000000000               0.000000000              -0.000811607               0.005830252               0.001407024              -0.001033132               0.002287775               0.001254643               0.000000000               0.000000000               0.000000000               0.000000000              -0.000282369               0.005762153               0.001258504              -0.000826156               0.002196083               0.001369927               0.000000000               0.000000000               0.000000000               0.000000000               0.000210095               0.005644556               0.001105215              -0.000626783               0.002090427               0.001463644               0.000000000               0.000000000               0.000000000               0.000000000               0.000661648               0.005494852               0.000934996              -0.000438738               0.001977845               0.001539107               0.000000000               0.000000000               0.000000000               0.000000000               0.001055423               0.005331444               0.000743333              -0.000270647               0.001867346               0.001596699               0.000000000               0.000000000               0.000000000               0.000000000               0.001373463               0.005184459               0.000525976              -0.000133009               0.001772472               0.001639463               0.000000000               0.000000000               0.000000000               0.000000000               0.001593699               0.005077048               0.000278557              -0.000036994               0.001704664               0.001667670               0.000000000               0.000000000               0.000000000               0.000000000               0.001678956               0.005036342               0.000148589               0.000000065               0.001678742               0.001678807               0.000000000               0.000000000               0.000000000               0.000000000              -0.011493042              -0.000884832              -0.001582280              -0.004199284               0.001104809              -0.003094475               0.000000000               0.000000000               0.000000000               0.000000000              -0.008387207               0.000543365               0.000144294              -0.003213120               0.001252153              -0.001960967               0.000000000               0.000000000               0.000000000               0.000000000              -0.006159089               0.001763795               0.001709532              -0.002530129               0.001431298              -0.001098831               0.000000000               0.000000000               0.000000000               0.000000000              -0.004811190               0.002820843               0.002156094              -0.002156798               0.001659201              -0.000497596               0.000000000               0.000000000               0.000000000               0.000000000              -0.003841865               0.003630221               0.002188890              -0.001894473               0.001841551              -0.000052922               0.000000000               0.000000000               0.000000000               0.000000000              -0.003057012               0.004229493               0.002071635              -0.001675063               0.001968170               0.000293108               0.000000000               0.000000000               0.000000000               0.000000000              -0.002367840               0.004661414               0.001909186              -0.001470614               0.002043993               0.000573379               0.000000000               0.000000000               0.000000000               0.000000000              -0.001738924               0.004967377               0.001748792              -0.001273016               0.002080114               0.000807098               0.000000000               0.000000000               0.000000000               0.000000000              -0.001143088               0.005188238               0.001599702              -0.001077186               0.002088457               0.001011271               0.000000000               0.000000000               0.000000000               0.000000000              -0.000564199               0.005341051               0.001453862              -0.000879204               0.002073400               0.001194196               0.000000000               0.000000000               0.000000000               0.000000000              -0.000006333               0.005416052               0.001311777              -0.000679381               0.002031793               0.001352412               0.000000000               0.000000000               0.000000000               0.000000000               0.000530847               0.005421318               0.001168007              -0.000478597               0.001966620               0.001488023               0.000000000               0.000000000               0.000000000               0.000000000               0.001055699               0.005372980               0.001010397              -0.000275735               0.001882887               0.001607152               0.000000000               0.000000000               0.000000000               0.000000000               0.001563914               0.005287212               0.000827589              -0.000074434               0.001787198               0.001712763               0.000000000               0.000000000               0.000000000               0.000000000               0.002041030               0.005185672               0.000607939               0.000117176               0.001689481               0.001806657               0.000000000               0.000000000               0.000000000               0.000000000               0.002462255               0.005089154               0.000332490               0.000287199               0.001600635               0.001887833               0.000000000               0.000000000               0.000000000               0.000000000               0.002713498               0.005068812               0.000190825               0.000383956               0.001561602               0.001945558               0.000000000               0.000000000               0.000000000               0.000000000              -0.013290897              -0.001177476              -0.001346793              -0.004836899               0.001219799              -0.003617100               0.000000000               0.000000000               0.000000000               0.000000000              -0.009387843              -0.000185910              -0.000001079              -0.003497200               0.001103756              -0.002393444               0.000000000               0.000000000               0.000000000               0.000000000              -0.006399399               0.000578144               0.001251272              -0.002472040               0.001016721              -0.001455319               0.000000000               0.000000000               0.000000000               0.000000000              -0.004718384               0.001545363               0.001657562              -0.001962562               0.001169300              -0.000793262               0.000000000               0.000000000               0.000000000               0.000000000              -0.003611810               0.002416017               0.001726219              -0.001656428               0.001357472              -0.000298956               0.000000000               0.000000000               0.000000000               0.000000000              -0.002772626               0.003134272               0.001662872              -0.001431516               0.001521918               0.000090402               0.000000000               0.000000000               0.000000000               0.000000000              -0.002069511               0.003701378               0.001553678              -0.001238736               0.001646692               0.000407956               0.000000000               0.000000000               0.000000000               0.000000000              -0.001439179               0.004141029               0.001438312              -0.001057319               0.001732768               0.000675450               0.000000000               0.000000000               0.000000000               0.000000000              -0.000847535               0.004486658               0.001330650              -0.000878656               0.001788423               0.000909767               0.000000000               0.000000000               0.000000000               0.000000000              -0.000266820               0.004760048               0.001223174              -0.000695062               0.001818354               0.001123292               0.000000000               0.000000000               0.000000000               0.000000000               0.000310051               0.004956624               0.001112619              -0.000503308               0.001819961               0.001316652               0.000000000               0.000000000               0.000000000               0.000000000               0.000886476               0.005082365               0.001000682              -0.000302867               0.001795060               0.001492193               0.000000000               0.000000000               0.000000000               0.000000000               0.001472069               0.005149001               0.000881169              -0.000091600               0.001746850               0.001655250               0.000000000               0.000000000               0.000000000               0.000000000               0.002077142               0.005162895               0.000739001               0.000133565               0.001676426               0.001809991               0.000000000               0.000000000               0.000000000               0.000000000               0.002698982               0.005136692               0.000554953               0.000370028               0.001588871               0.001958899               0.000000000               0.000000000               0.000000000               0.000000000               0.003332682               0.005080132               0.000308706               0.000614733               0.001488449               0.002103182               0.000000000               0.000000000               0.000000000               0.000000000               0.003775784               0.005090887               0.000185162               0.000779550               0.001437095               0.002216646               0.000000000               0.000000000               0.000000000               0.000000000              -0.014485084              -0.001281678              -0.000772778              -0.005271694               0.001329996              -0.003941697               0.000000000               0.000000000               0.000000000               0.000000000              -0.010068074              -0.000614175              -0.000036541              -0.003698753               0.001028186              -0.002670567               0.000000000               0.000000000               0.000000000               0.000000000              -0.006567244              -0.000190939               0.000659555              -0.002438847               0.000749298              -0.001689550               0.000000000               0.000000000               0.000000000               0.000000000              -0.004643577               0.000677060               0.000900638              -0.001825972               0.000834338              -0.000991634               0.000000000               0.000000000               0.000000000               0.000000000              -0.003424884               0.001557863               0.000952511              -0.001479062               0.001012301              -0.000466761               0.000000000               0.000000000               0.000000000               0.000000000              -0.002538289               0.002336861               0.000927096              -0.001243963               0.001193600              -0.000050364               0.000000000               0.000000000               0.000000000               0.000000000              -0.001817696               0.002986165               0.000871938              -0.001054904               0.001347013               0.000292109               0.000000000               0.000000000               0.000000000               0.000000000              -0.001182068               0.003514067               0.000812134              -0.000882532               0.001465521               0.000582989               0.000000000               0.000000000               0.000000000               0.000000000              -0.000590574               0.003943502               0.000757602              -0.000714402               0.001552621               0.000838219               0.000000000               0.000000000               0.000000000               0.000000000              -0.000015614               0.004295217               0.000701992              -0.000542756               0.001612643               0.001069887               0.000000000               0.000000000               0.000000000               0.000000000               0.000565012               0.004579035               0.000643199              -0.000360499               0.001646496               0.001285997               0.000000000               0.000000000               0.000000000               0.000000000               0.001163651               0.004795514               0.000583243              -0.000163070               0.001652845               0.001489775               0.000000000               0.000000000               0.000000000               0.000000000               0.001790063               0.004949224               0.000522767               0.000052620               0.001632185               0.001684804               0.000000000               0.000000000               0.000000000               0.000000000               0.002457044               0.005041560               0.000447481               0.000291194               0.001583439               0.001874632               0.000000000               0.000000000               0.000000000               0.000000000               0.003182171               0.005075190               0.000340878               0.000558910               0.001505410               0.002064320               0.000000000               0.000000000               0.000000000               0.000000000               0.003987553               0.005054924               0.000192845               0.000863458               0.001397138               0.002260596               0.000000000               0.000000000               0.000000000               0.000000000               0.004594765               0.005095661               0.000119657               0.001086068               0.001336514               0.002422582               0.000000000               0.000000000               0.000000000               0.000000000               0.000000000               0.000000000               0.000000000               0.000000000               0.000000000               0.000000000               0.000000000               0.000000000               0.000000000               0.000000000               0.000000000               0.000000000               0.000000000               0.000000000               0.000000000               0.000000000               0.000000000               0.000000000               0.000000000               0.000000000               0.000000000               0.000000000               0.000000000               0.000000000               0.000000000               0.000000000               0.000000000               0.000000000               0.000000000               0.000000000               0.000000000               0.000000000               0.000000000               0.000000000               0.000000000               0.000000000               0.000000000               0.000000000               0.000000000               0.000000000               0.000000000               0.000000000               0.000000000               0.000000000               0.000000000               0.000000000               0.000000000               0.000000000               0.000000000               0.000000000               0.000000000               0.000000000               0.000000000               0.000000000               0.000000000               0.000000000               0.000000000               0.000000000               0.000000000               0.000000000               0.000000000               0.000000000               0.000000000               0.000000000               0.000000000               0.000000000               0.000000000               0.000000000               0.000000000               0.000000000               0.000000000               0.000000000               0.000000000               0.000000000               0.000000000               0.000000000               0.000000000               0.000000000               0.000000000               0.000000000               0.000000000               0.000000000               0.000000000               0.000000000               0.000000000               0.000000000               0.000000000               0.000000000               0.000000000               0.000000000               0.000000000               0.000000000               0.000000000               0.000000000               0.000000000               0.000000000               0.000000000               0.000000000               0.000000000               0.000000000               0.000000000               0.000000000               0.000000000               0.000000000               0.000000000               0.000000000               0.000000000               0.000000000               0.000000000               0.000000000               0.000000000               0.000000000               0.000000000               0.000000000               0.000000000               0.000000000               0.000000000               0.000000000               0.000000000               0.000000000               0.000000000               0.000000000               0.000000000               0.000000000               0.000000000               0.000000000               0.000000000               0.000000000               0.000000000               0.000000000               0.000000000               0.000000000               0.000000000               0.000000000               0.000000000               0.000000000               0.000000000               0.000000000               0.000000000               0.000000000               0.000000000               0.000000000               0.000000000               0.000000000               0.000000000               0.000000000               0.000000000               0.000000000               0.000000000               0.000000000               0.000000000               0.000000000               0.000000000               0.000000000               0.000000000               0.000000000               0.000000000               0.000000000               0.000000000               0.000000000               0.000000000               0.000000000               0.000000000               0.000000000               0.000000000               0.000000000               0.000000000               0.000000000               0.000000000               0.000000000 </DataArray>
</PointData>
</Piece>
</UnstructuredGrid> </VTKFile>
