<?xml version="1.0"?>
<VTKFile type="UnstructuredGrid" version="0.1">
<UnstructuredGrid>
<Piece NumberOfPoints="      1156" NumberOfCells="      1024">
<Points>
<DataArray type="Float64"                                    Name="coordinates"                                                      NumberOfComponents=" 3" format="ascii">
              0.133000000               0.000000000               0.000000000               0.155937500               0.000000000               0.000000000               0.178875000               0.000000000               0.000000000               0.201812500               0.000000000               0.000000000               0.224750000               0.000000000               0.000000000               0.247687500               0.000000000               0.000000000               0.270625000               0.000000000               0.000000000               0.293562500               0.000000000               0.000000000               0.316500000               0.000000000               0.000000000               0.339437500               0.000000000               0.000000000               0.362375000               0.000000000               0.000000000               0.385312500               0.000000000               0.000000000               0.408250000               0.000000000               0.000000000               0.431187500               0.000000000               0.000000000               0.454125000               0.000000000               0.000000000               0.477062500               0.000000000               0.000000000               0.500000000               0.000000000               0.000000000               0.132359569               0.013036280               0.000000000               0.155337096               0.016127762               0.000000000               0.178314623               0.019219245               0.000000000               0.201292150               0.022310727               0.000000000               0.224269676               0.025402210               0.000000000               0.247247203               0.028493692               0.000000000               0.270224730               0.031585175               0.000000000               0.293202257               0.034676657               0.000000000               0.316179784               0.037768140               0.000000000               0.339157311               0.040859622               0.000000000               0.362134838               0.043951105               0.000000000               0.385112365               0.047042587               0.000000000               0.408089892               0.050134070               0.000000000               0.431067419               0.053225552               0.000000000               0.454044946               0.056317035               0.000000000               0.477022473               0.059408517               0.000000000               0.500000000               0.062500000               0.000000000               0.130444442               0.025947013               0.000000000               0.153541665               0.032137825               0.000000000               0.176638887               0.038328636               0.000000000               0.199736109               0.044519448               0.000000000               0.222833332               0.050710260               0.000000000               0.245930554               0.056901071               0.000000000               0.269027776               0.063091883               0.000000000               0.292124999               0.069282695               0.000000000               0.315222221               0.075473506               0.000000000               0.338319444               0.081664318               0.000000000               0.361416666               0.087855130               0.000000000               0.384513888               0.094045942               0.000000000               0.407611111               0.100236753               0.000000000               0.430708333               0.106427565               0.000000000               0.453805555               0.112618377               0.000000000               0.476902778               0.118809188               0.000000000               0.500000000               0.125000000               0.000000000               0.127273065               0.038607862               0.000000000               0.150568498               0.047913621               0.000000000               0.173863932               0.057219379               0.000000000               0.197159365               0.066525138               0.000000000               0.220454798               0.075830897               0.000000000               0.243750232               0.085136655               0.000000000               0.267045665               0.094442414               0.000000000               0.290341099               0.103748172               0.000000000               0.313636532               0.113053931               0.000000000               0.336931966               0.122359690               0.000000000               0.360227399               0.131665448               0.000000000               0.383522833               0.140971207               0.000000000               0.406818266               0.150276966               0.000000000               0.430113700               0.159582724               0.000000000               0.453409133               0.168888483               0.000000000               0.476704567               0.178194241               0.000000000               0.500000000               0.187500000               0.000000000               0.122875978               0.050896897               0.000000000               0.146446229               0.063340840               0.000000000               0.170016481               0.075784784               0.000000000               0.193586732               0.088228728               0.000000000               0.217156983               0.100672672               0.000000000               0.240727235               0.113116616               0.000000000               0.264297486               0.125560560               0.000000000               0.287867738               0.138004504               0.000000000               0.311437989               0.150448448               0.000000000               0.335008240               0.162892392               0.000000000               0.358578492               0.175336336               0.000000000               0.382148743               0.187780280               0.000000000               0.405718994               0.200224224               0.000000000               0.429289246               0.212668168               0.000000000               0.452859497               0.225112112               0.000000000               0.476429749               0.237556056               0.000000000               0.500000000               0.250000000               0.000000000               0.117295528               0.062695766               0.000000000               0.141214558               0.078308531               0.000000000               0.165133587               0.093921295               0.000000000               0.189052617               0.109534060               0.000000000               0.212971646               0.125146824               0.000000000               0.236890676               0.140759589               0.000000000               0.260809705               0.156372354               0.000000000               0.284728735               0.171985118               0.000000000               0.308647764               0.187597883               0.000000000               0.332566794               0.203210648               0.000000000               0.356485823               0.218823412               0.000000000               0.380404853               0.234436177               0.000000000               0.404323882               0.250048941               0.000000000               0.428242912               0.265661706               0.000000000               0.452161941               0.281274471               0.000000000               0.476080971               0.296887235               0.000000000               0.500000000               0.312500000               0.000000000               0.110585458               0.073890841               0.000000000               0.134923867               0.092710163               0.000000000               0.159262276               0.111529486               0.000000000               0.183600685               0.130348808               0.000000000               0.207939094               0.149168131               0.000000000               0.232277503               0.167987453               0.000000000               0.256615912               0.186806776               0.000000000               0.280954320               0.205626098               0.000000000               0.305292729               0.224445420               0.000000000               0.329631138               0.243264743               0.000000000               0.353969547               0.262084065               0.000000000               0.378307956               0.280903388               0.000000000               0.402646365               0.299722710               0.000000000               0.426984773               0.318542033               0.000000000               0.451323182               0.337361355               0.000000000               0.475661591               0.356180678               0.000000000               0.500000000               0.375000000               0.000000000               0.102810390               0.084374307               0.000000000               0.127634741               0.106444663               0.000000000               0.152459092               0.128515018               0.000000000               0.177283442               0.150585374               0.000000000               0.202107793               0.172655730               0.000000000               0.226932143               0.194726086               0.000000000               0.251756494               0.216796442               0.000000000               0.276580845               0.238866798               0.000000000               0.301405195               0.260937153               0.000000000               0.326229546               0.283007509               0.000000000               0.351053896               0.305077865               0.000000000               0.375878247               0.327148221               0.000000000               0.400702598               0.349218577               0.000000000               0.425526948               0.371288933               0.000000000               0.450351299               0.393359288               0.000000000               0.475175649               0.415429644               0.000000000               0.500000000               0.437500000               0.000000000               0.094045202               0.094045202               0.000000000               0.119417377               0.119417377               0.000000000               0.144789552               0.144789552               0.000000000               0.170161727               0.170161727               0.000000000               0.195533901               0.195533901               0.000000000               0.220906076               0.220906076               0.000000000               0.246278251               0.246278251               0.000000000               0.271650426               0.271650426               0.000000000               0.297022601               0.297022601               0.000000000               0.322394776               0.322394776               0.000000000               0.347766951               0.347766951               0.000000000               0.373139126               0.373139126               0.000000000               0.398511300               0.398511300               0.000000000               0.423883475               0.423883475               0.000000000               0.449255650               0.449255650               0.000000000               0.474627825               0.474627825               0.000000000               0.500000000               0.500000000               0.000000000               0.084374307               0.102810390               0.000000000               0.106444663               0.127634741               0.000000000               0.128515018               0.152459092               0.000000000               0.150585374               0.177283442               0.000000000               0.172655730               0.202107793               0.000000000               0.194726086               0.226932143               0.000000000               0.216796442               0.251756494               0.000000000               0.238866798               0.276580845               0.000000000               0.260937153               0.301405195               0.000000000               0.283007509               0.326229546               0.000000000               0.305077865               0.351053896               0.000000000               0.327148221               0.375878247               0.000000000               0.349218577               0.400702598               0.000000000               0.371288933               0.425526948               0.000000000               0.393359288               0.450351299               0.000000000               0.415429644               0.475175649               0.000000000               0.437500000               0.500000000               0.000000000               0.073890841               0.110585458               0.000000000               0.092710163               0.134923867               0.000000000               0.111529486               0.159262276               0.000000000               0.130348808               0.183600685               0.000000000               0.149168131               0.207939094               0.000000000               0.167987453               0.232277503               0.000000000               0.186806776               0.256615912               0.000000000               0.205626098               0.280954320               0.000000000               0.224445420               0.305292729               0.000000000               0.243264743               0.329631138               0.000000000               0.262084065               0.353969547               0.000000000               0.280903388               0.378307956               0.000000000               0.299722710               0.402646365               0.000000000               0.318542033               0.426984773               0.000000000               0.337361355               0.451323182               0.000000000               0.356180678               0.475661591               0.000000000               0.375000000               0.500000000               0.000000000               0.062695766               0.117295528               0.000000000               0.078308531               0.141214558               0.000000000               0.093921295               0.165133587               0.000000000               0.109534060               0.189052617               0.000000000               0.125146824               0.212971646               0.000000000               0.140759589               0.236890676               0.000000000               0.156372354               0.260809705               0.000000000               0.171985118               0.284728735               0.000000000               0.187597883               0.308647764               0.000000000               0.203210648               0.332566794               0.000000000               0.218823412               0.356485823               0.000000000               0.234436177               0.380404853               0.000000000               0.250048941               0.404323882               0.000000000               0.265661706               0.428242912               0.000000000               0.281274471               0.452161941               0.000000000               0.296887235               0.476080971               0.000000000               0.312500000               0.500000000               0.000000000               0.050896897               0.122875978               0.000000000               0.063340840               0.146446229               0.000000000               0.075784784               0.170016481               0.000000000               0.088228728               0.193586732               0.000000000               0.100672672               0.217156983               0.000000000               0.113116616               0.240727235               0.000000000               0.125560560               0.264297486               0.000000000               0.138004504               0.287867738               0.000000000               0.150448448               0.311437989               0.000000000               0.162892392               0.335008240               0.000000000               0.175336336               0.358578492               0.000000000               0.187780280               0.382148743               0.000000000               0.200224224               0.405718994               0.000000000               0.212668168               0.429289246               0.000000000               0.225112112               0.452859497               0.000000000               0.237556056               0.476429749               0.000000000               0.250000000               0.500000000               0.000000000               0.038607862               0.127273065               0.000000000               0.047913621               0.150568498               0.000000000               0.057219379               0.173863932               0.000000000               0.066525138               0.197159365               0.000000000               0.075830897               0.220454798               0.000000000               0.085136655               0.243750232               0.000000000               0.094442414               0.267045665               0.000000000               0.103748172               0.290341099               0.000000000               0.113053931               0.313636532               0.000000000               0.122359690               0.336931966               0.000000000               0.131665448               0.360227399               0.000000000               0.140971207               0.383522833               0.000000000               0.150276966               0.406818266               0.000000000               0.159582724               0.430113700               0.000000000               0.168888483               0.453409133               0.000000000               0.178194241               0.476704567               0.000000000               0.187500000               0.500000000               0.000000000               0.025947013               0.130444442               0.000000000               0.032137825               0.153541665               0.000000000               0.038328636               0.176638887               0.000000000               0.044519448               0.199736109               0.000000000               0.050710260               0.222833332               0.000000000               0.056901071               0.245930554               0.000000000               0.063091883               0.269027776               0.000000000               0.069282695               0.292124999               0.000000000               0.075473506               0.315222221               0.000000000               0.081664318               0.338319444               0.000000000               0.087855130               0.361416666               0.000000000               0.094045942               0.384513888               0.000000000               0.100236753               0.407611111               0.000000000               0.106427565               0.430708333               0.000000000               0.112618377               0.453805555               0.000000000               0.118809188               0.476902778               0.000000000               0.125000000               0.500000000               0.000000000               0.013036280               0.132359569               0.000000000               0.016127762               0.155337096               0.000000000               0.019219245               0.178314623               0.000000000               0.022310727               0.201292150               0.000000000               0.025402210               0.224269676               0.000000000               0.028493692               0.247247203               0.000000000               0.031585175               0.270224730               0.000000000               0.034676657               0.293202257               0.000000000               0.037768140               0.316179784               0.000000000               0.040859622               0.339157311               0.000000000               0.043951105               0.362134838               0.000000000               0.047042587               0.385112365               0.000000000               0.050134070               0.408089892               0.000000000               0.053225552               0.431067419               0.000000000               0.056317035               0.454044946               0.000000000               0.059408517               0.477022473               0.000000000               0.062500000               0.500000000               0.000000000               0.000000000               0.133000000               0.000000000               0.000000000               0.155937500               0.000000000               0.000000000               0.178875000               0.000000000               0.000000000               0.201812500               0.000000000               0.000000000               0.224750000               0.000000000               0.000000000               0.247687500               0.000000000               0.000000000               0.270625000               0.000000000               0.000000000               0.293562500               0.000000000               0.000000000               0.316500000               0.000000000               0.000000000               0.339437500               0.000000000               0.000000000               0.362375000               0.000000000               0.000000000               0.385312500               0.000000000               0.000000000               0.408250000               0.000000000               0.000000000               0.431187500               0.000000000               0.000000000               0.454125000               0.000000000               0.000000000               0.477062500               0.000000000               0.000000000               0.500000000               0.000000000               0.133000000               0.000000000               0.000000000               0.155937500               0.000000000               0.000000000               0.178875000               0.000000000               0.000000000               0.201812500               0.000000000               0.000000000               0.224750000               0.000000000               0.000000000               0.247687500               0.000000000               0.000000000               0.270625000               0.000000000               0.000000000               0.293562500               0.000000000               0.000000000               0.316500000               0.000000000               0.000000000               0.339437500               0.000000000               0.000000000               0.362375000               0.000000000               0.000000000               0.385312500               0.000000000               0.000000000               0.408250000               0.000000000               0.000000000               0.431187500               0.000000000               0.000000000               0.454125000               0.000000000               0.000000000               0.477062500               0.000000000               0.000000000               0.500000000               0.000000000               0.000000000               0.132359569              -0.013036280               0.000000000               0.155337096              -0.016127762               0.000000000               0.178314623              -0.019219245               0.000000000               0.201292150              -0.022310727               0.000000000               0.224269676              -0.025402210               0.000000000               0.247247203              -0.028493692               0.000000000               0.270224730              -0.031585175               0.000000000               0.293202257              -0.034676657               0.000000000               0.316179784              -0.037768140               0.000000000               0.339157311              -0.040859622               0.000000000               0.362134838              -0.043951105               0.000000000               0.385112365              -0.047042587               0.000000000               0.408089892              -0.050134070               0.000000000               0.431067419              -0.053225552               0.000000000               0.454044946              -0.056317035               0.000000000               0.477022473              -0.059408517               0.000000000               0.500000000              -0.062500000               0.000000000               0.130444442              -0.025947013               0.000000000               0.153541665              -0.032137825               0.000000000               0.176638887              -0.038328636               0.000000000               0.199736109              -0.044519448               0.000000000               0.222833332              -0.050710260               0.000000000               0.245930554              -0.056901071               0.000000000               0.269027776              -0.063091883               0.000000000               0.292124999              -0.069282695               0.000000000               0.315222221              -0.075473506               0.000000000               0.338319444              -0.081664318               0.000000000               0.361416666              -0.087855130               0.000000000               0.384513888              -0.094045942               0.000000000               0.407611111              -0.100236753               0.000000000               0.430708333              -0.106427565               0.000000000               0.453805555              -0.112618377               0.000000000               0.476902778              -0.118809188               0.000000000               0.500000000              -0.125000000               0.000000000               0.127273065              -0.038607862               0.000000000               0.150568498              -0.047913621               0.000000000               0.173863932              -0.057219379               0.000000000               0.197159365              -0.066525138               0.000000000               0.220454798              -0.075830897               0.000000000               0.243750232              -0.085136655               0.000000000               0.267045665              -0.094442414               0.000000000               0.290341099              -0.103748172               0.000000000               0.313636532              -0.113053931               0.000000000               0.336931966              -0.122359690               0.000000000               0.360227399              -0.131665448               0.000000000               0.383522833              -0.140971207               0.000000000               0.406818266              -0.150276966               0.000000000               0.430113700              -0.159582724               0.000000000               0.453409133              -0.168888483               0.000000000               0.476704567              -0.178194241               0.000000000               0.500000000              -0.187500000               0.000000000               0.122875978              -0.050896897               0.000000000               0.146446229              -0.063340840               0.000000000               0.170016481              -0.075784784               0.000000000               0.193586732              -0.088228728               0.000000000               0.217156983              -0.100672672               0.000000000               0.240727235              -0.113116616               0.000000000               0.264297486              -0.125560560               0.000000000               0.287867738              -0.138004504               0.000000000               0.311437989              -0.150448448               0.000000000               0.335008240              -0.162892392               0.000000000               0.358578492              -0.175336336               0.000000000               0.382148743              -0.187780280               0.000000000               0.405718994              -0.200224224               0.000000000               0.429289246              -0.212668168               0.000000000               0.452859497              -0.225112112               0.000000000               0.476429749              -0.237556056               0.000000000               0.500000000              -0.250000000               0.000000000               0.117295528              -0.062695766               0.000000000               0.141214558              -0.078308531               0.000000000               0.165133587              -0.093921295               0.000000000               0.189052617              -0.109534060               0.000000000               0.212971646              -0.125146824               0.000000000               0.236890676              -0.140759589               0.000000000               0.260809705              -0.156372354               0.000000000               0.284728735              -0.171985118               0.000000000               0.308647764              -0.187597883               0.000000000               0.332566794              -0.203210648               0.000000000               0.356485823              -0.218823412               0.000000000               0.380404853              -0.234436177               0.000000000               0.404323882              -0.250048941               0.000000000               0.428242912              -0.265661706               0.000000000               0.452161941              -0.281274471               0.000000000               0.476080971              -0.296887235               0.000000000               0.500000000              -0.312500000               0.000000000               0.110585458              -0.073890841               0.000000000               0.134923867              -0.092710163               0.000000000               0.159262276              -0.111529486               0.000000000               0.183600685              -0.130348808               0.000000000               0.207939094              -0.149168131               0.000000000               0.232277503              -0.167987453               0.000000000               0.256615912              -0.186806776               0.000000000               0.280954320              -0.205626098               0.000000000               0.305292729              -0.224445420               0.000000000               0.329631138              -0.243264743               0.000000000               0.353969547              -0.262084065               0.000000000               0.378307956              -0.280903388               0.000000000               0.402646365              -0.299722710               0.000000000               0.426984773              -0.318542033               0.000000000               0.451323182              -0.337361355               0.000000000               0.475661591              -0.356180678               0.000000000               0.500000000              -0.375000000               0.000000000               0.102810390              -0.084374307               0.000000000               0.127634741              -0.106444663               0.000000000               0.152459092              -0.128515018               0.000000000               0.177283442              -0.150585374               0.000000000               0.202107793              -0.172655730               0.000000000               0.226932143              -0.194726086               0.000000000               0.251756494              -0.216796442               0.000000000               0.276580845              -0.238866798               0.000000000               0.301405195              -0.260937153               0.000000000               0.326229546              -0.283007509               0.000000000               0.351053896              -0.305077865               0.000000000               0.375878247              -0.327148221               0.000000000               0.400702598              -0.349218577               0.000000000               0.425526948              -0.371288933               0.000000000               0.450351299              -0.393359288               0.000000000               0.475175649              -0.415429644               0.000000000               0.500000000              -0.437500000               0.000000000               0.094045202              -0.094045202               0.000000000               0.119417377              -0.119417377               0.000000000               0.144789552              -0.144789552               0.000000000               0.170161727              -0.170161727               0.000000000               0.195533901              -0.195533901               0.000000000               0.220906076              -0.220906076               0.000000000               0.246278251              -0.246278251               0.000000000               0.271650426              -0.271650426               0.000000000               0.297022601              -0.297022601               0.000000000               0.322394776              -0.322394776               0.000000000               0.347766951              -0.347766951               0.000000000               0.373139126              -0.373139126               0.000000000               0.398511300              -0.398511300               0.000000000               0.423883475              -0.423883475               0.000000000               0.449255650              -0.449255650               0.000000000               0.474627825              -0.474627825               0.000000000               0.500000000              -0.500000000               0.000000000               0.084374307              -0.102810390               0.000000000               0.106444663              -0.127634741               0.000000000               0.128515018              -0.152459092               0.000000000               0.150585374              -0.177283442               0.000000000               0.172655730              -0.202107793               0.000000000               0.194726086              -0.226932143               0.000000000               0.216796442              -0.251756494               0.000000000               0.238866798              -0.276580845               0.000000000               0.260937153              -0.301405195               0.000000000               0.283007509              -0.326229546               0.000000000               0.305077865              -0.351053896               0.000000000               0.327148221              -0.375878247               0.000000000               0.349218577              -0.400702598               0.000000000               0.371288933              -0.425526948               0.000000000               0.393359288              -0.450351299               0.000000000               0.415429644              -0.475175649               0.000000000               0.437500000              -0.500000000               0.000000000               0.073890841              -0.110585458               0.000000000               0.092710163              -0.134923867               0.000000000               0.111529486              -0.159262276               0.000000000               0.130348808              -0.183600685               0.000000000               0.149168131              -0.207939094               0.000000000               0.167987453              -0.232277503               0.000000000               0.186806776              -0.256615912               0.000000000               0.205626098              -0.280954320               0.000000000               0.224445420              -0.305292729               0.000000000               0.243264743              -0.329631138               0.000000000               0.262084065              -0.353969547               0.000000000               0.280903388              -0.378307956               0.000000000               0.299722710              -0.402646365               0.000000000               0.318542033              -0.426984773               0.000000000               0.337361355              -0.451323182               0.000000000               0.356180678              -0.475661591               0.000000000               0.375000000              -0.500000000               0.000000000               0.062695766              -0.117295528               0.000000000               0.078308531              -0.141214558               0.000000000               0.093921295              -0.165133587               0.000000000               0.109534060              -0.189052617               0.000000000               0.125146824              -0.212971646               0.000000000               0.140759589              -0.236890676               0.000000000               0.156372354              -0.260809705               0.000000000               0.171985118              -0.284728735               0.000000000               0.187597883              -0.308647764               0.000000000               0.203210648              -0.332566794               0.000000000               0.218823412              -0.356485823               0.000000000               0.234436177              -0.380404853               0.000000000               0.250048941              -0.404323882               0.000000000               0.265661706              -0.428242912               0.000000000               0.281274471              -0.452161941               0.000000000               0.296887235              -0.476080971               0.000000000               0.312500000              -0.500000000               0.000000000               0.050896897              -0.122875978               0.000000000               0.063340840              -0.146446229               0.000000000               0.075784784              -0.170016481               0.000000000               0.088228728              -0.193586732               0.000000000               0.100672672              -0.217156983               0.000000000               0.113116616              -0.240727235               0.000000000               0.125560560              -0.264297486               0.000000000               0.138004504              -0.287867738               0.000000000               0.150448448              -0.311437989               0.000000000               0.162892392              -0.335008240               0.000000000               0.175336336              -0.358578492               0.000000000               0.187780280              -0.382148743               0.000000000               0.200224224              -0.405718994               0.000000000               0.212668168              -0.429289246               0.000000000               0.225112112              -0.452859497               0.000000000               0.237556056              -0.476429749               0.000000000               0.250000000              -0.500000000               0.000000000               0.038607862              -0.127273065               0.000000000               0.047913621              -0.150568498               0.000000000               0.057219379              -0.173863932               0.000000000               0.066525138              -0.197159365               0.000000000               0.075830897              -0.220454798               0.000000000               0.085136655              -0.243750232               0.000000000               0.094442414              -0.267045665               0.000000000               0.103748172              -0.290341099               0.000000000               0.113053931              -0.313636532               0.000000000               0.122359690              -0.336931966               0.000000000               0.131665448              -0.360227399               0.000000000               0.140971207              -0.383522833               0.000000000               0.150276966              -0.406818266               0.000000000               0.159582724              -0.430113700               0.000000000               0.168888483              -0.453409133               0.000000000               0.178194241              -0.476704567               0.000000000               0.187500000              -0.500000000               0.000000000               0.025947013              -0.130444442               0.000000000               0.032137825              -0.153541665               0.000000000               0.038328636              -0.176638887               0.000000000               0.044519448              -0.199736109               0.000000000               0.050710260              -0.222833332               0.000000000               0.056901071              -0.245930554               0.000000000               0.063091883              -0.269027776               0.000000000               0.069282695              -0.292124999               0.000000000               0.075473506              -0.315222221               0.000000000               0.081664318              -0.338319444               0.000000000               0.087855130              -0.361416666               0.000000000               0.094045942              -0.384513888               0.000000000               0.100236753              -0.407611111               0.000000000               0.106427565              -0.430708333               0.000000000               0.112618377              -0.453805555               0.000000000               0.118809188              -0.476902778               0.000000000               0.125000000              -0.500000000               0.000000000               0.013036280              -0.132359569               0.000000000               0.016127762              -0.155337096               0.000000000               0.019219245              -0.178314623               0.000000000               0.022310727              -0.201292150               0.000000000               0.025402210              -0.224269676               0.000000000               0.028493692              -0.247247203               0.000000000               0.031585175              -0.270224730               0.000000000               0.034676657              -0.293202257               0.000000000               0.037768140              -0.316179784               0.000000000               0.040859622              -0.339157311               0.000000000               0.043951105              -0.362134838               0.000000000               0.047042587              -0.385112365               0.000000000               0.050134070              -0.408089892               0.000000000               0.053225552              -0.431067419               0.000000000               0.056317035              -0.454044946               0.000000000               0.059408517              -0.477022473               0.000000000               0.062500000              -0.500000000               0.000000000               0.000000000              -0.133000000               0.000000000               0.000000000              -0.155937500               0.000000000               0.000000000              -0.178875000               0.000000000               0.000000000              -0.201812500               0.000000000               0.000000000              -0.224750000               0.000000000               0.000000000              -0.247687500               0.000000000               0.000000000              -0.270625000               0.000000000               0.000000000              -0.293562500               0.000000000               0.000000000              -0.316500000               0.000000000               0.000000000              -0.339437500               0.000000000               0.000000000              -0.362375000               0.000000000               0.000000000              -0.385312500               0.000000000               0.000000000              -0.408250000               0.000000000               0.000000000              -0.431187500               0.000000000               0.000000000              -0.454125000               0.000000000               0.000000000              -0.477062500               0.000000000               0.000000000              -0.500000000               0.000000000              -0.133000000               0.000000000               0.000000000              -0.155937500               0.000000000               0.000000000              -0.178875000               0.000000000               0.000000000              -0.201812500               0.000000000               0.000000000              -0.224750000               0.000000000               0.000000000              -0.247687500               0.000000000               0.000000000              -0.270625000               0.000000000               0.000000000              -0.293562500               0.000000000               0.000000000              -0.316500000               0.000000000               0.000000000              -0.339437500               0.000000000               0.000000000              -0.362375000               0.000000000               0.000000000              -0.385312500               0.000000000               0.000000000              -0.408250000               0.000000000               0.000000000              -0.431187500               0.000000000               0.000000000              -0.454125000               0.000000000               0.000000000              -0.477062500               0.000000000               0.000000000              -0.500000000               0.000000000               0.000000000              -0.132359569              -0.013036280               0.000000000              -0.155337096              -0.016127762               0.000000000              -0.178314623              -0.019219245               0.000000000              -0.201292150              -0.022310727               0.000000000              -0.224269676              -0.025402210               0.000000000              -0.247247203              -0.028493692               0.000000000              -0.270224730              -0.031585175               0.000000000              -0.293202257              -0.034676657               0.000000000              -0.316179784              -0.037768140               0.000000000              -0.339157311              -0.040859622               0.000000000              -0.362134838              -0.043951105               0.000000000              -0.385112365              -0.047042587               0.000000000              -0.408089892              -0.050134070               0.000000000              -0.431067419              -0.053225552               0.000000000              -0.454044946              -0.056317035               0.000000000              -0.477022473              -0.059408517               0.000000000              -0.500000000              -0.062500000               0.000000000              -0.130444442              -0.025947013               0.000000000              -0.153541665              -0.032137825               0.000000000              -0.176638887              -0.038328636               0.000000000              -0.199736109              -0.044519448               0.000000000              -0.222833332              -0.050710260               0.000000000              -0.245930554              -0.056901071               0.000000000              -0.269027776              -0.063091883               0.000000000              -0.292124999              -0.069282695               0.000000000              -0.315222221              -0.075473506               0.000000000              -0.338319444              -0.081664318               0.000000000              -0.361416666              -0.087855130               0.000000000              -0.384513888              -0.094045942               0.000000000              -0.407611111              -0.100236753               0.000000000              -0.430708333              -0.106427565               0.000000000              -0.453805555              -0.112618377               0.000000000              -0.476902778              -0.118809188               0.000000000              -0.500000000              -0.125000000               0.000000000              -0.127273065              -0.038607862               0.000000000              -0.150568498              -0.047913621               0.000000000              -0.173863932              -0.057219379               0.000000000              -0.197159365              -0.066525138               0.000000000              -0.220454798              -0.075830897               0.000000000              -0.243750232              -0.085136655               0.000000000              -0.267045665              -0.094442414               0.000000000              -0.290341099              -0.103748172               0.000000000              -0.313636532              -0.113053931               0.000000000              -0.336931966              -0.122359690               0.000000000              -0.360227399              -0.131665448               0.000000000              -0.383522833              -0.140971207               0.000000000              -0.406818266              -0.150276966               0.000000000              -0.430113700              -0.159582724               0.000000000              -0.453409133              -0.168888483               0.000000000              -0.476704567              -0.178194241               0.000000000              -0.500000000              -0.187500000               0.000000000              -0.122875978              -0.050896897               0.000000000              -0.146446229              -0.063340840               0.000000000              -0.170016481              -0.075784784               0.000000000              -0.193586732              -0.088228728               0.000000000              -0.217156983              -0.100672672               0.000000000              -0.240727235              -0.113116616               0.000000000              -0.264297486              -0.125560560               0.000000000              -0.287867738              -0.138004504               0.000000000              -0.311437989              -0.150448448               0.000000000              -0.335008240              -0.162892392               0.000000000              -0.358578492              -0.175336336               0.000000000              -0.382148743              -0.187780280               0.000000000              -0.405718994              -0.200224224               0.000000000              -0.429289246              -0.212668168               0.000000000              -0.452859497              -0.225112112               0.000000000              -0.476429749              -0.237556056               0.000000000              -0.500000000              -0.250000000               0.000000000              -0.117295528              -0.062695766               0.000000000              -0.141214558              -0.078308531               0.000000000              -0.165133587              -0.093921295               0.000000000              -0.189052617              -0.109534060               0.000000000              -0.212971646              -0.125146824               0.000000000              -0.236890676              -0.140759589               0.000000000              -0.260809705              -0.156372354               0.000000000              -0.284728735              -0.171985118               0.000000000              -0.308647764              -0.187597883               0.000000000              -0.332566794              -0.203210648               0.000000000              -0.356485823              -0.218823412               0.000000000              -0.380404853              -0.234436177               0.000000000              -0.404323882              -0.250048941               0.000000000              -0.428242912              -0.265661706               0.000000000              -0.452161941              -0.281274471               0.000000000              -0.476080971              -0.296887235               0.000000000              -0.500000000              -0.312500000               0.000000000              -0.110585458              -0.073890841               0.000000000              -0.134923867              -0.092710163               0.000000000              -0.159262276              -0.111529486               0.000000000              -0.183600685              -0.130348808               0.000000000              -0.207939094              -0.149168131               0.000000000              -0.232277503              -0.167987453               0.000000000              -0.256615912              -0.186806776               0.000000000              -0.280954320              -0.205626098               0.000000000              -0.305292729              -0.224445420               0.000000000              -0.329631138              -0.243264743               0.000000000              -0.353969547              -0.262084065               0.000000000              -0.378307956              -0.280903388               0.000000000              -0.402646365              -0.299722710               0.000000000              -0.426984773              -0.318542033               0.000000000              -0.451323182              -0.337361355               0.000000000              -0.475661591              -0.356180678               0.000000000              -0.500000000              -0.375000000               0.000000000              -0.102810390              -0.084374307               0.000000000              -0.127634741              -0.106444663               0.000000000              -0.152459092              -0.128515018               0.000000000              -0.177283442              -0.150585374               0.000000000              -0.202107793              -0.172655730               0.000000000              -0.226932143              -0.194726086               0.000000000              -0.251756494              -0.216796442               0.000000000              -0.276580845              -0.238866798               0.000000000              -0.301405195              -0.260937153               0.000000000              -0.326229546              -0.283007509               0.000000000              -0.351053896              -0.305077865               0.000000000              -0.375878247              -0.327148221               0.000000000              -0.400702598              -0.349218577               0.000000000              -0.425526948              -0.371288933               0.000000000              -0.450351299              -0.393359288               0.000000000              -0.475175649              -0.415429644               0.000000000              -0.500000000              -0.437500000               0.000000000              -0.094045202              -0.094045202               0.000000000              -0.119417377              -0.119417377               0.000000000              -0.144789552              -0.144789552               0.000000000              -0.170161727              -0.170161727               0.000000000              -0.195533901              -0.195533901               0.000000000              -0.220906076              -0.220906076               0.000000000              -0.246278251              -0.246278251               0.000000000              -0.271650426              -0.271650426               0.000000000              -0.297022601              -0.297022601               0.000000000              -0.322394776              -0.322394776               0.000000000              -0.347766951              -0.347766951               0.000000000              -0.373139126              -0.373139126               0.000000000              -0.398511300              -0.398511300               0.000000000              -0.423883475              -0.423883475               0.000000000              -0.449255650              -0.449255650               0.000000000              -0.474627825              -0.474627825               0.000000000              -0.500000000              -0.500000000               0.000000000              -0.084374307              -0.102810390               0.000000000              -0.106444663              -0.127634741               0.000000000              -0.128515018              -0.152459092               0.000000000              -0.150585374              -0.177283442               0.000000000              -0.172655730              -0.202107793               0.000000000              -0.194726086              -0.226932143               0.000000000              -0.216796442              -0.251756494               0.000000000              -0.238866798              -0.276580845               0.000000000              -0.260937153              -0.301405195               0.000000000              -0.283007509              -0.326229546               0.000000000              -0.305077865              -0.351053896               0.000000000              -0.327148221              -0.375878247               0.000000000              -0.349218577              -0.400702598               0.000000000              -0.371288933              -0.425526948               0.000000000              -0.393359288              -0.450351299               0.000000000              -0.415429644              -0.475175649               0.000000000              -0.437500000              -0.500000000               0.000000000              -0.073890841              -0.110585458               0.000000000              -0.092710163              -0.134923867               0.000000000              -0.111529486              -0.159262276               0.000000000              -0.130348808              -0.183600685               0.000000000              -0.149168131              -0.207939094               0.000000000              -0.167987453              -0.232277503               0.000000000              -0.186806776              -0.256615912               0.000000000              -0.205626098              -0.280954320               0.000000000              -0.224445420              -0.305292729               0.000000000              -0.243264743              -0.329631138               0.000000000              -0.262084065              -0.353969547               0.000000000              -0.280903388              -0.378307956               0.000000000              -0.299722710              -0.402646365               0.000000000              -0.318542033              -0.426984773               0.000000000              -0.337361355              -0.451323182               0.000000000              -0.356180678              -0.475661591               0.000000000              -0.375000000              -0.500000000               0.000000000              -0.062695766              -0.117295528               0.000000000              -0.078308531              -0.141214558               0.000000000              -0.093921295              -0.165133587               0.000000000              -0.109534060              -0.189052617               0.000000000              -0.125146824              -0.212971646               0.000000000              -0.140759589              -0.236890676               0.000000000              -0.156372354              -0.260809705               0.000000000              -0.171985118              -0.284728735               0.000000000              -0.187597883              -0.308647764               0.000000000              -0.203210648              -0.332566794               0.000000000              -0.218823412              -0.356485823               0.000000000              -0.234436177              -0.380404853               0.000000000              -0.250048941              -0.404323882               0.000000000              -0.265661706              -0.428242912               0.000000000              -0.281274471              -0.452161941               0.000000000              -0.296887235              -0.476080971               0.000000000              -0.312500000              -0.500000000               0.000000000              -0.050896897              -0.122875978               0.000000000              -0.063340840              -0.146446229               0.000000000              -0.075784784              -0.170016481               0.000000000              -0.088228728              -0.193586732               0.000000000              -0.100672672              -0.217156983               0.000000000              -0.113116616              -0.240727235               0.000000000              -0.125560560              -0.264297486               0.000000000              -0.138004504              -0.287867738               0.000000000              -0.150448448              -0.311437989               0.000000000              -0.162892392              -0.335008240               0.000000000              -0.175336336              -0.358578492               0.000000000              -0.187780280              -0.382148743               0.000000000              -0.200224224              -0.405718994               0.000000000              -0.212668168              -0.429289246               0.000000000              -0.225112112              -0.452859497               0.000000000              -0.237556056              -0.476429749               0.000000000              -0.250000000              -0.500000000               0.000000000              -0.038607862              -0.127273065               0.000000000              -0.047913621              -0.150568498               0.000000000              -0.057219379              -0.173863932               0.000000000              -0.066525138              -0.197159365               0.000000000              -0.075830897              -0.220454798               0.000000000              -0.085136655              -0.243750232               0.000000000              -0.094442414              -0.267045665               0.000000000              -0.103748172              -0.290341099               0.000000000              -0.113053931              -0.313636532               0.000000000              -0.122359690              -0.336931966               0.000000000              -0.131665448              -0.360227399               0.000000000              -0.140971207              -0.383522833               0.000000000              -0.150276966              -0.406818266               0.000000000              -0.159582724              -0.430113700               0.000000000              -0.168888483              -0.453409133               0.000000000              -0.178194241              -0.476704567               0.000000000              -0.187500000              -0.500000000               0.000000000              -0.025947013              -0.130444442               0.000000000              -0.032137825              -0.153541665               0.000000000              -0.038328636              -0.176638887               0.000000000              -0.044519448              -0.199736109               0.000000000              -0.050710260              -0.222833332               0.000000000              -0.056901071              -0.245930554               0.000000000              -0.063091883              -0.269027776               0.000000000              -0.069282695              -0.292124999               0.000000000              -0.075473506              -0.315222221               0.000000000              -0.081664318              -0.338319444               0.000000000              -0.087855130              -0.361416666               0.000000000              -0.094045942              -0.384513888               0.000000000              -0.100236753              -0.407611111               0.000000000              -0.106427565              -0.430708333               0.000000000              -0.112618377              -0.453805555               0.000000000              -0.118809188              -0.476902778               0.000000000              -0.125000000              -0.500000000               0.000000000              -0.013036280              -0.132359569               0.000000000              -0.016127762              -0.155337096               0.000000000              -0.019219245              -0.178314623               0.000000000              -0.022310727              -0.201292150               0.000000000              -0.025402210              -0.224269676               0.000000000              -0.028493692              -0.247247203               0.000000000              -0.031585175              -0.270224730               0.000000000              -0.034676657              -0.293202257               0.000000000              -0.037768140              -0.316179784               0.000000000              -0.040859622              -0.339157311               0.000000000              -0.043951105              -0.362134838               0.000000000              -0.047042587              -0.385112365               0.000000000              -0.050134070              -0.408089892               0.000000000              -0.053225552              -0.431067419               0.000000000              -0.056317035              -0.454044946               0.000000000              -0.059408517              -0.477022473               0.000000000              -0.062500000              -0.500000000               0.000000000               0.000000000              -0.133000000               0.000000000               0.000000000              -0.155937500               0.000000000               0.000000000              -0.178875000               0.000000000               0.000000000              -0.201812500               0.000000000               0.000000000              -0.224750000               0.000000000               0.000000000              -0.247687500               0.000000000               0.000000000              -0.270625000               0.000000000               0.000000000              -0.293562500               0.000000000               0.000000000              -0.316500000               0.000000000               0.000000000              -0.339437500               0.000000000               0.000000000              -0.362375000               0.000000000               0.000000000              -0.385312500               0.000000000               0.000000000              -0.408250000               0.000000000               0.000000000              -0.431187500               0.000000000               0.000000000              -0.454125000               0.000000000               0.000000000              -0.477062500               0.000000000               0.000000000              -0.500000000               0.000000000              -0.133000000               0.000000000               0.000000000              -0.155937500               0.000000000               0.000000000              -0.178875000               0.000000000               0.000000000              -0.201812500               0.000000000               0.000000000              -0.224750000               0.000000000               0.000000000              -0.247687500               0.000000000               0.000000000              -0.270625000               0.000000000               0.000000000              -0.293562500               0.000000000               0.000000000              -0.316500000               0.000000000               0.000000000              -0.339437500               0.000000000               0.000000000              -0.362375000               0.000000000               0.000000000              -0.385312500               0.000000000               0.000000000              -0.408250000               0.000000000               0.000000000              -0.431187500               0.000000000               0.000000000              -0.454125000               0.000000000               0.000000000              -0.477062500               0.000000000               0.000000000              -0.500000000               0.000000000               0.000000000              -0.132359569               0.013036280               0.000000000              -0.155337096               0.016127762               0.000000000              -0.178314623               0.019219245               0.000000000              -0.201292150               0.022310727               0.000000000              -0.224269676               0.025402210               0.000000000              -0.247247203               0.028493692               0.000000000              -0.270224730               0.031585175               0.000000000              -0.293202257               0.034676657               0.000000000              -0.316179784               0.037768140               0.000000000              -0.339157311               0.040859622               0.000000000              -0.362134838               0.043951105               0.000000000              -0.385112365               0.047042587               0.000000000              -0.408089892               0.050134070               0.000000000              -0.431067419               0.053225552               0.000000000              -0.454044946               0.056317035               0.000000000              -0.477022473               0.059408517               0.000000000              -0.500000000               0.062500000               0.000000000              -0.130444442               0.025947013               0.000000000              -0.153541665               0.032137825               0.000000000              -0.176638887               0.038328636               0.000000000              -0.199736109               0.044519448               0.000000000              -0.222833332               0.050710260               0.000000000              -0.245930554               0.056901071               0.000000000              -0.269027776               0.063091883               0.000000000              -0.292124999               0.069282695               0.000000000              -0.315222221               0.075473506               0.000000000              -0.338319444               0.081664318               0.000000000              -0.361416666               0.087855130               0.000000000              -0.384513888               0.094045942               0.000000000              -0.407611111               0.100236753               0.000000000              -0.430708333               0.106427565               0.000000000              -0.453805555               0.112618377               0.000000000              -0.476902778               0.118809188               0.000000000              -0.500000000               0.125000000               0.000000000              -0.127273065               0.038607862               0.000000000              -0.150568498               0.047913621               0.000000000              -0.173863932               0.057219379               0.000000000              -0.197159365               0.066525138               0.000000000              -0.220454798               0.075830897               0.000000000              -0.243750232               0.085136655               0.000000000              -0.267045665               0.094442414               0.000000000              -0.290341099               0.103748172               0.000000000              -0.313636532               0.113053931               0.000000000              -0.336931966               0.122359690               0.000000000              -0.360227399               0.131665448               0.000000000              -0.383522833               0.140971207               0.000000000              -0.406818266               0.150276966               0.000000000              -0.430113700               0.159582724               0.000000000              -0.453409133               0.168888483               0.000000000              -0.476704567               0.178194241               0.000000000              -0.500000000               0.187500000               0.000000000              -0.122875978               0.050896897               0.000000000              -0.146446229               0.063340840               0.000000000              -0.170016481               0.075784784               0.000000000              -0.193586732               0.088228728               0.000000000              -0.217156983               0.100672672               0.000000000              -0.240727235               0.113116616               0.000000000              -0.264297486               0.125560560               0.000000000              -0.287867738               0.138004504               0.000000000              -0.311437989               0.150448448               0.000000000              -0.335008240               0.162892392               0.000000000              -0.358578492               0.175336336               0.000000000              -0.382148743               0.187780280               0.000000000              -0.405718994               0.200224224               0.000000000              -0.429289246               0.212668168               0.000000000              -0.452859497               0.225112112               0.000000000              -0.476429749               0.237556056               0.000000000              -0.500000000               0.250000000               0.000000000              -0.117295528               0.062695766               0.000000000              -0.141214558               0.078308531               0.000000000              -0.165133587               0.093921295               0.000000000              -0.189052617               0.109534060               0.000000000              -0.212971646               0.125146824               0.000000000              -0.236890676               0.140759589               0.000000000              -0.260809705               0.156372354               0.000000000              -0.284728735               0.171985118               0.000000000              -0.308647764               0.187597883               0.000000000              -0.332566794               0.203210648               0.000000000              -0.356485823               0.218823412               0.000000000              -0.380404853               0.234436177               0.000000000              -0.404323882               0.250048941               0.000000000              -0.428242912               0.265661706               0.000000000              -0.452161941               0.281274471               0.000000000              -0.476080971               0.296887235               0.000000000              -0.500000000               0.312500000               0.000000000              -0.110585458               0.073890841               0.000000000              -0.134923867               0.092710163               0.000000000              -0.159262276               0.111529486               0.000000000              -0.183600685               0.130348808               0.000000000              -0.207939094               0.149168131               0.000000000              -0.232277503               0.167987453               0.000000000              -0.256615912               0.186806776               0.000000000              -0.280954320               0.205626098               0.000000000              -0.305292729               0.224445420               0.000000000              -0.329631138               0.243264743               0.000000000              -0.353969547               0.262084065               0.000000000              -0.378307956               0.280903388               0.000000000              -0.402646365               0.299722710               0.000000000              -0.426984773               0.318542033               0.000000000              -0.451323182               0.337361355               0.000000000              -0.475661591               0.356180678               0.000000000              -0.500000000               0.375000000               0.000000000              -0.102810390               0.084374307               0.000000000              -0.127634741               0.106444663               0.000000000              -0.152459092               0.128515018               0.000000000              -0.177283442               0.150585374               0.000000000              -0.202107793               0.172655730               0.000000000              -0.226932143               0.194726086               0.000000000              -0.251756494               0.216796442               0.000000000              -0.276580845               0.238866798               0.000000000              -0.301405195               0.260937153               0.000000000              -0.326229546               0.283007509               0.000000000              -0.351053896               0.305077865               0.000000000              -0.375878247               0.327148221               0.000000000              -0.400702598               0.349218577               0.000000000              -0.425526948               0.371288933               0.000000000              -0.450351299               0.393359288               0.000000000              -0.475175649               0.415429644               0.000000000              -0.500000000               0.437500000               0.000000000              -0.094045202               0.094045202               0.000000000              -0.119417377               0.119417377               0.000000000              -0.144789552               0.144789552               0.000000000              -0.170161727               0.170161727               0.000000000              -0.195533901               0.195533901               0.000000000              -0.220906076               0.220906076               0.000000000              -0.246278251               0.246278251               0.000000000              -0.271650426               0.271650426               0.000000000              -0.297022601               0.297022601               0.000000000              -0.322394776               0.322394776               0.000000000              -0.347766951               0.347766951               0.000000000              -0.373139126               0.373139126               0.000000000              -0.398511300               0.398511300               0.000000000              -0.423883475               0.423883475               0.000000000              -0.449255650               0.449255650               0.000000000              -0.474627825               0.474627825               0.000000000              -0.500000000               0.500000000               0.000000000              -0.084374307               0.102810390               0.000000000              -0.106444663               0.127634741               0.000000000              -0.128515018               0.152459092               0.000000000              -0.150585374               0.177283442               0.000000000              -0.172655730               0.202107793               0.000000000              -0.194726086               0.226932143               0.000000000              -0.216796442               0.251756494               0.000000000              -0.238866798               0.276580845               0.000000000              -0.260937153               0.301405195               0.000000000              -0.283007509               0.326229546               0.000000000              -0.305077865               0.351053896               0.000000000              -0.327148221               0.375878247               0.000000000              -0.349218577               0.400702598               0.000000000              -0.371288933               0.425526948               0.000000000              -0.393359288               0.450351299               0.000000000              -0.415429644               0.475175649               0.000000000              -0.437500000               0.500000000               0.000000000              -0.073890841               0.110585458               0.000000000              -0.092710163               0.134923867               0.000000000              -0.111529486               0.159262276               0.000000000              -0.130348808               0.183600685               0.000000000              -0.149168131               0.207939094               0.000000000              -0.167987453               0.232277503               0.000000000              -0.186806776               0.256615912               0.000000000              -0.205626098               0.280954320               0.000000000              -0.224445420               0.305292729               0.000000000              -0.243264743               0.329631138               0.000000000              -0.262084065               0.353969547               0.000000000              -0.280903388               0.378307956               0.000000000              -0.299722710               0.402646365               0.000000000              -0.318542033               0.426984773               0.000000000              -0.337361355               0.451323182               0.000000000              -0.356180678               0.475661591               0.000000000              -0.375000000               0.500000000               0.000000000              -0.062695766               0.117295528               0.000000000              -0.078308531               0.141214558               0.000000000              -0.093921295               0.165133587               0.000000000              -0.109534060               0.189052617               0.000000000              -0.125146824               0.212971646               0.000000000              -0.140759589               0.236890676               0.000000000              -0.156372354               0.260809705               0.000000000              -0.171985118               0.284728735               0.000000000              -0.187597883               0.308647764               0.000000000              -0.203210648               0.332566794               0.000000000              -0.218823412               0.356485823               0.000000000              -0.234436177               0.380404853               0.000000000              -0.250048941               0.404323882               0.000000000              -0.265661706               0.428242912               0.000000000              -0.281274471               0.452161941               0.000000000              -0.296887235               0.476080971               0.000000000              -0.312500000               0.500000000               0.000000000              -0.050896897               0.122875978               0.000000000              -0.063340840               0.146446229               0.000000000              -0.075784784               0.170016481               0.000000000              -0.088228728               0.193586732               0.000000000              -0.100672672               0.217156983               0.000000000              -0.113116616               0.240727235               0.000000000              -0.125560560               0.264297486               0.000000000              -0.138004504               0.287867738               0.000000000              -0.150448448               0.311437989               0.000000000              -0.162892392               0.335008240               0.000000000              -0.175336336               0.358578492               0.000000000              -0.187780280               0.382148743               0.000000000              -0.200224224               0.405718994               0.000000000              -0.212668168               0.429289246               0.000000000              -0.225112112               0.452859497               0.000000000              -0.237556056               0.476429749               0.000000000              -0.250000000               0.500000000               0.000000000              -0.038607862               0.127273065               0.000000000              -0.047913621               0.150568498               0.000000000              -0.057219379               0.173863932               0.000000000              -0.066525138               0.197159365               0.000000000              -0.075830897               0.220454798               0.000000000              -0.085136655               0.243750232               0.000000000              -0.094442414               0.267045665               0.000000000              -0.103748172               0.290341099               0.000000000              -0.113053931               0.313636532               0.000000000              -0.122359690               0.336931966               0.000000000              -0.131665448               0.360227399               0.000000000              -0.140971207               0.383522833               0.000000000              -0.150276966               0.406818266               0.000000000              -0.159582724               0.430113700               0.000000000              -0.168888483               0.453409133               0.000000000              -0.178194241               0.476704567               0.000000000              -0.187500000               0.500000000               0.000000000              -0.025947013               0.130444442               0.000000000              -0.032137825               0.153541665               0.000000000              -0.038328636               0.176638887               0.000000000              -0.044519448               0.199736109               0.000000000              -0.050710260               0.222833332               0.000000000              -0.056901071               0.245930554               0.000000000              -0.063091883               0.269027776               0.000000000              -0.069282695               0.292124999               0.000000000              -0.075473506               0.315222221               0.000000000              -0.081664318               0.338319444               0.000000000              -0.087855130               0.361416666               0.000000000              -0.094045942               0.384513888               0.000000000              -0.100236753               0.407611111               0.000000000              -0.106427565               0.430708333               0.000000000              -0.112618377               0.453805555               0.000000000              -0.118809188               0.476902778               0.000000000              -0.125000000               0.500000000               0.000000000              -0.013036280               0.132359569               0.000000000              -0.016127762               0.155337096               0.000000000              -0.019219245               0.178314623               0.000000000              -0.022310727               0.201292150               0.000000000              -0.025402210               0.224269676               0.000000000              -0.028493692               0.247247203               0.000000000              -0.031585175               0.270224730               0.000000000              -0.034676657               0.293202257               0.000000000              -0.037768140               0.316179784               0.000000000              -0.040859622               0.339157311               0.000000000              -0.043951105               0.362134838               0.000000000              -0.047042587               0.385112365               0.000000000              -0.050134070               0.408089892               0.000000000              -0.053225552               0.431067419               0.000000000              -0.056317035               0.454044946               0.000000000              -0.059408517               0.477022473               0.000000000              -0.062500000               0.500000000               0.000000000               0.000000000               0.133000000               0.000000000               0.000000000               0.155937500               0.000000000               0.000000000               0.178875000               0.000000000               0.000000000               0.201812500               0.000000000               0.000000000               0.224750000               0.000000000               0.000000000               0.247687500               0.000000000               0.000000000               0.270625000               0.000000000               0.000000000               0.293562500               0.000000000               0.000000000               0.316500000               0.000000000               0.000000000               0.339437500               0.000000000               0.000000000               0.362375000               0.000000000               0.000000000               0.385312500               0.000000000               0.000000000               0.408250000               0.000000000               0.000000000               0.431187500               0.000000000               0.000000000               0.454125000               0.000000000               0.000000000               0.477062500               0.000000000               0.000000000               0.500000000               0.000000000 </DataArray>
</Points>
<Cells>
<DataArray type="Int32"                                    Name="connectivity"                                                      NumberOfComponents=" 1" format="ascii">
         0          1         18         17          1          2         19         18          2          3         20         19          3          4         21         20          4          5         22         21          5          6         23         22          6          7         24         23          7          8         25         24          8          9         26         25          9         10         27         26         10         11         28         27         11         12         29         28         12         13         30         29         13         14         31         30         14         15         32         31         15         16         33         32         17         18         35         34         18         19         36         35         19         20         37         36         20         21         38         37         21         22         39         38         22         23         40         39         23         24         41         40         24         25         42         41         25         26         43         42         26         27         44         43         27         28         45         44         28         29         46         45         29         30         47         46         30         31         48         47         31         32         49         48         32         33         50         49         34         35         52         51         35         36         53         52         36         37         54         53         37         38         55         54         38         39         56         55         39         40         57         56         40         41         58         57         41         42         59         58         42         43         60         59         43         44         61         60         44         45         62         61         45         46         63         62         46         47         64         63         47         48         65         64         48         49         66         65         49         50         67         66         51         52         69         68         52         53         70         69         53         54         71         70         54         55         72         71         55         56         73         72         56         57         74         73         57         58         75         74         58         59         76         75         59         60         77         76         60         61         78         77         61         62         79         78         62         63         80         79         63         64         81         80         64         65         82         81         65         66         83         82         66         67         84         83         68         69         86         85         69         70         87         86         70         71         88         87         71         72         89         88         72         73         90         89         73         74         91         90         74         75         92         91         75         76         93         92         76         77         94         93         77         78         95         94         78         79         96         95         79         80         97         96         80         81         98         97         81         82         99         98         82         83        100         99         83         84        101        100         85         86        103        102         86         87        104        103         87         88        105        104         88         89        106        105         89         90        107        106         90         91        108        107         91         92        109        108         92         93        110        109         93         94        111        110         94         95        112        111         95         96        113        112         96         97        114        113         97         98        115        114         98         99        116        115         99        100        117        116        100        101        118        117        102        103        120        119        103        104        121        120        104        105        122        121        105        106        123        122        106        107        124        123        107        108        125        124        108        109        126        125        109        110        127        126        110        111        128        127        111        112        129        128        112        113        130        129        113        114        131        130        114        115        132        131        115        116        133        132        116        117        134        133        117        118        135        134        119        120        137        136        120        121        138        137        121        122        139        138        122        123        140        139        123        124        141        140        124        125        142        141        125        126        143        142        126        127        144        143        127        128        145        144        128        129        146        145        129        130        147        146        130        131        148        147        131        132        149        148        132        133        150        149        133        134        151        150        134        135        152        151        136        137        154        153        137        138        155        154        138        139        156        155        139        140        157        156        140        141        158        157        141        142        159        158        142        143        160        159        143        144        161        160        144        145        162        161        145        146        163        162        146        147        164        163        147        148        165        164        148        149        166        165        149        150        167        166        150        151        168        167        151        152        169        168        153        154        171        170        154        155        172        171        155        156        173        172        156        157        174        173        157        158        175        174        158        159        176        175        159        160        177        176        160        161        178        177        161        162        179        178        162        163        180        179        163        164        181        180        164        165        182        181        165        166        183        182        166        167        184        183        167        168        185        184        168        169        186        185        170        171        188        187        171        172        189        188        172        173        190        189        173        174        191        190        174        175        192        191        175        176        193        192        176        177        194        193        177        178        195        194        178        179        196        195        179        180        197        196        180        181        198        197        181        182        199        198        182        183        200        199        183        184        201        200        184        185        202        201        185        186        203        202        187        188        205        204        188        189        206        205        189        190        207        206        190        191        208        207        191        192        209        208        192        193        210        209        193        194        211        210        194        195        212        211        195        196        213        212        196        197        214        213        197        198        215        214        198        199        216        215        199        200        217        216        200        201        218        217        201        202        219        218        202        203        220        219        204        205        222        221        205        206        223        222        206        207        224        223        207        208        225        224        208        209        226        225        209        210        227        226        210        211        228        227        211        212        229        228        212        213        230        229        213        214        231        230        214        215        232        231        215        216        233        232        216        217        234        233        217        218        235        234        218        219        236        235        219        220        237        236        221        222        239        238        222        223        240        239        223        224        241        240        224        225        242        241        225        226        243        242        226        227        244        243        227        228        245        244        228        229        246        245        229        230        247        246        230        231        248        247        231        232        249        248        232        233        250        249        233        234        251        250        234        235        252        251        235        236        253        252        236        237        254        253        238        239        256        255        239        240        257        256        240        241        258        257        241        242        259        258        242        243        260        259        243        244        261        260        244        245        262        261        245        246        263        262        246        247        264        263        247        248        265        264        248        249        266        265        249        250        267        266        250        251        268        267        251        252        269        268        252        253        270        269        253        254        271        270        255        256        273        272        256        257        274        273        257        258        275        274        258        259        276        275        259        260        277        276        260        261        278        277        261        262        279        278        262        263        280        279        263        264        281        280        264        265        282        281        265        266        283        282        266        267        284        283        267        268        285        284        268        269        286        285        269        270        287        286        270        271        288        287        306        307          1          0        307        308          2          1        308        309          3          2        309        310          4          3        310        311          5          4        311        312          6          5        312        313          7          6        313        314          8          7        314        315          9          8        315        316         10          9        316        317         11         10        317        318         12         11        318        319         13         12        319        320         14         13        320        321         15         14        321        322         16         15        323        324        307        306        324        325        308        307        325        326        309        308        326        327        310        309        327        328        311        310        328        329        312        311        329        330        313        312        330        331        314        313        331        332        315        314        332        333        316        315        333        334        317        316        334        335        318        317        335        336        319        318        336        337        320        319        337        338        321        320        338        339        322        321        340        341        324        323        341        342        325        324        342        343        326        325        343        344        327        326        344        345        328        327        345        346        329        328        346        347        330        329        347        348        331        330        348        349        332        331        349        350        333        332        350        351        334        333        351        352        335        334        352        353        336        335        353        354        337        336        354        355        338        337        355        356        339        338        357        358        341        340        358        359        342        341        359        360        343        342        360        361        344        343        361        362        345        344        362        363        346        345        363        364        347        346        364        365        348        347        365        366        349        348        366        367        350        349        367        368        351        350        368        369        352        351        369        370        353        352        370        371        354        353        371        372        355        354        372        373        356        355        374        375        358        357        375        376        359        358        376        377        360        359        377        378        361        360        378        379        362        361        379        380        363        362        380        381        364        363        381        382        365        364        382        383        366        365        383        384        367        366        384        385        368        367        385        386        369        368        386        387        370        369        387        388        371        370        388        389        372        371        389        390        373        372        391        392        375        374        392        393        376        375        393        394        377        376        394        395        378        377        395        396        379        378        396        397        380        379        397        398        381        380        398        399        382        381        399        400        383        382        400        401        384        383        401        402        385        384        402        403        386        385        403        404        387        386        404        405        388        387        405        406        389        388        406        407        390        389        408        409        392        391        409        410        393        392        410        411        394        393        411        412        395        394        412        413        396        395        413        414        397        396        414        415        398        397        415        416        399        398        416        417        400        399        417        418        401        400        418        419        402        401        419        420        403        402        420        421        404        403        421        422        405        404        422        423        406        405        423        424        407        406        425        426        409        408        426        427        410        409        427        428        411        410        428        429        412        411        429        430        413        412        430        431        414        413        431        432        415        414        432        433        416        415        433        434        417        416        434        435        418        417        435        436        419        418        436        437        420        419        437        438        421        420        438        439        422        421        439        440        423        422        440        441        424        423        442        443        426        425        443        444        427        426        444        445        428        427        445        446        429        428        446        447        430        429        447        448        431        430        448        449        432        431        449        450        433        432        450        451        434        433        451        452        435        434        452        453        436        435        453        454        437        436        454        455        438        437        455        456        439        438        456        457        440        439        457        458        441        440        459        460        443        442        460        461        444        443        461        462        445        444        462        463        446        445        463        464        447        446        464        465        448        447        465        466        449        448        466        467        450        449        467        468        451        450        468        469        452        451        469        470        453        452        470        471        454        453        471        472        455        454        472        473        456        455        473        474        457        456        474        475        458        457        476        477        460        459        477        478        461        460        478        479        462        461        479        480        463        462        480        481        464        463        481        482        465        464        482        483        466        465        483        484        467        466        484        485        468        467        485        486        469        468        486        487        470        469        487        488        471        470        488        489        472        471        489        490        473        472        490        491        474        473        491        492        475        474        493        494        477        476        494        495        478        477        495        496        479        478        496        497        480        479        497        498        481        480        498        499        482        481        499        500        483        482        500        501        484        483        501        502        485        484        502        503        486        485        503        504        487        486        504        505        488        487        505        506        489        488        506        507        490        489        507        508        491        490        508        509        492        491        510        511        494        493        511        512        495        494        512        513        496        495        513        514        497        496        514        515        498        497        515        516        499        498        516        517        500        499        517        518        501        500        518        519        502        501        519        520        503        502        520        521        504        503        521        522        505        504        522        523        506        505        523        524        507        506        524        525        508        507        525        526        509        508        527        528        511        510        528        529        512        511        529        530        513        512        530        531        514        513        531        532        515        514        532        533        516        515        533        534        517        516        534        535        518        517        535        536        519        518        536        537        520        519        537        538        521        520        538        539        522        521        539        540        523        522        540        541        524        523        541        542        525        524        542        543        526        525        544        545        528        527        545        546        529        528        546        547        530        529        547        548        531        530        548        549        532        531        549        550        533        532        550        551        534        533        551        552        535        534        552        553        536        535        553        554        537        536        554        555        538        537        555        556        539        538        556        557        540        539        557        558        541        540        558        559        542        541        559        560        543        542        561        562        545        544        562        563        546        545        563        564        547        546        564        565        548        547        565        566        549        548        566        567        550        549        567        568        551        550        568        569        552        551        569        570        553        552        570        571        554        553        571        572        555        554        572        573        556        555        573        574        557        556        574        575        558        557        575        576        559        558        576        577        560        559        578        579        596        595        579        580        597        596        580        581        598        597        581        582        599        598        582        583        600        599        583        584        601        600        584        585        602        601        585        586        603        602        586        587        604        603        587        588        605        604        588        589        606        605        589        590        607        606        590        591        608        607        591        592        609        608        592        593        610        609        593        594        611        610        595        596        613        612        596        597        614        613        597        598        615        614        598        599        616        615        599        600        617        616        600        601        618        617        601        602        619        618        602        603        620        619        603        604        621        620        604        605        622        621        605        606        623        622        606        607        624        623        607        608        625        624        608        609        626        625        609        610        627        626        610        611        628        627        612        613        630        629        613        614        631        630        614        615        632        631        615        616        633        632        616        617        634        633        617        618        635        634        618        619        636        635        619        620        637        636        620        621        638        637        621        622        639        638        622        623        640        639        623        624        641        640        624        625        642        641        625        626        643        642        626        627        644        643        627        628        645        644        629        630        647        646        630        631        648        647        631        632        649        648        632        633        650        649        633        634        651        650        634        635        652        651        635        636        653        652        636        637        654        653        637        638        655        654        638        639        656        655        639        640        657        656        640        641        658        657        641        642        659        658        642        643        660        659        643        644        661        660        644        645        662        661        646        647        664        663        647        648        665        664        648        649        666        665        649        650        667        666        650        651        668        667        651        652        669        668        652        653        670        669        653        654        671        670        654        655        672        671        655        656        673        672        656        657        674        673        657        658        675        674        658        659        676        675        659        660        677        676        660        661        678        677        661        662        679        678        663        664        681        680        664        665        682        681        665        666        683        682        666        667        684        683        667        668        685        684        668        669        686        685        669        670        687        686        670        671        688        687        671        672        689        688        672        673        690        689        673        674        691        690        674        675        692        691        675        676        693        692        676        677        694        693        677        678        695        694        678        679        696        695        680        681        698        697        681        682        699        698        682        683        700        699        683        684        701        700        684        685        702        701        685        686        703        702        686        687        704        703        687        688        705        704        688        689        706        705        689        690        707        706        690        691        708        707        691        692        709        708        692        693        710        709        693        694        711        710        694        695        712        711        695        696        713        712        697        698        715        714        698        699        716        715        699        700        717        716        700        701        718        717        701        702        719        718        702        703        720        719        703        704        721        720        704        705        722        721        705        706        723        722        706        707        724        723        707        708        725        724        708        709        726        725        709        710        727        726        710        711        728        727        711        712        729        728        712        713        730        729        714        715        732        731        715        716        733        732        716        717        734        733        717        718        735        734        718        719        736        735        719        720        737        736        720        721        738        737        721        722        739        738        722        723        740        739        723        724        741        740        724        725        742        741        725        726        743        742        726        727        744        743        727        728        745        744        728        729        746        745        729        730        747        746        731        732        749        748        732        733        750        749        733        734        751        750        734        735        752        751        735        736        753        752        736        737        754        753        737        738        755        754        738        739        756        755        739        740        757        756        740        741        758        757        741        742        759        758        742        743        760        759        743        744        761        760        744        745        762        761        745        746        763        762        746        747        764        763        748        749        766        765        749        750        767        766        750        751        768        767        751        752        769        768        752        753        770        769        753        754        771        770        754        755        772        771        755        756        773        772        756        757        774        773        757        758        775        774        758        759        776        775        759        760        777        776        760        761        778        777        761        762        779        778        762        763        780        779        763        764        781        780        765        766        783        782        766        767        784        783        767        768        785        784        768        769        786        785        769        770        787        786        770        771        788        787        771        772        789        788        772        773        790        789        773        774        791        790        774        775        792        791        775        776        793        792        776        777        794        793        777        778        795        794        778        779        796        795        779        780        797        796        780        781        798        797        782        783        800        799        783        784        801        800        784        785        802        801        785        786        803        802        786        787        804        803        787        788        805        804        788        789        806        805        789        790        807        806        790        791        808        807        791        792        809        808        792        793        810        809        793        794        811        810        794        795        812        811        795        796        813        812        796        797        814        813        797        798        815        814        799        800        817        816        800        801        818        817        801        802        819        818        802        803        820        819        803        804        821        820        804        805        822        821        805        806        823        822        806        807        824        823        807        808        825        824        808        809        826        825        809        810        827        826        810        811        828        827        811        812        829        828        812        813        830        829        813        814        831        830        814        815        832        831        816        817        834        833        817        818        835        834        818        819        836        835        819        820        837        836        820        821        838        837        821        822        839        838        822        823        840        839        823        824        841        840        824        825        842        841        825        826        843        842        826        827        844        843        827        828        845        844        828        829        846        845        829        830        847        846        830        831        848        847        831        832        849        848        833        834        562        561        834        835        563        562        835        836        564        563        836        837        565        564        837        838        566        565        838        839        567        566        839        840        568        567        840        841        569        568        841        842        570        569        842        843        571        570        843        844        572        571        844        845        573        572        845        846        574        573        846        847        575        574        847        848        576        575        848        849        577        576        884        885        579        578        885        886        580        579        886        887        581        580        887        888        582        581        888        889        583        582        889        890        584        583        890        891        585        584        891        892        586        585        892        893        587        586        893        894        588        587        894        895        589        588        895        896        590        589        896        897        591        590        897        898        592        591        898        899        593        592        899        900        594        593        901        902        885        884        902        903        886        885        903        904        887        886        904        905        888        887        905        906        889        888        906        907        890        889        907        908        891        890        908        909        892        891        909        910        893        892        910        911        894        893        911        912        895        894        912        913        896        895        913        914        897        896        914        915        898        897        915        916        899        898        916        917        900        899        918        919        902        901        919        920        903        902        920        921        904        903        921        922        905        904        922        923        906        905        923        924        907        906        924        925        908        907        925        926        909        908        926        927        910        909        927        928        911        910        928        929        912        911        929        930        913        912        930        931        914        913        931        932        915        914        932        933        916        915        933        934        917        916        935        936        919        918        936        937        920        919        937        938        921        920        938        939        922        921        939        940        923        922        940        941        924        923        941        942        925        924        942        943        926        925        943        944        927        926        944        945        928        927        945        946        929        928        946        947        930        929        947        948        931        930        948        949        932        931        949        950        933        932        950        951        934        933        952        953        936        935        953        954        937        936        954        955        938        937        955        956        939        938        956        957        940        939        957        958        941        940        958        959        942        941        959        960        943        942        960        961        944        943        961        962        945        944        962        963        946        945        963        964        947        946        964        965        948        947        965        966        949        948        966        967        950        949        967        968        951        950        969        970        953        952        970        971        954        953        971        972        955        954        972        973        956        955        973        974        957        956        974        975        958        957        975        976        959        958        976        977        960        959        977        978        961        960        978        979        962        961        979        980        963        962        980        981        964        963        981        982        965        964        982        983        966        965        983        984        967        966        984        985        968        967        986        987        970        969        987        988        971        970        988        989        972        971        989        990        973        972        990        991        974        973        991        992        975        974        992        993        976        975        993        994        977        976        994        995        978        977        995        996        979        978        996        997        980        979        997        998        981        980        998        999        982        981        999       1000        983        982       1000       1001        984        983       1001       1002        985        984       1003       1004        987        986       1004       1005        988        987       1005       1006        989        988       1006       1007        990        989       1007       1008        991        990       1008       1009        992        991       1009       1010        993        992       1010       1011        994        993       1011       1012        995        994       1012       1013        996        995       1013       1014        997        996       1014       1015        998        997       1015       1016        999        998       1016       1017       1000        999       1017       1018       1001       1000       1018       1019       1002       1001       1020       1021       1004       1003       1021       1022       1005       1004       1022       1023       1006       1005       1023       1024       1007       1006       1024       1025       1008       1007       1025       1026       1009       1008       1026       1027       1010       1009       1027       1028       1011       1010       1028       1029       1012       1011       1029       1030       1013       1012       1030       1031       1014       1013       1031       1032       1015       1014       1032       1033       1016       1015       1033       1034       1017       1016       1034       1035       1018       1017       1035       1036       1019       1018       1037       1038       1021       1020       1038       1039       1022       1021       1039       1040       1023       1022       1040       1041       1024       1023       1041       1042       1025       1024       1042       1043       1026       1025       1043       1044       1027       1026       1044       1045       1028       1027       1045       1046       1029       1028       1046       1047       1030       1029       1047       1048       1031       1030       1048       1049       1032       1031       1049       1050       1033       1032       1050       1051       1034       1033       1051       1052       1035       1034       1052       1053       1036       1035       1054       1055       1038       1037       1055       1056       1039       1038       1056       1057       1040       1039       1057       1058       1041       1040       1058       1059       1042       1041       1059       1060       1043       1042       1060       1061       1044       1043       1061       1062       1045       1044       1062       1063       1046       1045       1063       1064       1047       1046       1064       1065       1048       1047       1065       1066       1049       1048       1066       1067       1050       1049       1067       1068       1051       1050       1068       1069       1052       1051       1069       1070       1053       1052       1071       1072       1055       1054       1072       1073       1056       1055       1073       1074       1057       1056       1074       1075       1058       1057       1075       1076       1059       1058       1076       1077       1060       1059       1077       1078       1061       1060       1078       1079       1062       1061       1079       1080       1063       1062       1080       1081       1064       1063       1081       1082       1065       1064       1082       1083       1066       1065       1083       1084       1067       1066       1084       1085       1068       1067       1085       1086       1069       1068       1086       1087       1070       1069       1088       1089       1072       1071       1089       1090       1073       1072       1090       1091       1074       1073       1091       1092       1075       1074       1092       1093       1076       1075       1093       1094       1077       1076       1094       1095       1078       1077       1095       1096       1079       1078       1096       1097       1080       1079       1097       1098       1081       1080       1098       1099       1082       1081       1099       1100       1083       1082       1100       1101       1084       1083       1101       1102       1085       1084       1102       1103       1086       1085       1103       1104       1087       1086       1105       1106       1089       1088       1106       1107       1090       1089       1107       1108       1091       1090       1108       1109       1092       1091       1109       1110       1093       1092       1110       1111       1094       1093       1111       1112       1095       1094       1112       1113       1096       1095       1113       1114       1097       1096       1114       1115       1098       1097       1115       1116       1099       1098       1116       1117       1100       1099       1117       1118       1101       1100       1118       1119       1102       1101       1119       1120       1103       1102       1120       1121       1104       1103       1122       1123       1106       1105       1123       1124       1107       1106       1124       1125       1108       1107       1125       1126       1109       1108       1126       1127       1110       1109       1127       1128       1111       1110       1128       1129       1112       1111       1129       1130       1113       1112       1130       1131       1114       1113       1131       1132       1115       1114       1132       1133       1116       1115       1133       1134       1117       1116       1134       1135       1118       1117       1135       1136       1119       1118       1136       1137       1120       1119       1137       1138       1121       1120        272        273       1123       1122        273        274       1124       1123        274        275       1125       1124        275        276       1126       1125        276        277       1127       1126        277        278       1128       1127        278        279       1129       1128        279        280       1130       1129        280        281       1131       1130        281        282       1132       1131        282        283       1133       1132        283        284       1134       1133        284        285       1135       1134        285        286       1136       1135        286        287       1137       1136        287        288       1138       1137 </DataArray>
<DataArray type="Int32"                                    Name="offsets"                                                      NumberOfComponents=" 1" format="ascii">
         4          8         12         16         20         24         28         32         36         40         44         48         52         56         60         64         68         72         76         80         84         88         92         96        100        104        108        112        116        120        124        128        132        136        140        144        148        152        156        160        164        168        172        176        180        184        188        192        196        200        204        208        212        216        220        224        228        232        236        240        244        248        252        256        260        264        268        272        276        280        284        288        292        296        300        304        308        312        316        320        324        328        332        336        340        344        348        352        356        360        364        368        372        376        380        384        388        392        396        400        404        408        412        416        420        424        428        432        436        440        444        448        452        456        460        464        468        472        476        480        484        488        492        496        500        504        508        512        516        520        524        528        532        536        540        544        548        552        556        560        564        568        572        576        580        584        588        592        596        600        604        608        612        616        620        624        628        632        636        640        644        648        652        656        660        664        668        672        676        680        684        688        692        696        700        704        708        712        716        720        724        728        732        736        740        744        748        752        756        760        764        768        772        776        780        784        788        792        796        800        804        808        812        816        820        824        828        832        836        840        844        848        852        856        860        864        868        872        876        880        884        888        892        896        900        904        908        912        916        920        924        928        932        936        940        944        948        952        956        960        964        968        972        976        980        984        988        992        996       1000       1004       1008       1012       1016       1020       1024       1028       1032       1036       1040       1044       1048       1052       1056       1060       1064       1068       1072       1076       1080       1084       1088       1092       1096       1100       1104       1108       1112       1116       1120       1124       1128       1132       1136       1140       1144       1148       1152       1156       1160       1164       1168       1172       1176       1180       1184       1188       1192       1196       1200       1204       1208       1212       1216       1220       1224       1228       1232       1236       1240       1244       1248       1252       1256       1260       1264       1268       1272       1276       1280       1284       1288       1292       1296       1300       1304       1308       1312       1316       1320       1324       1328       1332       1336       1340       1344       1348       1352       1356       1360       1364       1368       1372       1376       1380       1384       1388       1392       1396       1400       1404       1408       1412       1416       1420       1424       1428       1432       1436       1440       1444       1448       1452       1456       1460       1464       1468       1472       1476       1480       1484       1488       1492       1496       1500       1504       1508       1512       1516       1520       1524       1528       1532       1536       1540       1544       1548       1552       1556       1560       1564       1568       1572       1576       1580       1584       1588       1592       1596       1600       1604       1608       1612       1616       1620       1624       1628       1632       1636       1640       1644       1648       1652       1656       1660       1664       1668       1672       1676       1680       1684       1688       1692       1696       1700       1704       1708       1712       1716       1720       1724       1728       1732       1736       1740       1744       1748       1752       1756       1760       1764       1768       1772       1776       1780       1784       1788       1792       1796       1800       1804       1808       1812       1816       1820       1824       1828       1832       1836       1840       1844       1848       1852       1856       1860       1864       1868       1872       1876       1880       1884       1888       1892       1896       1900       1904       1908       1912       1916       1920       1924       1928       1932       1936       1940       1944       1948       1952       1956       1960       1964       1968       1972       1976       1980       1984       1988       1992       1996       2000       2004       2008       2012       2016       2020       2024       2028       2032       2036       2040       2044       2048       2052       2056       2060       2064       2068       2072       2076       2080       2084       2088       2092       2096       2100       2104       2108       2112       2116       2120       2124       2128       2132       2136       2140       2144       2148       2152       2156       2160       2164       2168       2172       2176       2180       2184       2188       2192       2196       2200       2204       2208       2212       2216       2220       2224       2228       2232       2236       2240       2244       2248       2252       2256       2260       2264       2268       2272       2276       2280       2284       2288       2292       2296       2300       2304       2308       2312       2316       2320       2324       2328       2332       2336       2340       2344       2348       2352       2356       2360       2364       2368       2372       2376       2380       2384       2388       2392       2396       2400       2404       2408       2412       2416       2420       2424       2428       2432       2436       2440       2444       2448       2452       2456       2460       2464       2468       2472       2476       2480       2484       2488       2492       2496       2500       2504       2508       2512       2516       2520       2524       2528       2532       2536       2540       2544       2548       2552       2556       2560       2564       2568       2572       2576       2580       2584       2588       2592       2596       2600       2604       2608       2612       2616       2620       2624       2628       2632       2636       2640       2644       2648       2652       2656       2660       2664       2668       2672       2676       2680       2684       2688       2692       2696       2700       2704       2708       2712       2716       2720       2724       2728       2732       2736       2740       2744       2748       2752       2756       2760       2764       2768       2772       2776       2780       2784       2788       2792       2796       2800       2804       2808       2812       2816       2820       2824       2828       2832       2836       2840       2844       2848       2852       2856       2860       2864       2868       2872       2876       2880       2884       2888       2892       2896       2900       2904       2908       2912       2916       2920       2924       2928       2932       2936       2940       2944       2948       2952       2956       2960       2964       2968       2972       2976       2980       2984       2988       2992       2996       3000       3004       3008       3012       3016       3020       3024       3028       3032       3036       3040       3044       3048       3052       3056       3060       3064       3068       3072       3076       3080       3084       3088       3092       3096       3100       3104       3108       3112       3116       3120       3124       3128       3132       3136       3140       3144       3148       3152       3156       3160       3164       3168       3172       3176       3180       3184       3188       3192       3196       3200       3204       3208       3212       3216       3220       3224       3228       3232       3236       3240       3244       3248       3252       3256       3260       3264       3268       3272       3276       3280       3284       3288       3292       3296       3300       3304       3308       3312       3316       3320       3324       3328       3332       3336       3340       3344       3348       3352       3356       3360       3364       3368       3372       3376       3380       3384       3388       3392       3396       3400       3404       3408       3412       3416       3420       3424       3428       3432       3436       3440       3444       3448       3452       3456       3460       3464       3468       3472       3476       3480       3484       3488       3492       3496       3500       3504       3508       3512       3516       3520       3524       3528       3532       3536       3540       3544       3548       3552       3556       3560       3564       3568       3572       3576       3580       3584       3588       3592       3596       3600       3604       3608       3612       3616       3620       3624       3628       3632       3636       3640       3644       3648       3652       3656       3660       3664       3668       3672       3676       3680       3684       3688       3692       3696       3700       3704       3708       3712       3716       3720       3724       3728       3732       3736       3740       3744       3748       3752       3756       3760       3764       3768       3772       3776       3780       3784       3788       3792       3796       3800       3804       3808       3812       3816       3820       3824       3828       3832       3836       3840       3844       3848       3852       3856       3860       3864       3868       3872       3876       3880       3884       3888       3892       3896       3900       3904       3908       3912       3916       3920       3924       3928       3932       3936       3940       3944       3948       3952       3956       3960       3964       3968       3972       3976       3980       3984       3988       3992       3996       4000       4004       4008       4012       4016       4020       4024       4028       4032       4036       4040       4044       4048       4052       4056       4060       4064       4068       4072       4076       4080       4084       4088       4092       4096 </DataArray>
<DataArray type="UInt8"                                    Name="types"                                                      NumberOfComponents=" 1" format="ascii">
         9          9          9          9          9          9          9          9          9          9          9          9          9          9          9          9          9          9          9          9          9          9          9          9          9          9          9          9          9          9          9          9          9          9          9          9          9          9          9          9          9          9          9          9          9          9          9          9          9          9          9          9          9          9          9          9          9          9          9          9          9          9          9          9          9          9          9          9          9          9          9          9          9          9          9          9          9          9          9          9          9          9          9          9          9          9          9          9          9          9          9          9          9          9          9          9          9          9          9          9          9          9          9          9          9          9          9          9          9          9          9          9          9          9          9          9          9          9          9          9          9          9          9          9          9          9          9          9          9          9          9          9          9          9          9          9          9          9          9          9          9          9          9          9          9          9          9          9          9          9          9          9          9          9          9          9          9          9          9          9          9          9          9          9          9          9          9          9          9          9          9          9          9          9          9          9          9          9          9          9          9          9          9          9          9          9          9          9          9          9          9          9          9          9          9          9          9          9          9          9          9          9          9          9          9          9          9          9          9          9          9          9          9          9          9          9          9          9          9          9          9          9          9          9          9          9          9          9          9          9          9          9          9          9          9          9          9          9          9          9          9          9          9          9          9          9          9          9          9          9          9          9          9          9          9          9          9          9          9          9          9          9          9          9          9          9          9          9          9          9          9          9          9          9          9          9          9          9          9          9          9          9          9          9          9          9          9          9          9          9          9          9          9          9          9          9          9          9          9          9          9          9          9          9          9          9          9          9          9          9          9          9          9          9          9          9          9          9          9          9          9          9          9          9          9          9          9          9          9          9          9          9          9          9          9          9          9          9          9          9          9          9          9          9          9          9          9          9          9          9          9          9          9          9          9          9          9          9          9          9          9          9          9          9          9          9          9          9          9          9          9          9          9          9          9          9          9          9          9          9          9          9          9          9          9          9          9          9          9          9          9          9          9          9          9          9          9          9          9          9          9          9          9          9          9          9          9          9          9          9          9          9          9          9          9          9          9          9          9          9          9          9          9          9          9          9          9          9          9          9          9          9          9          9          9          9          9          9          9          9          9          9          9          9          9          9          9          9          9          9          9          9          9          9          9          9          9          9          9          9          9          9          9          9          9          9          9          9          9          9          9          9          9          9          9          9          9          9          9          9          9          9          9          9          9          9          9          9          9          9          9          9          9          9          9          9          9          9          9          9          9          9          9          9          9          9          9          9          9          9          9          9          9          9          9          9          9          9          9          9          9          9          9          9          9          9          9          9          9          9          9          9          9          9          9          9          9          9          9          9          9          9          9          9          9          9          9          9          9          9          9          9          9          9          9          9          9          9          9          9          9          9          9          9          9          9          9          9          9          9          9          9          9          9          9          9          9          9          9          9          9          9          9          9          9          9          9          9          9          9          9          9          9          9          9          9          9          9          9          9          9          9          9          9          9          9          9          9          9          9          9          9          9          9          9          9          9          9          9          9          9          9          9          9          9          9          9          9          9          9          9          9          9          9          9          9          9          9          9          9          9          9          9          9          9          9          9          9          9          9          9          9          9          9          9          9          9          9          9          9          9          9          9          9          9          9          9          9          9          9          9          9          9          9          9          9          9          9          9          9          9          9          9          9          9          9          9          9          9          9          9          9          9          9          9          9          9          9          9          9          9          9          9          9          9          9          9          9          9          9          9          9          9          9          9          9          9          9          9          9          9          9          9          9          9          9          9          9          9          9          9          9          9          9          9          9          9          9          9          9          9          9          9          9          9          9          9          9          9          9          9          9          9          9          9          9          9          9          9          9          9          9          9          9          9          9          9          9          9          9          9          9          9          9          9          9          9          9          9          9          9          9          9          9          9          9          9          9          9          9          9          9          9          9          9          9          9          9          9          9          9          9          9          9          9          9          9          9          9          9          9          9          9          9          9          9          9          9          9          9          9          9          9          9          9          9          9          9          9          9          9          9          9          9          9          9          9          9          9          9          9          9          9          9          9          9          9          9          9          9          9          9          9          9          9          9          9          9          9          9          9          9          9          9          9          9          9          9          9          9          9          9          9          9          9          9          9          9          9          9          9          9          9          9          9          9          9          9          9          9          9          9          9          9          9          9          9          9          9          9          9          9          9          9          9          9          9          9          9          9          9          9          9          9          9          9          9          9          9          9          9          9          9          9          9          9          9          9          9          9          9          9          9          9          9          9          9          9          9          9          9          9          9          9          9          9          9          9          9          9          9          9          9          9          9          9          9          9          9          9          9          9          9          9          9          9          9          9          9          9          9          9          9          9          9          9          9          9          9          9          9          9          9          9          9          9          9          9          9          9          9          9          9          9          9          9          9          9          9          9          9          9          9          9          9          9          9          9          9          9          9          9          9          9          9          9          9          9          9          9          9          9          9          9 </DataArray>
</Cells>
<CellData>
<DataArray type="Int32"                                    Name="material"                                                      NumberOfComponents=" 1" format="ascii">
         1          1          1          1          1          1          1          1          1          1          1          1          1          1          1          1          1          1          1          1          1          1          1          1          1          1          1          1          1          1          1          1          1          1          1          1          1          1          1          1          1          1          1          1          1          1          1          1          1          1          1          1          1          1          1          1          1          1          1          1          1          1          1          1          1          1          1          1          1          1          1          1          1          1          1          1          1          1          1          1          1          1          1          1          1          1          1          1          1          1          1          1          1          1          1          1          1          1          1          1          1          1          1          1          1          1          1          1          1          1          1          1          1          1          1          1          1          1          1          1          1          1          1          1          1          1          1          1          1          1          1          1          1          1          1          1          1          1          1          1          1          1          1          1          1          1          1          1          1          1          1          1          1          1          1          1          1          1          1          1          1          1          1          1          1          1          1          1          1          1          1          1          1          1          1          1          1          1          1          1          1          1          1          1          1          1          1          1          1          1          1          1          1          1          1          1          1          1          1          1          1          1          1          1          1          1          1          1          1          1          1          1          1          1          1          1          1          1          1          1          1          1          1          1          1          1          1          1          1          1          1          1          1          1          1          1          1          1          1          1          1          1          1          1          1          1          1          1          1          1          1          1          1          1          1          1          1          1          1          1          1          1          1          1          1          1          1          1          1          1          1          1          1          1          1          1          1          1          1          1          1          1          1          1          1          1          1          1          1          1          1          1          1          1          1          1          1          1          1          1          1          1          1          1          1          1          1          1          1          1          1          1          1          1          1          1          1          1          1          1          1          1          1          1          1          1          1          1          1          1          1          1          1          1          1          1          1          1          1          1          1          1          1          1          1          1          1          1          1          1          1          1          1          1          1          1          1          1          1          1          1          1          1          1          1          1          1          1          1          1          1          1          1          1          1          1          1          1          1          1          1          1          1          1          1          1          1          1          1          1          1          1          1          1          1          1          1          1          1          1          1          1          1          1          1          1          1          1          1          1          1          1          1          1          1          1          1          1          1          1          1          1          1          1          1          1          1          1          1          1          1          1          1          1          1          1          1          1          1          1          1          1          1          1          1          1          1          1          1          1          1          1          1          1          1          1          1          1          1          1          1          1          1          1          1          1          1          1          1          1          1          1          1          1          1          1          1          1          1          1          1          1          1          1          1          1          1          1          1          1          1          1          1          1          1          1          1          1          1          1          1          1          1          1          1          1          1          1          1          1          1          1          1          1          1          1          1          1          1          1          1          1          1          1          1          1          1          1          1          1          1          1          1          1          1          1          1          1          1          1          1          1          1          1          1          1          1          1          1          1          1          1          1          1          1          1          1          1          1          1          1          1          1          1          1          1          1          1          1          1          1          1          1          1          1          1          1          1          1          1          1          1          1          1          1          1          1          1          1          1          1          1          1          1          1          1          1          1          1          1          1          1          1          1          1          1          1          1          1          1          1          1          1          1          1          1          1          1          1          1          1          1          1          1          1          1          1          1          1          1          1          1          1          1          1          1          1          1          1          1          1          1          1          1          1          1          1          1          1          1          1          1          1          1          1          1          1          1          1          1          1          1          1          1          1          1          1          1          1          1          1          1          1          1          1          1          1          1          1          1          1          1          1          1          1          1          1          1          1          1          1          1          1          1          1          1          1          1          1          1          1          1          1          1          1          1          1          1          1          1          1          1          1          1          1          1          1          1          1          1          1          1          1          1          1          1          1          1          1          1          1          1          1          1          1          1          1          1          1          1          1          1          1          1          1          1          1          1          1          1          1          1          1          1          1          1          1          1          1          1          1          1          1          1          1          1          1          1          1          1          1          1          1          1          1          1          1          1          1          1          1          1          1          1          1          1          1          1          1          1          1          1          1          1          1          1          1          1          1          1          1          1          1          1          1          1          1          1          1          1          1          1          1          1          1          1          1          1          1          1          1          1          1          1          1          1          1          1          1          1          1          1          1          1          1          1          1          1          1          1          1          1          1          1          1          1          1          1          1          1          1          1          1          1          1          1          1          1          1          1          1          1          1          1          1          1          1          1          1          1          1          1          1          1          1          1          1          1          1          1          1          1          1          1          1          1          1          1          1          1          1          1          1          1          1          1          1          1          1          1          1          1          1          1          1          1          1          1          1          1          1          1          1          1          1          1          1          1          1          1          1          1          1          1          1          1          1          1          1          1          1          1          1          1          1          1          1          1          1          1          1          1          1          1          1          1          1          1          1          1          1          1          1          1          1          1          1          1          1          1          1          1          1          1          1          1          1          1          1          1          1          1          1          1          1          1          1          1          1          1          1          1          1          1          1          1          1          1          1          1          1          1          1          1          1          1          1          1          1          1          1          1          1          1          1          1          1          1          1          1          1          1          1          1          1          1          1          1          1          1          1          1          1          1 </DataArray>
</CellData>
<PointData>
<DataArray type="Float64"                                    Name="u"                                                      NumberOfComponents=" 3" format="ascii">
              0.000002237               0.000000000               1.000000000               0.000000695               0.000000000               1.000000000               0.000000127              -0.000000000               1.000000000               0.000000018              -0.000000000               1.000000000               0.000000037               0.000000000               1.000000000               0.000000009               0.000000000               1.000000000              -0.000000077               0.000000000               1.000000000              -0.000000163               0.000000000               1.000000000              -0.000000150               0.000000000               1.000000000              -0.000000015               0.000000000               1.000000000               0.000000180               0.000000000               1.000000000               0.000000352               0.000000000               1.000000000               0.000000427               0.000000000               1.000000000               0.000000294               0.000000000               1.000000000              -0.000000158               0.000000000               1.000000000              -0.000000988               0.000000000               1.000000000              -0.000002258               0.000000000               1.000000000               0.000002190               0.000004044               1.000000000               0.000000674               0.000003707               1.000000000               0.000000140               0.000003741               1.000000000               0.000000044               0.000003993               1.000000000               0.000000043               0.000004486               1.000000000              -0.000000023               0.000005090               1.000000000              -0.000000118               0.000005663               1.000000000              -0.000000128               0.000005940               1.000000000              -0.000000102               0.000006202               1.000000000              -0.000000090               0.000006457               1.000000000              -0.000000054               0.000006717               1.000000000              -0.000000076               0.000007139               1.000000000              -0.000000249               0.000007748               1.000000000              -0.000000626               0.000008590               1.000000000              -0.000001305               0.000009690               1.000000000              -0.000002360               0.000011036               1.000000000              -0.000003840               0.000012614               1.000000000               0.000002061               0.000008066               1.000000000               0.000000675               0.000007409               1.000000000               0.000000206               0.000007444               1.000000000               0.000000084               0.000007951               1.000000000               0.000000044               0.000008957               1.000000000              -0.000000026               0.000010175               1.000000000              -0.000000142               0.000011252               1.000000000              -0.000000220               0.000011883               1.000000000              -0.000000305               0.000012543               1.000000000              -0.000000418               0.000013229               1.000000000              -0.000000632               0.000013976               1.000000000              -0.000001070               0.000015008               1.000000000              -0.000001766               0.000016377               1.000000000              -0.000002740               0.000018166               1.000000000              -0.000004050               0.000020418               1.000000000              -0.000005750               0.000023144               1.000000000              -0.000007873               0.000026338               1.000000000               0.000001825               0.000012008               1.000000000               0.000000684               0.000011015               1.000000000               0.000000336               0.000011083               1.000000000               0.000000228               0.000011936               1.000000000               0.000000086               0.000013439               1.000000000              -0.000000120               0.000015203               1.000000000              -0.000000299               0.000016805               1.000000000              -0.000000412               0.000017950               1.000000000              -0.000000569               0.000019247               1.000000000              -0.000000964               0.000020646               1.000000000              -0.000001686               0.000022267               1.000000000              -0.000002777               0.000024279               1.000000000              -0.000004295               0.000026747               1.000000000              -0.000006199               0.000029770               1.000000000              -0.000008488               0.000033401               1.000000000              -0.000011206               0.000037690               1.000000000              -0.000014335               0.000042684               1.000000000               0.000001573               0.000015878               1.000000000               0.000000765               0.000014493               1.000000000               0.000000577               0.000014656               1.000000000               0.000000443               0.000015951               1.000000000               0.000000114               0.000017968               1.000000000              -0.000000225               0.000020370               1.000000000              -0.000000553               0.000022506               1.000000000              -0.000000925               0.000024370               1.000000000              -0.000001471               0.000026551               1.000000000              -0.000002353               0.000029079               1.000000000              -0.000003636               0.000032013               1.000000000              -0.000005442               0.000035515               1.000000000              -0.000007781               0.000039628               1.000000000              -0.000010583               0.000044397               1.000000000              -0.000013874               0.000049874               1.000000000              -0.000017643               0.000056092               1.000000000              -0.000021833               0.000063086               1.000000000               0.000001338               0.000019669               1.000000000               0.000000996               0.000017902               1.000000000               0.000000942               0.000018231               1.000000000               0.000000685               0.000020025               1.000000000               0.000000176               0.000022712               1.000000000              -0.000000457               0.000025809               1.000000000              -0.000001111               0.000028718               1.000000000              -0.000001745               0.000031682               1.000000000              -0.000002683               0.000035126               1.000000000              -0.000004110               0.000039204               1.000000000              -0.000006099               0.000043870               1.000000000              -0.000008694               0.000049281               1.000000000              -0.000011846               0.000055455               1.000000000              -0.000015519               0.000062399               1.000000000              -0.000019712               0.000070145               1.000000000              -0.000024418               0.000078656               1.000000000              -0.000029570               0.000087919               1.000000000               0.000001099               0.000023337               1.000000000               0.000001346               0.000021219               1.000000000               0.000001375               0.000021862               1.000000000               0.000000905               0.000024261               1.000000000               0.000000085               0.000027730               1.000000000              -0.000000792               0.000031784               1.000000000              -0.000001584               0.000035991               1.000000000              -0.000002555               0.000040331               1.000000000              -0.000004002               0.000045520               1.000000000              -0.000006082               0.000051451               1.000000000              -0.000008806               0.000058179               1.000000000              -0.000012212               0.000065765               1.000000000              -0.000016169               0.000074248               1.000000000              -0.000020649               0.000083619               1.000000000              -0.000025703               0.000093801               1.000000000              -0.000031247               0.000104773               1.000000000              -0.000037237               0.000116477               1.000000000               0.000000979               0.000026916               1.000000000               0.000001784               0.000024465               1.000000000               0.000001772               0.000025542               1.000000000               0.000001050               0.000028736               1.000000000              -0.000000017               0.000033280               1.000000000              -0.000001106               0.000038615               1.000000000              -0.000002234               0.000044230               1.000000000              -0.000003615               0.000050317               1.000000000              -0.000005583               0.000057532               1.000000000              -0.000008291               0.000065608               1.000000000              -0.000011701               0.000074574               1.000000000              -0.000015752               0.000084627               1.000000000              -0.000020371               0.000095655               1.000000000              -0.000025615               0.000107644               1.000000000              -0.000031429               0.000120549               1.000000000              -0.000037740               0.000134281               1.000000000              -0.000044529               0.000148797               1.000000000               0.000000901               0.000030283               1.000000000               0.000002265               0.000027716               1.000000000               0.000002125               0.000029359               1.000000000               0.000001064               0.000033504               1.000000000              -0.000000296               0.000039310               1.000000000              -0.000001717               0.000046084               1.000000000              -0.000003051               0.000053369               1.000000000              -0.000004701               0.000061528               1.000000000              -0.000007209               0.000070865               1.000000000              -0.000010495               0.000081263               1.000000000              -0.000014463               0.000092765               1.000000000              -0.000019023               0.000105538               1.000000000              -0.000024232               0.000119506               1.000000000              -0.000030074               0.000134558               1.000000000              -0.000036447               0.000150750               1.000000000              -0.000043349               0.000167911               1.000000000              -0.000050606               0.000185732               1.000000000               0.000000740               0.000033532               1.000000000               0.000002573               0.000031128               1.000000000               0.000002558               0.000032429               1.000000000               0.000001580               0.000036214               1.000000000               0.000000206               0.000041707               1.000000000              -0.000001270               0.000048421               1.000000000              -0.000002500               0.000055747               1.000000000              -0.000003698               0.000063738               1.000000000              -0.000005408               0.000072668               1.000000000              -0.000007833               0.000082563               1.000000000              -0.000010720               0.000093392               1.000000000              -0.000014157               0.000105256               1.000000000              -0.000018107               0.000118211               1.000000000              -0.000022515               0.000132279               1.000000000              -0.000027413               0.000147309               1.000000000              -0.000032783               0.000163462               1.000000000              -0.000038563               0.000180568               1.000000000               0.000000669               0.000036678               1.000000000               0.000002744               0.000034557               1.000000000               0.000002826               0.000035642               1.000000000               0.000001987               0.000039031               1.000000000               0.000000761               0.000044253               1.000000000              -0.000000621               0.000050724               1.000000000              -0.000001833               0.000057970               1.000000000              -0.000002768               0.000065886               1.000000000              -0.000003899               0.000074586               1.000000000              -0.000005554               0.000084153               1.000000000              -0.000007615               0.000094539               1.000000000              -0.000010099               0.000105741               1.000000000              -0.000012963               0.000117861               1.000000000              -0.000016141               0.000130973               1.000000000              -0.000019679               0.000145023               1.000000000              -0.000023572               0.000160019               1.000000000              -0.000027889               0.000175891               1.000000000               0.000000593               0.000039564               1.000000000               0.000002675               0.000037834               1.000000000               0.000002902               0.000038863               1.000000000               0.000002324               0.000041995               1.000000000               0.000001303               0.000046866               1.000000000               0.000000066               0.000052952               1.000000000              -0.000001075               0.000060012               1.000000000              -0.000001962               0.000067821               1.000000000              -0.000002769               0.000076432               1.000000000              -0.000003802               0.000085823               1.000000000              -0.000005164               0.000095997               1.000000000              -0.000006810               0.000106820               1.000000000              -0.000008740               0.000118367               1.000000000              -0.000010900               0.000130730               1.000000000              -0.000013240               0.000143928               1.000000000              -0.000015800               0.000157942               1.000000000              -0.000018642               0.000172786               1.000000000               0.000000449               0.000042045               1.000000000               0.000002436               0.000040896               1.000000000               0.000002799               0.000041964               1.000000000               0.000002412               0.000044876               1.000000000               0.000001611               0.000049325               1.000000000               0.000000606               0.000055049               1.000000000              -0.000000395               0.000061924               1.000000000              -0.000001229               0.000069680               1.000000000              -0.000001864               0.000078207               1.000000000              -0.000002500               0.000087457               1.000000000              -0.000003315               0.000097452               1.000000000              -0.000004283               0.000108083               1.000000000              -0.000005446               0.000119334               1.000000000              -0.000006778               0.000131208               1.000000000              -0.000008196               0.000143818               1.000000000              -0.000009709               0.000157193               1.000000000              -0.000011260               0.000171345               1.000000000               0.000000313               0.000044088               1.000000000               0.000002029               0.000043551               1.000000000               0.000002409               0.000044679               1.000000000               0.000002194               0.000047430               1.000000000               0.000001664               0.000051604               1.000000000               0.000000922               0.000057072               1.000000000               0.000000073               0.000063681               1.000000000              -0.000000666               0.000071265               1.000000000              -0.000001168               0.000079659               1.000000000              -0.000001523               0.000088805               1.000000000              -0.000001965               0.000098675               1.000000000              -0.000002484               0.000109233               1.000000000              -0.000003086               0.000120386               1.000000000              -0.000003796               0.000132029               1.000000000              -0.000004568               0.000144313               1.000000000              -0.000005329               0.000157255               1.000000000              -0.000006022               0.000170835               1.000000000               0.000000200               0.000045606               1.000000000               0.000001432               0.000045548               1.000000000               0.000001769               0.000046797               1.000000000               0.000001703               0.000049490               1.000000000               0.000001382               0.000053488               1.000000000               0.000000848               0.000058747               1.000000000               0.000000273               0.000065132               1.000000000              -0.000000248               0.000072515               1.000000000              -0.000000616               0.000080757               1.000000000              -0.000000834               0.000089814               1.000000000              -0.000001042               0.000099613               1.000000000              -0.000001286               0.000110097               1.000000000              -0.000001539               0.000121144               1.000000000              -0.000001847               0.000132703               1.000000000              -0.000002219               0.000144815               1.000000000              -0.000002567               0.000157467               1.000000000              -0.000002883               0.000170656               1.000000000               0.000000091               0.000046534               1.000000000               0.000000731               0.000046799               1.000000000               0.000000957               0.000048161               1.000000000               0.000000930               0.000050824               1.000000000               0.000000755               0.000054720               1.000000000               0.000000521               0.000059836               1.000000000               0.000000223               0.000066050               1.000000000              -0.000000056               0.000073290               1.000000000              -0.000000257               0.000081475               1.000000000              -0.000000362               0.000090452               1.000000000              -0.000000429               0.000100146               1.000000000              -0.000000511               0.000110540               1.000000000              -0.000000601               0.000121480               1.000000000              -0.000000715               0.000132978               1.000000000              -0.000000857               0.000144955               1.000000000              -0.000001001               0.000157404               1.000000000              -0.000001169               0.000170397               1.000000000               0.000000000               0.000046862               1.000000000              -0.000000000               0.000047254               1.000000000               0.000000000               0.000048631               1.000000000               0.000000000               0.000051262               1.000000000               0.000000000               0.000055157               1.000000000               0.000000000               0.000060223               1.000000000              -0.000000000               0.000066389               1.000000000              -0.000000000               0.000073584               1.000000000              -0.000000000               0.000081700               1.000000000              -0.000000000               0.000090628               1.000000000              -0.000000000               0.000100308               1.000000000              -0.000000000               0.000110670               1.000000000              -0.000000000               0.000121549               1.000000000              -0.000000000               0.000133014               1.000000000               0.000000000               0.000144930               1.000000000              -0.000000000               0.000157293               1.000000000              -0.000000000               0.000170223               1.000000000               0.000002237               0.000000000               1.000000000               0.000000695               0.000000000               1.000000000               0.000000127              -0.000000000               1.000000000               0.000000018              -0.000000000               1.000000000               0.000000037               0.000000000               1.000000000               0.000000009               0.000000000               1.000000000              -0.000000077               0.000000000               1.000000000              -0.000000163               0.000000000               1.000000000              -0.000000150               0.000000000               1.000000000              -0.000000015               0.000000000               1.000000000               0.000000180               0.000000000               1.000000000               0.000000352               0.000000000               1.000000000               0.000000427               0.000000000               1.000000000               0.000000294               0.000000000               1.000000000              -0.000000158               0.000000000               1.000000000              -0.000000988               0.000000000               1.000000000              -0.000002258               0.000000000               1.000000000               0.000002190              -0.000004044               1.000000000               0.000000674              -0.000003707               1.000000000               0.000000140              -0.000003741               1.000000000               0.000000044              -0.000003993               1.000000000               0.000000043              -0.000004486               1.000000000              -0.000000023              -0.000005090               1.000000000              -0.000000118              -0.000005663               1.000000000              -0.000000128              -0.000005940               1.000000000              -0.000000102              -0.000006202               1.000000000              -0.000000090              -0.000006457               1.000000000              -0.000000054              -0.000006717               1.000000000              -0.000000076              -0.000007139               1.000000000              -0.000000249              -0.000007748               1.000000000              -0.000000626              -0.000008590               1.000000000              -0.000001305              -0.000009690               1.000000000              -0.000002360              -0.000011036               1.000000000              -0.000003840              -0.000012614               1.000000000               0.000002061              -0.000008066               1.000000000               0.000000675              -0.000007409               1.000000000               0.000000206              -0.000007444               1.000000000               0.000000084              -0.000007951               1.000000000               0.000000044              -0.000008957               1.000000000              -0.000000026              -0.000010175               1.000000000              -0.000000142              -0.000011252               1.000000000              -0.000000220              -0.000011883               1.000000000              -0.000000305              -0.000012543               1.000000000              -0.000000418              -0.000013229               1.000000000              -0.000000632              -0.000013976               1.000000000              -0.000001070              -0.000015008               1.000000000              -0.000001766              -0.000016377               1.000000000              -0.000002740              -0.000018166               1.000000000              -0.000004050              -0.000020418               1.000000000              -0.000005750              -0.000023144               1.000000000              -0.000007873              -0.000026338               1.000000000               0.000001825              -0.000012008               1.000000000               0.000000684              -0.000011015               1.000000000               0.000000336              -0.000011083               1.000000000               0.000000228              -0.000011936               1.000000000               0.000000086              -0.000013439               1.000000000              -0.000000120              -0.000015203               1.000000000              -0.000000299              -0.000016805               1.000000000              -0.000000412              -0.000017950               1.000000000              -0.000000569              -0.000019247               1.000000000              -0.000000964              -0.000020646               1.000000000              -0.000001686              -0.000022267               1.000000000              -0.000002777              -0.000024279               1.000000000              -0.000004295              -0.000026747               1.000000000              -0.000006199              -0.000029770               1.000000000              -0.000008488              -0.000033401               1.000000000              -0.000011206              -0.000037690               1.000000000              -0.000014335              -0.000042684               1.000000000               0.000001573              -0.000015878               1.000000000               0.000000765              -0.000014493               1.000000000               0.000000577              -0.000014656               1.000000000               0.000000443              -0.000015951               1.000000000               0.000000114              -0.000017968               1.000000000              -0.000000225              -0.000020370               1.000000000              -0.000000553              -0.000022506               1.000000000              -0.000000925              -0.000024370               1.000000000              -0.000001471              -0.000026551               1.000000000              -0.000002353              -0.000029079               1.000000000              -0.000003636              -0.000032013               1.000000000              -0.000005442              -0.000035515               1.000000000              -0.000007781              -0.000039628               1.000000000              -0.000010583              -0.000044397               1.000000000              -0.000013874              -0.000049874               1.000000000              -0.000017643              -0.000056092               1.000000000              -0.000021833              -0.000063086               1.000000000               0.000001338              -0.000019669               1.000000000               0.000000996              -0.000017902               1.000000000               0.000000942              -0.000018231               1.000000000               0.000000685              -0.000020025               1.000000000               0.000000176              -0.000022712               1.000000000              -0.000000457              -0.000025809               1.000000000              -0.000001111              -0.000028718               1.000000000              -0.000001745              -0.000031682               1.000000000              -0.000002683              -0.000035126               1.000000000              -0.000004110              -0.000039204               1.000000000              -0.000006099              -0.000043870               1.000000000              -0.000008694              -0.000049281               1.000000000              -0.000011846              -0.000055455               1.000000000              -0.000015519              -0.000062399               1.000000000              -0.000019712              -0.000070145               1.000000000              -0.000024418              -0.000078656               1.000000000              -0.000029570              -0.000087919               1.000000000               0.000001099              -0.000023337               1.000000000               0.000001346              -0.000021219               1.000000000               0.000001375              -0.000021862               1.000000000               0.000000905              -0.000024261               1.000000000               0.000000085              -0.000027730               1.000000000              -0.000000792              -0.000031784               1.000000000              -0.000001584              -0.000035991               1.000000000              -0.000002555              -0.000040331               1.000000000              -0.000004002              -0.000045520               1.000000000              -0.000006082              -0.000051451               1.000000000              -0.000008806              -0.000058179               1.000000000              -0.000012212              -0.000065765               1.000000000              -0.000016169              -0.000074248               1.000000000              -0.000020649              -0.000083619               1.000000000              -0.000025703              -0.000093801               1.000000000              -0.000031247              -0.000104773               1.000000000              -0.000037237              -0.000116477               1.000000000               0.000000979              -0.000026916               1.000000000               0.000001784              -0.000024465               1.000000000               0.000001772              -0.000025542               1.000000000               0.000001050              -0.000028736               1.000000000              -0.000000017              -0.000033280               1.000000000              -0.000001106              -0.000038615               1.000000000              -0.000002234              -0.000044230               1.000000000              -0.000003615              -0.000050317               1.000000000              -0.000005583              -0.000057532               1.000000000              -0.000008291              -0.000065608               1.000000000              -0.000011701              -0.000074574               1.000000000              -0.000015752              -0.000084627               1.000000000              -0.000020371              -0.000095655               1.000000000              -0.000025615              -0.000107644               1.000000000              -0.000031429              -0.000120549               1.000000000              -0.000037740              -0.000134281               1.000000000              -0.000044529              -0.000148797               1.000000000               0.000000901              -0.000030283               1.000000000               0.000002265              -0.000027716               1.000000000               0.000002125              -0.000029359               1.000000000               0.000001064              -0.000033504               1.000000000              -0.000000296              -0.000039310               1.000000000              -0.000001717              -0.000046084               1.000000000              -0.000003051              -0.000053369               1.000000000              -0.000004701              -0.000061528               1.000000000              -0.000007209              -0.000070865               1.000000000              -0.000010495              -0.000081263               1.000000000              -0.000014463              -0.000092765               1.000000000              -0.000019023              -0.000105538               1.000000000              -0.000024232              -0.000119506               1.000000000              -0.000030074              -0.000134558               1.000000000              -0.000036447              -0.000150750               1.000000000              -0.000043349              -0.000167911               1.000000000              -0.000050606              -0.000185732               1.000000000               0.000000740              -0.000033532               1.000000000               0.000002573              -0.000031128               1.000000000               0.000002558              -0.000032429               1.000000000               0.000001580              -0.000036214               1.000000000               0.000000206              -0.000041707               1.000000000              -0.000001270              -0.000048421               1.000000000              -0.000002500              -0.000055747               1.000000000              -0.000003698              -0.000063738               1.000000000              -0.000005408              -0.000072668               1.000000000              -0.000007833              -0.000082563               1.000000000              -0.000010720              -0.000093392               1.000000000              -0.000014157              -0.000105256               1.000000000              -0.000018107              -0.000118211               1.000000000              -0.000022515              -0.000132279               1.000000000              -0.000027413              -0.000147309               1.000000000              -0.000032783              -0.000163462               1.000000000              -0.000038563              -0.000180568               1.000000000               0.000000669              -0.000036678               1.000000000               0.000002744              -0.000034557               1.000000000               0.000002826              -0.000035642               1.000000000               0.000001987              -0.000039031               1.000000000               0.000000761              -0.000044253               1.000000000              -0.000000621              -0.000050724               1.000000000              -0.000001833              -0.000057970               1.000000000              -0.000002768              -0.000065886               1.000000000              -0.000003899              -0.000074586               1.000000000              -0.000005554              -0.000084153               1.000000000              -0.000007615              -0.000094539               1.000000000              -0.000010099              -0.000105741               1.000000000              -0.000012963              -0.000117861               1.000000000              -0.000016141              -0.000130973               1.000000000              -0.000019679              -0.000145023               1.000000000              -0.000023572              -0.000160019               1.000000000              -0.000027889              -0.000175891               1.000000000               0.000000593              -0.000039564               1.000000000               0.000002675              -0.000037834               1.000000000               0.000002902              -0.000038863               1.000000000               0.000002324              -0.000041995               1.000000000               0.000001303              -0.000046866               1.000000000               0.000000066              -0.000052952               1.000000000              -0.000001075              -0.000060012               1.000000000              -0.000001962              -0.000067821               1.000000000              -0.000002769              -0.000076432               1.000000000              -0.000003802              -0.000085823               1.000000000              -0.000005164              -0.000095997               1.000000000              -0.000006810              -0.000106820               1.000000000              -0.000008740              -0.000118367               1.000000000              -0.000010900              -0.000130730               1.000000000              -0.000013240              -0.000143928               1.000000000              -0.000015800              -0.000157942               1.000000000              -0.000018642              -0.000172786               1.000000000               0.000000449              -0.000042045               1.000000000               0.000002436              -0.000040896               1.000000000               0.000002799              -0.000041964               1.000000000               0.000002412              -0.000044876               1.000000000               0.000001611              -0.000049325               1.000000000               0.000000606              -0.000055049               1.000000000              -0.000000395              -0.000061924               1.000000000              -0.000001229              -0.000069680               1.000000000              -0.000001864              -0.000078207               1.000000000              -0.000002500              -0.000087457               1.000000000              -0.000003315              -0.000097452               1.000000000              -0.000004283              -0.000108083               1.000000000              -0.000005446              -0.000119334               1.000000000              -0.000006778              -0.000131208               1.000000000              -0.000008196              -0.000143818               1.000000000              -0.000009709              -0.000157193               1.000000000              -0.000011260              -0.000171345               1.000000000               0.000000313              -0.000044088               1.000000000               0.000002029              -0.000043551               1.000000000               0.000002409              -0.000044679               1.000000000               0.000002194              -0.000047430               1.000000000               0.000001664              -0.000051604               1.000000000               0.000000922              -0.000057072               1.000000000               0.000000073              -0.000063681               1.000000000              -0.000000666              -0.000071265               1.000000000              -0.000001168              -0.000079659               1.000000000              -0.000001523              -0.000088805               1.000000000              -0.000001965              -0.000098675               1.000000000              -0.000002484              -0.000109233               1.000000000              -0.000003086              -0.000120386               1.000000000              -0.000003796              -0.000132029               1.000000000              -0.000004568              -0.000144313               1.000000000              -0.000005329              -0.000157255               1.000000000              -0.000006022              -0.000170835               1.000000000               0.000000200              -0.000045606               1.000000000               0.000001432              -0.000045548               1.000000000               0.000001769              -0.000046797               1.000000000               0.000001703              -0.000049490               1.000000000               0.000001382              -0.000053488               1.000000000               0.000000848              -0.000058747               1.000000000               0.000000273              -0.000065132               1.000000000              -0.000000248              -0.000072515               1.000000000              -0.000000616              -0.000080757               1.000000000              -0.000000834              -0.000089814               1.000000000              -0.000001042              -0.000099613               1.000000000              -0.000001286              -0.000110097               1.000000000              -0.000001539              -0.000121144               1.000000000              -0.000001847              -0.000132703               1.000000000              -0.000002219              -0.000144815               1.000000000              -0.000002567              -0.000157467               1.000000000              -0.000002883              -0.000170656               1.000000000               0.000000091              -0.000046534               1.000000000               0.000000731              -0.000046799               1.000000000               0.000000957              -0.000048161               1.000000000               0.000000930              -0.000050824               1.000000000               0.000000755              -0.000054720               1.000000000               0.000000521              -0.000059836               1.000000000               0.000000223              -0.000066050               1.000000000              -0.000000056              -0.000073290               1.000000000              -0.000000257              -0.000081475               1.000000000              -0.000000362              -0.000090452               1.000000000              -0.000000429              -0.000100146               1.000000000              -0.000000511              -0.000110540               1.000000000              -0.000000601              -0.000121480               1.000000000              -0.000000715              -0.000132978               1.000000000              -0.000000857              -0.000144955               1.000000000              -0.000001001              -0.000157404               1.000000000              -0.000001169              -0.000170397               1.000000000              -0.000000000              -0.000046862               1.000000000              -0.000000000              -0.000047254               1.000000000              -0.000000000              -0.000048631               1.000000000               0.000000000              -0.000051262               1.000000000              -0.000000000              -0.000055157               1.000000000               0.000000000              -0.000060223               1.000000000               0.000000000              -0.000066389               1.000000000               0.000000000              -0.000073584               1.000000000              -0.000000000              -0.000081700               1.000000000              -0.000000000              -0.000090628               1.000000000              -0.000000000              -0.000100308               1.000000000              -0.000000000              -0.000110670               1.000000000              -0.000000000              -0.000121549               1.000000000              -0.000000000              -0.000133014               1.000000000               0.000000000              -0.000144930               1.000000000               0.000000000              -0.000157293               1.000000000              -0.000000000              -0.000170223               1.000000000              -0.000002237               0.000000000               1.000000000              -0.000000695               0.000000000               1.000000000              -0.000000127               0.000000000               1.000000000              -0.000000018               0.000000000               1.000000000              -0.000000037              -0.000000000               1.000000000              -0.000000009              -0.000000000               1.000000000               0.000000077              -0.000000000               1.000000000               0.000000163              -0.000000000               1.000000000               0.000000150               0.000000000               1.000000000               0.000000015               0.000000000               1.000000000              -0.000000180               0.000000000               1.000000000              -0.000000352              -0.000000000               1.000000000              -0.000000427              -0.000000000               1.000000000              -0.000000294              -0.000000000               1.000000000               0.000000158              -0.000000000               1.000000000               0.000000988              -0.000000000               1.000000000               0.000002258              -0.000000000               1.000000000              -0.000002190              -0.000004044               1.000000000              -0.000000674              -0.000003707               1.000000000              -0.000000140              -0.000003741               1.000000000              -0.000000044              -0.000003993               1.000000000              -0.000000043              -0.000004486               1.000000000               0.000000023              -0.000005090               1.000000000               0.000000118              -0.000005663               1.000000000               0.000000128              -0.000005940               1.000000000               0.000000102              -0.000006202               1.000000000               0.000000090              -0.000006457               1.000000000               0.000000054              -0.000006717               1.000000000               0.000000076              -0.000007139               1.000000000               0.000000249              -0.000007748               1.000000000               0.000000626              -0.000008590               1.000000000               0.000001305              -0.000009690               1.000000000               0.000002360              -0.000011036               1.000000000               0.000003840              -0.000012614               1.000000000              -0.000002061              -0.000008066               1.000000000              -0.000000675              -0.000007409               1.000000000              -0.000000206              -0.000007444               1.000000000              -0.000000084              -0.000007951               1.000000000              -0.000000044              -0.000008957               1.000000000               0.000000026              -0.000010175               1.000000000               0.000000142              -0.000011252               1.000000000               0.000000220              -0.000011883               1.000000000               0.000000305              -0.000012543               1.000000000               0.000000418              -0.000013229               1.000000000               0.000000632              -0.000013976               1.000000000               0.000001070              -0.000015008               1.000000000               0.000001766              -0.000016377               1.000000000               0.000002740              -0.000018166               1.000000000               0.000004050              -0.000020418               1.000000000               0.000005750              -0.000023144               1.000000000               0.000007873              -0.000026338               1.000000000              -0.000001825              -0.000012008               1.000000000              -0.000000684              -0.000011015               1.000000000              -0.000000336              -0.000011083               1.000000000              -0.000000228              -0.000011936               1.000000000              -0.000000086              -0.000013439               1.000000000               0.000000120              -0.000015203               1.000000000               0.000000299              -0.000016805               1.000000000               0.000000412              -0.000017950               1.000000000               0.000000569              -0.000019247               1.000000000               0.000000964              -0.000020646               1.000000000               0.000001686              -0.000022267               1.000000000               0.000002777              -0.000024279               1.000000000               0.000004295              -0.000026747               1.000000000               0.000006199              -0.000029770               1.000000000               0.000008488              -0.000033401               1.000000000               0.000011206              -0.000037690               1.000000000               0.000014335              -0.000042684               1.000000000              -0.000001573              -0.000015878               1.000000000              -0.000000765              -0.000014493               1.000000000              -0.000000577              -0.000014656               1.000000000              -0.000000443              -0.000015951               1.000000000              -0.000000114              -0.000017968               1.000000000               0.000000225              -0.000020370               1.000000000               0.000000553              -0.000022506               1.000000000               0.000000925              -0.000024370               1.000000000               0.000001471              -0.000026551               1.000000000               0.000002353              -0.000029079               1.000000000               0.000003636              -0.000032013               1.000000000               0.000005442              -0.000035515               1.000000000               0.000007781              -0.000039628               1.000000000               0.000010583              -0.000044397               1.000000000               0.000013874              -0.000049874               1.000000000               0.000017643              -0.000056092               1.000000000               0.000021833              -0.000063086               1.000000000              -0.000001338              -0.000019669               1.000000000              -0.000000996              -0.000017902               1.000000000              -0.000000942              -0.000018231               1.000000000              -0.000000685              -0.000020025               1.000000000              -0.000000176              -0.000022712               1.000000000               0.000000457              -0.000025809               1.000000000               0.000001111              -0.000028718               1.000000000               0.000001745              -0.000031682               1.000000000               0.000002683              -0.000035126               1.000000000               0.000004110              -0.000039204               1.000000000               0.000006099              -0.000043870               1.000000000               0.000008694              -0.000049281               1.000000000               0.000011846              -0.000055455               1.000000000               0.000015519              -0.000062399               1.000000000               0.000019712              -0.000070145               1.000000000               0.000024418              -0.000078656               1.000000000               0.000029570              -0.000087919               1.000000000              -0.000001099              -0.000023337               1.000000000              -0.000001346              -0.000021219               1.000000000              -0.000001375              -0.000021862               1.000000000              -0.000000905              -0.000024261               1.000000000              -0.000000085              -0.000027730               1.000000000               0.000000792              -0.000031784               1.000000000               0.000001584              -0.000035991               1.000000000               0.000002555              -0.000040331               1.000000000               0.000004002              -0.000045520               1.000000000               0.000006082              -0.000051451               1.000000000               0.000008806              -0.000058179               1.000000000               0.000012212              -0.000065765               1.000000000               0.000016169              -0.000074248               1.000000000               0.000020649              -0.000083619               1.000000000               0.000025703              -0.000093801               1.000000000               0.000031247              -0.000104773               1.000000000               0.000037237              -0.000116477               1.000000000              -0.000000979              -0.000026916               1.000000000              -0.000001784              -0.000024465               1.000000000              -0.000001772              -0.000025542               1.000000000              -0.000001050              -0.000028736               1.000000000               0.000000017              -0.000033280               1.000000000               0.000001106              -0.000038615               1.000000000               0.000002234              -0.000044230               1.000000000               0.000003615              -0.000050317               1.000000000               0.000005583              -0.000057532               1.000000000               0.000008291              -0.000065608               1.000000000               0.000011701              -0.000074574               1.000000000               0.000015752              -0.000084627               1.000000000               0.000020371              -0.000095655               1.000000000               0.000025615              -0.000107644               1.000000000               0.000031429              -0.000120549               1.000000000               0.000037740              -0.000134281               1.000000000               0.000044529              -0.000148797               1.000000000              -0.000000901              -0.000030283               1.000000000              -0.000002265              -0.000027716               1.000000000              -0.000002125              -0.000029359               1.000000000              -0.000001064              -0.000033504               1.000000000               0.000000296              -0.000039310               1.000000000               0.000001717              -0.000046084               1.000000000               0.000003051              -0.000053369               1.000000000               0.000004701              -0.000061528               1.000000000               0.000007209              -0.000070865               1.000000000               0.000010495              -0.000081263               1.000000000               0.000014463              -0.000092765               1.000000000               0.000019023              -0.000105538               1.000000000               0.000024232              -0.000119506               1.000000000               0.000030074              -0.000134558               1.000000000               0.000036447              -0.000150750               1.000000000               0.000043349              -0.000167911               1.000000000               0.000050606              -0.000185732               1.000000000              -0.000000740              -0.000033532               1.000000000              -0.000002573              -0.000031128               1.000000000              -0.000002558              -0.000032429               1.000000000              -0.000001580              -0.000036214               1.000000000              -0.000000206              -0.000041707               1.000000000               0.000001270              -0.000048421               1.000000000               0.000002500              -0.000055747               1.000000000               0.000003698              -0.000063738               1.000000000               0.000005408              -0.000072668               1.000000000               0.000007833              -0.000082563               1.000000000               0.000010720              -0.000093392               1.000000000               0.000014157              -0.000105256               1.000000000               0.000018107              -0.000118211               1.000000000               0.000022515              -0.000132279               1.000000000               0.000027413              -0.000147309               1.000000000               0.000032783              -0.000163462               1.000000000               0.000038563              -0.000180568               1.000000000              -0.000000669              -0.000036678               1.000000000              -0.000002744              -0.000034557               1.000000000              -0.000002826              -0.000035642               1.000000000              -0.000001987              -0.000039031               1.000000000              -0.000000761              -0.000044253               1.000000000               0.000000621              -0.000050724               1.000000000               0.000001833              -0.000057970               1.000000000               0.000002768              -0.000065886               1.000000000               0.000003899              -0.000074586               1.000000000               0.000005554              -0.000084153               1.000000000               0.000007615              -0.000094539               1.000000000               0.000010099              -0.000105741               1.000000000               0.000012963              -0.000117861               1.000000000               0.000016141              -0.000130973               1.000000000               0.000019679              -0.000145023               1.000000000               0.000023572              -0.000160019               1.000000000               0.000027889              -0.000175891               1.000000000              -0.000000593              -0.000039564               1.000000000              -0.000002675              -0.000037834               1.000000000              -0.000002902              -0.000038863               1.000000000              -0.000002324              -0.000041995               1.000000000              -0.000001303              -0.000046866               1.000000000              -0.000000066              -0.000052952               1.000000000               0.000001075              -0.000060012               1.000000000               0.000001962              -0.000067821               1.000000000               0.000002769              -0.000076432               1.000000000               0.000003802              -0.000085823               1.000000000               0.000005164              -0.000095997               1.000000000               0.000006810              -0.000106820               1.000000000               0.000008740              -0.000118367               1.000000000               0.000010900              -0.000130730               1.000000000               0.000013240              -0.000143928               1.000000000               0.000015800              -0.000157942               1.000000000               0.000018642              -0.000172786               1.000000000              -0.000000449              -0.000042045               1.000000000              -0.000002436              -0.000040896               1.000000000              -0.000002799              -0.000041964               1.000000000              -0.000002412              -0.000044876               1.000000000              -0.000001611              -0.000049325               1.000000000              -0.000000606              -0.000055049               1.000000000               0.000000395              -0.000061924               1.000000000               0.000001229              -0.000069680               1.000000000               0.000001864              -0.000078207               1.000000000               0.000002500              -0.000087457               1.000000000               0.000003315              -0.000097452               1.000000000               0.000004283              -0.000108083               1.000000000               0.000005446              -0.000119334               1.000000000               0.000006778              -0.000131208               1.000000000               0.000008196              -0.000143818               1.000000000               0.000009709              -0.000157193               1.000000000               0.000011260              -0.000171345               1.000000000              -0.000000313              -0.000044088               1.000000000              -0.000002029              -0.000043551               1.000000000              -0.000002409              -0.000044679               1.000000000              -0.000002194              -0.000047430               1.000000000              -0.000001664              -0.000051604               1.000000000              -0.000000922              -0.000057072               1.000000000              -0.000000073              -0.000063681               1.000000000               0.000000666              -0.000071265               1.000000000               0.000001168              -0.000079659               1.000000000               0.000001523              -0.000088805               1.000000000               0.000001965              -0.000098675               1.000000000               0.000002484              -0.000109233               1.000000000               0.000003086              -0.000120386               1.000000000               0.000003796              -0.000132029               1.000000000               0.000004568              -0.000144313               1.000000000               0.000005329              -0.000157255               1.000000000               0.000006022              -0.000170835               1.000000000              -0.000000200              -0.000045606               1.000000000              -0.000001432              -0.000045548               1.000000000              -0.000001769              -0.000046797               1.000000000              -0.000001703              -0.000049490               1.000000000              -0.000001382              -0.000053488               1.000000000              -0.000000848              -0.000058747               1.000000000              -0.000000273              -0.000065132               1.000000000               0.000000248              -0.000072515               1.000000000               0.000000616              -0.000080757               1.000000000               0.000000834              -0.000089814               1.000000000               0.000001042              -0.000099613               1.000000000               0.000001286              -0.000110097               1.000000000               0.000001539              -0.000121144               1.000000000               0.000001847              -0.000132703               1.000000000               0.000002219              -0.000144815               1.000000000               0.000002567              -0.000157467               1.000000000               0.000002883              -0.000170656               1.000000000              -0.000000091              -0.000046534               1.000000000              -0.000000731              -0.000046799               1.000000000              -0.000000957              -0.000048161               1.000000000              -0.000000930              -0.000050824               1.000000000              -0.000000755              -0.000054720               1.000000000              -0.000000521              -0.000059836               1.000000000              -0.000000223              -0.000066050               1.000000000               0.000000056              -0.000073290               1.000000000               0.000000257              -0.000081475               1.000000000               0.000000362              -0.000090452               1.000000000               0.000000429              -0.000100146               1.000000000               0.000000511              -0.000110540               1.000000000               0.000000601              -0.000121480               1.000000000               0.000000715              -0.000132978               1.000000000               0.000000857              -0.000144955               1.000000000               0.000001001              -0.000157404               1.000000000               0.000001169              -0.000170397               1.000000000              -0.000000000              -0.000046862               1.000000000              -0.000000000              -0.000047254               1.000000000              -0.000000000              -0.000048631               1.000000000               0.000000000              -0.000051262               1.000000000              -0.000000000              -0.000055157               1.000000000               0.000000000              -0.000060223               1.000000000               0.000000000              -0.000066389               1.000000000               0.000000000              -0.000073584               1.000000000              -0.000000000              -0.000081700               1.000000000              -0.000000000              -0.000090628               1.000000000              -0.000000000              -0.000100308               1.000000000              -0.000000000              -0.000110670               1.000000000              -0.000000000              -0.000121549               1.000000000              -0.000000000              -0.000133014               1.000000000               0.000000000              -0.000144930               1.000000000               0.000000000              -0.000157293               1.000000000              -0.000000000              -0.000170223               1.000000000              -0.000002237               0.000000000               1.000000000              -0.000000695               0.000000000               1.000000000              -0.000000127               0.000000000               1.000000000              -0.000000018               0.000000000               1.000000000              -0.000000037              -0.000000000               1.000000000              -0.000000009              -0.000000000               1.000000000               0.000000077              -0.000000000               1.000000000               0.000000163              -0.000000000               1.000000000               0.000000150               0.000000000               1.000000000               0.000000015               0.000000000               1.000000000              -0.000000180               0.000000000               1.000000000              -0.000000352              -0.000000000               1.000000000              -0.000000427              -0.000000000               1.000000000              -0.000000294              -0.000000000               1.000000000               0.000000158              -0.000000000               1.000000000               0.000000988              -0.000000000               1.000000000               0.000002258              -0.000000000               1.000000000              -0.000002190               0.000004044               1.000000000              -0.000000674               0.000003707               1.000000000              -0.000000140               0.000003741               1.000000000              -0.000000044               0.000003993               1.000000000              -0.000000043               0.000004486               1.000000000               0.000000023               0.000005090               1.000000000               0.000000118               0.000005663               1.000000000               0.000000128               0.000005940               1.000000000               0.000000102               0.000006202               1.000000000               0.000000090               0.000006457               1.000000000               0.000000054               0.000006717               1.000000000               0.000000076               0.000007139               1.000000000               0.000000249               0.000007748               1.000000000               0.000000626               0.000008590               1.000000000               0.000001305               0.000009690               1.000000000               0.000002360               0.000011036               1.000000000               0.000003840               0.000012614               1.000000000              -0.000002061               0.000008066               1.000000000              -0.000000675               0.000007409               1.000000000              -0.000000206               0.000007444               1.000000000              -0.000000084               0.000007951               1.000000000              -0.000000044               0.000008957               1.000000000               0.000000026               0.000010175               1.000000000               0.000000142               0.000011252               1.000000000               0.000000220               0.000011883               1.000000000               0.000000305               0.000012543               1.000000000               0.000000418               0.000013229               1.000000000               0.000000632               0.000013976               1.000000000               0.000001070               0.000015008               1.000000000               0.000001766               0.000016377               1.000000000               0.000002740               0.000018166               1.000000000               0.000004050               0.000020418               1.000000000               0.000005750               0.000023144               1.000000000               0.000007873               0.000026338               1.000000000              -0.000001825               0.000012008               1.000000000              -0.000000684               0.000011015               1.000000000              -0.000000336               0.000011083               1.000000000              -0.000000228               0.000011936               1.000000000              -0.000000086               0.000013439               1.000000000               0.000000120               0.000015203               1.000000000               0.000000299               0.000016805               1.000000000               0.000000412               0.000017950               1.000000000               0.000000569               0.000019247               1.000000000               0.000000964               0.000020646               1.000000000               0.000001686               0.000022267               1.000000000               0.000002777               0.000024279               1.000000000               0.000004295               0.000026747               1.000000000               0.000006199               0.000029770               1.000000000               0.000008488               0.000033401               1.000000000               0.000011206               0.000037690               1.000000000               0.000014335               0.000042684               1.000000000              -0.000001573               0.000015878               1.000000000              -0.000000765               0.000014493               1.000000000              -0.000000577               0.000014656               1.000000000              -0.000000443               0.000015951               1.000000000              -0.000000114               0.000017968               1.000000000               0.000000225               0.000020370               1.000000000               0.000000553               0.000022506               1.000000000               0.000000925               0.000024370               1.000000000               0.000001471               0.000026551               1.000000000               0.000002353               0.000029079               1.000000000               0.000003636               0.000032013               1.000000000               0.000005442               0.000035515               1.000000000               0.000007781               0.000039628               1.000000000               0.000010583               0.000044397               1.000000000               0.000013874               0.000049874               1.000000000               0.000017643               0.000056092               1.000000000               0.000021833               0.000063086               1.000000000              -0.000001338               0.000019669               1.000000000              -0.000000996               0.000017902               1.000000000              -0.000000942               0.000018231               1.000000000              -0.000000685               0.000020025               1.000000000              -0.000000176               0.000022712               1.000000000               0.000000457               0.000025809               1.000000000               0.000001111               0.000028718               1.000000000               0.000001745               0.000031682               1.000000000               0.000002683               0.000035126               1.000000000               0.000004110               0.000039204               1.000000000               0.000006099               0.000043870               1.000000000               0.000008694               0.000049281               1.000000000               0.000011846               0.000055455               1.000000000               0.000015519               0.000062399               1.000000000               0.000019712               0.000070145               1.000000000               0.000024418               0.000078656               1.000000000               0.000029570               0.000087919               1.000000000              -0.000001099               0.000023337               1.000000000              -0.000001346               0.000021219               1.000000000              -0.000001375               0.000021862               1.000000000              -0.000000905               0.000024261               1.000000000              -0.000000085               0.000027730               1.000000000               0.000000792               0.000031784               1.000000000               0.000001584               0.000035991               1.000000000               0.000002555               0.000040331               1.000000000               0.000004002               0.000045520               1.000000000               0.000006082               0.000051451               1.000000000               0.000008806               0.000058179               1.000000000               0.000012212               0.000065765               1.000000000               0.000016169               0.000074248               1.000000000               0.000020649               0.000083619               1.000000000               0.000025703               0.000093801               1.000000000               0.000031247               0.000104773               1.000000000               0.000037237               0.000116477               1.000000000              -0.000000979               0.000026916               1.000000000              -0.000001784               0.000024465               1.000000000              -0.000001772               0.000025542               1.000000000              -0.000001050               0.000028736               1.000000000               0.000000017               0.000033280               1.000000000               0.000001106               0.000038615               1.000000000               0.000002234               0.000044230               1.000000000               0.000003615               0.000050317               1.000000000               0.000005583               0.000057532               1.000000000               0.000008291               0.000065608               1.000000000               0.000011701               0.000074574               1.000000000               0.000015752               0.000084627               1.000000000               0.000020371               0.000095655               1.000000000               0.000025615               0.000107644               1.000000000               0.000031429               0.000120549               1.000000000               0.000037740               0.000134281               1.000000000               0.000044529               0.000148797               1.000000000              -0.000000901               0.000030283               1.000000000              -0.000002265               0.000027716               1.000000000              -0.000002125               0.000029359               1.000000000              -0.000001064               0.000033504               1.000000000               0.000000296               0.000039310               1.000000000               0.000001717               0.000046084               1.000000000               0.000003051               0.000053369               1.000000000               0.000004701               0.000061528               1.000000000               0.000007209               0.000070865               1.000000000               0.000010495               0.000081263               1.000000000               0.000014463               0.000092765               1.000000000               0.000019023               0.000105538               1.000000000               0.000024232               0.000119506               1.000000000               0.000030074               0.000134558               1.000000000               0.000036447               0.000150750               1.000000000               0.000043349               0.000167911               1.000000000               0.000050606               0.000185732               1.000000000              -0.000000740               0.000033532               1.000000000              -0.000002573               0.000031128               1.000000000              -0.000002558               0.000032429               1.000000000              -0.000001580               0.000036214               1.000000000              -0.000000206               0.000041707               1.000000000               0.000001270               0.000048421               1.000000000               0.000002500               0.000055747               1.000000000               0.000003698               0.000063738               1.000000000               0.000005408               0.000072668               1.000000000               0.000007833               0.000082563               1.000000000               0.000010720               0.000093392               1.000000000               0.000014157               0.000105256               1.000000000               0.000018107               0.000118211               1.000000000               0.000022515               0.000132279               1.000000000               0.000027413               0.000147309               1.000000000               0.000032783               0.000163462               1.000000000               0.000038563               0.000180568               1.000000000              -0.000000669               0.000036678               1.000000000              -0.000002744               0.000034557               1.000000000              -0.000002826               0.000035642               1.000000000              -0.000001987               0.000039031               1.000000000              -0.000000761               0.000044253               1.000000000               0.000000621               0.000050724               1.000000000               0.000001833               0.000057970               1.000000000               0.000002768               0.000065886               1.000000000               0.000003899               0.000074586               1.000000000               0.000005554               0.000084153               1.000000000               0.000007615               0.000094539               1.000000000               0.000010099               0.000105741               1.000000000               0.000012963               0.000117861               1.000000000               0.000016141               0.000130973               1.000000000               0.000019679               0.000145023               1.000000000               0.000023572               0.000160019               1.000000000               0.000027889               0.000175891               1.000000000              -0.000000593               0.000039564               1.000000000              -0.000002675               0.000037834               1.000000000              -0.000002902               0.000038863               1.000000000              -0.000002324               0.000041995               1.000000000              -0.000001303               0.000046866               1.000000000              -0.000000066               0.000052952               1.000000000               0.000001075               0.000060012               1.000000000               0.000001962               0.000067821               1.000000000               0.000002769               0.000076432               1.000000000               0.000003802               0.000085823               1.000000000               0.000005164               0.000095997               1.000000000               0.000006810               0.000106820               1.000000000               0.000008740               0.000118367               1.000000000               0.000010900               0.000130730               1.000000000               0.000013240               0.000143928               1.000000000               0.000015800               0.000157942               1.000000000               0.000018642               0.000172786               1.000000000              -0.000000449               0.000042045               1.000000000              -0.000002436               0.000040896               1.000000000              -0.000002799               0.000041964               1.000000000              -0.000002412               0.000044876               1.000000000              -0.000001611               0.000049325               1.000000000              -0.000000606               0.000055049               1.000000000               0.000000395               0.000061924               1.000000000               0.000001229               0.000069680               1.000000000               0.000001864               0.000078207               1.000000000               0.000002500               0.000087457               1.000000000               0.000003315               0.000097452               1.000000000               0.000004283               0.000108083               1.000000000               0.000005446               0.000119334               1.000000000               0.000006778               0.000131208               1.000000000               0.000008196               0.000143818               1.000000000               0.000009709               0.000157193               1.000000000               0.000011260               0.000171345               1.000000000              -0.000000313               0.000044088               1.000000000              -0.000002029               0.000043551               1.000000000              -0.000002409               0.000044679               1.000000000              -0.000002194               0.000047430               1.000000000              -0.000001664               0.000051604               1.000000000              -0.000000922               0.000057072               1.000000000              -0.000000073               0.000063681               1.000000000               0.000000666               0.000071265               1.000000000               0.000001168               0.000079659               1.000000000               0.000001523               0.000088805               1.000000000               0.000001965               0.000098675               1.000000000               0.000002484               0.000109233               1.000000000               0.000003086               0.000120386               1.000000000               0.000003796               0.000132029               1.000000000               0.000004568               0.000144313               1.000000000               0.000005329               0.000157255               1.000000000               0.000006022               0.000170835               1.000000000              -0.000000200               0.000045606               1.000000000              -0.000001432               0.000045548               1.000000000              -0.000001769               0.000046797               1.000000000              -0.000001703               0.000049490               1.000000000              -0.000001382               0.000053488               1.000000000              -0.000000848               0.000058747               1.000000000              -0.000000273               0.000065132               1.000000000               0.000000248               0.000072515               1.000000000               0.000000616               0.000080757               1.000000000               0.000000834               0.000089814               1.000000000               0.000001042               0.000099613               1.000000000               0.000001286               0.000110097               1.000000000               0.000001539               0.000121144               1.000000000               0.000001847               0.000132703               1.000000000               0.000002219               0.000144815               1.000000000               0.000002567               0.000157467               1.000000000               0.000002883               0.000170656               1.000000000              -0.000000091               0.000046534               1.000000000              -0.000000731               0.000046799               1.000000000              -0.000000957               0.000048161               1.000000000              -0.000000930               0.000050824               1.000000000              -0.000000755               0.000054720               1.000000000              -0.000000521               0.000059836               1.000000000              -0.000000223               0.000066050               1.000000000               0.000000056               0.000073290               1.000000000               0.000000257               0.000081475               1.000000000               0.000000362               0.000090452               1.000000000               0.000000429               0.000100146               1.000000000               0.000000511               0.000110540               1.000000000               0.000000601               0.000121480               1.000000000               0.000000715               0.000132978               1.000000000               0.000000857               0.000144955               1.000000000               0.000001001               0.000157404               1.000000000               0.000001169               0.000170397               1.000000000               0.000000000               0.000046862               1.000000000              -0.000000000               0.000047254               1.000000000               0.000000000               0.000048631               1.000000000               0.000000000               0.000051262               1.000000000               0.000000000               0.000055157               1.000000000               0.000000000               0.000060223               1.000000000              -0.000000000               0.000066389               1.000000000              -0.000000000               0.000073584               1.000000000              -0.000000000               0.000081700               1.000000000              -0.000000000               0.000090628               1.000000000              -0.000000000               0.000100308               1.000000000              -0.000000000               0.000110670               1.000000000              -0.000000000               0.000121549               1.000000000              -0.000000000               0.000133014               1.000000000               0.000000000               0.000144930               1.000000000              -0.000000000               0.000157293               1.000000000              -0.000000000               0.000170223               1.000000000 </DataArray>
<DataArray type="Float64"                                    Name="defo"                                                      NumberOfComponents=" 3" format="ascii">
              0.000002237               0.000000000               1.000000000               0.000000695               0.000000000               1.000000000               0.000000127              -0.000000000               1.000000000               0.000000018              -0.000000000               1.000000000               0.000000037               0.000000000               1.000000000               0.000000009               0.000000000               1.000000000              -0.000000077               0.000000000               1.000000000              -0.000000163               0.000000000               1.000000000              -0.000000150               0.000000000               1.000000000              -0.000000015               0.000000000               1.000000000               0.000000180               0.000000000               1.000000000               0.000000352               0.000000000               1.000000000               0.000000427               0.000000000               1.000000000               0.000000294               0.000000000               1.000000000              -0.000000158               0.000000000               1.000000000              -0.000000988               0.000000000               1.000000000              -0.000002258               0.000000000               1.000000000               0.000002190               0.000004044               1.000000000               0.000000674               0.000003707               1.000000000               0.000000140               0.000003741               1.000000000               0.000000044               0.000003993               1.000000000               0.000000043               0.000004486               1.000000000              -0.000000023               0.000005090               1.000000000              -0.000000118               0.000005663               1.000000000              -0.000000128               0.000005940               1.000000000              -0.000000102               0.000006202               1.000000000              -0.000000090               0.000006457               1.000000000              -0.000000054               0.000006717               1.000000000              -0.000000076               0.000007139               1.000000000              -0.000000249               0.000007748               1.000000000              -0.000000626               0.000008590               1.000000000              -0.000001305               0.000009690               1.000000000              -0.000002360               0.000011036               1.000000000              -0.000003840               0.000012614               1.000000000               0.000002061               0.000008066               1.000000000               0.000000675               0.000007409               1.000000000               0.000000206               0.000007444               1.000000000               0.000000084               0.000007951               1.000000000               0.000000044               0.000008957               1.000000000              -0.000000026               0.000010175               1.000000000              -0.000000142               0.000011252               1.000000000              -0.000000220               0.000011883               1.000000000              -0.000000305               0.000012543               1.000000000              -0.000000418               0.000013229               1.000000000              -0.000000632               0.000013976               1.000000000              -0.000001070               0.000015008               1.000000000              -0.000001766               0.000016377               1.000000000              -0.000002740               0.000018166               1.000000000              -0.000004050               0.000020418               1.000000000              -0.000005750               0.000023144               1.000000000              -0.000007873               0.000026338               1.000000000               0.000001825               0.000012008               1.000000000               0.000000684               0.000011015               1.000000000               0.000000336               0.000011083               1.000000000               0.000000228               0.000011936               1.000000000               0.000000086               0.000013439               1.000000000              -0.000000120               0.000015203               1.000000000              -0.000000299               0.000016805               1.000000000              -0.000000412               0.000017950               1.000000000              -0.000000569               0.000019247               1.000000000              -0.000000964               0.000020646               1.000000000              -0.000001686               0.000022267               1.000000000              -0.000002777               0.000024279               1.000000000              -0.000004295               0.000026747               1.000000000              -0.000006199               0.000029770               1.000000000              -0.000008488               0.000033401               1.000000000              -0.000011206               0.000037690               1.000000000              -0.000014335               0.000042684               1.000000000               0.000001573               0.000015878               1.000000000               0.000000765               0.000014493               1.000000000               0.000000577               0.000014656               1.000000000               0.000000443               0.000015951               1.000000000               0.000000114               0.000017968               1.000000000              -0.000000225               0.000020370               1.000000000              -0.000000553               0.000022506               1.000000000              -0.000000925               0.000024370               1.000000000              -0.000001471               0.000026551               1.000000000              -0.000002353               0.000029079               1.000000000              -0.000003636               0.000032013               1.000000000              -0.000005442               0.000035515               1.000000000              -0.000007781               0.000039628               1.000000000              -0.000010583               0.000044397               1.000000000              -0.000013874               0.000049874               1.000000000              -0.000017643               0.000056092               1.000000000              -0.000021833               0.000063086               1.000000000               0.000001338               0.000019669               1.000000000               0.000000996               0.000017902               1.000000000               0.000000942               0.000018231               1.000000000               0.000000685               0.000020025               1.000000000               0.000000176               0.000022712               1.000000000              -0.000000457               0.000025809               1.000000000              -0.000001111               0.000028718               1.000000000              -0.000001745               0.000031682               1.000000000              -0.000002683               0.000035126               1.000000000              -0.000004110               0.000039204               1.000000000              -0.000006099               0.000043870               1.000000000              -0.000008694               0.000049281               1.000000000              -0.000011846               0.000055455               1.000000000              -0.000015519               0.000062399               1.000000000              -0.000019712               0.000070145               1.000000000              -0.000024418               0.000078656               1.000000000              -0.000029570               0.000087919               1.000000000               0.000001099               0.000023337               1.000000000               0.000001346               0.000021219               1.000000000               0.000001375               0.000021862               1.000000000               0.000000905               0.000024261               1.000000000               0.000000085               0.000027730               1.000000000              -0.000000792               0.000031784               1.000000000              -0.000001584               0.000035991               1.000000000              -0.000002555               0.000040331               1.000000000              -0.000004002               0.000045520               1.000000000              -0.000006082               0.000051451               1.000000000              -0.000008806               0.000058179               1.000000000              -0.000012212               0.000065765               1.000000000              -0.000016169               0.000074248               1.000000000              -0.000020649               0.000083619               1.000000000              -0.000025703               0.000093801               1.000000000              -0.000031247               0.000104773               1.000000000              -0.000037237               0.000116477               1.000000000               0.000000979               0.000026916               1.000000000               0.000001784               0.000024465               1.000000000               0.000001772               0.000025542               1.000000000               0.000001050               0.000028736               1.000000000              -0.000000017               0.000033280               1.000000000              -0.000001106               0.000038615               1.000000000              -0.000002234               0.000044230               1.000000000              -0.000003615               0.000050317               1.000000000              -0.000005583               0.000057532               1.000000000              -0.000008291               0.000065608               1.000000000              -0.000011701               0.000074574               1.000000000              -0.000015752               0.000084627               1.000000000              -0.000020371               0.000095655               1.000000000              -0.000025615               0.000107644               1.000000000              -0.000031429               0.000120549               1.000000000              -0.000037740               0.000134281               1.000000000              -0.000044529               0.000148797               1.000000000               0.000000901               0.000030283               1.000000000               0.000002265               0.000027716               1.000000000               0.000002125               0.000029359               1.000000000               0.000001064               0.000033504               1.000000000              -0.000000296               0.000039310               1.000000000              -0.000001717               0.000046084               1.000000000              -0.000003051               0.000053369               1.000000000              -0.000004701               0.000061528               1.000000000              -0.000007209               0.000070865               1.000000000              -0.000010495               0.000081263               1.000000000              -0.000014463               0.000092765               1.000000000              -0.000019023               0.000105538               1.000000000              -0.000024232               0.000119506               1.000000000              -0.000030074               0.000134558               1.000000000              -0.000036447               0.000150750               1.000000000              -0.000043349               0.000167911               1.000000000              -0.000050606               0.000185732               1.000000000               0.000000740               0.000033532               1.000000000               0.000002573               0.000031128               1.000000000               0.000002558               0.000032429               1.000000000               0.000001580               0.000036214               1.000000000               0.000000206               0.000041707               1.000000000              -0.000001270               0.000048421               1.000000000              -0.000002500               0.000055747               1.000000000              -0.000003698               0.000063738               1.000000000              -0.000005408               0.000072668               1.000000000              -0.000007833               0.000082563               1.000000000              -0.000010720               0.000093392               1.000000000              -0.000014157               0.000105256               1.000000000              -0.000018107               0.000118211               1.000000000              -0.000022515               0.000132279               1.000000000              -0.000027413               0.000147309               1.000000000              -0.000032783               0.000163462               1.000000000              -0.000038563               0.000180568               1.000000000               0.000000669               0.000036678               1.000000000               0.000002744               0.000034557               1.000000000               0.000002826               0.000035642               1.000000000               0.000001987               0.000039031               1.000000000               0.000000761               0.000044253               1.000000000              -0.000000621               0.000050724               1.000000000              -0.000001833               0.000057970               1.000000000              -0.000002768               0.000065886               1.000000000              -0.000003899               0.000074586               1.000000000              -0.000005554               0.000084153               1.000000000              -0.000007615               0.000094539               1.000000000              -0.000010099               0.000105741               1.000000000              -0.000012963               0.000117861               1.000000000              -0.000016141               0.000130973               1.000000000              -0.000019679               0.000145023               1.000000000              -0.000023572               0.000160019               1.000000000              -0.000027889               0.000175891               1.000000000               0.000000593               0.000039564               1.000000000               0.000002675               0.000037834               1.000000000               0.000002902               0.000038863               1.000000000               0.000002324               0.000041995               1.000000000               0.000001303               0.000046866               1.000000000               0.000000066               0.000052952               1.000000000              -0.000001075               0.000060012               1.000000000              -0.000001962               0.000067821               1.000000000              -0.000002769               0.000076432               1.000000000              -0.000003802               0.000085823               1.000000000              -0.000005164               0.000095997               1.000000000              -0.000006810               0.000106820               1.000000000              -0.000008740               0.000118367               1.000000000              -0.000010900               0.000130730               1.000000000              -0.000013240               0.000143928               1.000000000              -0.000015800               0.000157942               1.000000000              -0.000018642               0.000172786               1.000000000               0.000000449               0.000042045               1.000000000               0.000002436               0.000040896               1.000000000               0.000002799               0.000041964               1.000000000               0.000002412               0.000044876               1.000000000               0.000001611               0.000049325               1.000000000               0.000000606               0.000055049               1.000000000              -0.000000395               0.000061924               1.000000000              -0.000001229               0.000069680               1.000000000              -0.000001864               0.000078207               1.000000000              -0.000002500               0.000087457               1.000000000              -0.000003315               0.000097452               1.000000000              -0.000004283               0.000108083               1.000000000              -0.000005446               0.000119334               1.000000000              -0.000006778               0.000131208               1.000000000              -0.000008196               0.000143818               1.000000000              -0.000009709               0.000157193               1.000000000              -0.000011260               0.000171345               1.000000000               0.000000313               0.000044088               1.000000000               0.000002029               0.000043551               1.000000000               0.000002409               0.000044679               1.000000000               0.000002194               0.000047430               1.000000000               0.000001664               0.000051604               1.000000000               0.000000922               0.000057072               1.000000000               0.000000073               0.000063681               1.000000000              -0.000000666               0.000071265               1.000000000              -0.000001168               0.000079659               1.000000000              -0.000001523               0.000088805               1.000000000              -0.000001965               0.000098675               1.000000000              -0.000002484               0.000109233               1.000000000              -0.000003086               0.000120386               1.000000000              -0.000003796               0.000132029               1.000000000              -0.000004568               0.000144313               1.000000000              -0.000005329               0.000157255               1.000000000              -0.000006022               0.000170835               1.000000000               0.000000200               0.000045606               1.000000000               0.000001432               0.000045548               1.000000000               0.000001769               0.000046797               1.000000000               0.000001703               0.000049490               1.000000000               0.000001382               0.000053488               1.000000000               0.000000848               0.000058747               1.000000000               0.000000273               0.000065132               1.000000000              -0.000000248               0.000072515               1.000000000              -0.000000616               0.000080757               1.000000000              -0.000000834               0.000089814               1.000000000              -0.000001042               0.000099613               1.000000000              -0.000001286               0.000110097               1.000000000              -0.000001539               0.000121144               1.000000000              -0.000001847               0.000132703               1.000000000              -0.000002219               0.000144815               1.000000000              -0.000002567               0.000157467               1.000000000              -0.000002883               0.000170656               1.000000000               0.000000091               0.000046534               1.000000000               0.000000731               0.000046799               1.000000000               0.000000957               0.000048161               1.000000000               0.000000930               0.000050824               1.000000000               0.000000755               0.000054720               1.000000000               0.000000521               0.000059836               1.000000000               0.000000223               0.000066050               1.000000000              -0.000000056               0.000073290               1.000000000              -0.000000257               0.000081475               1.000000000              -0.000000362               0.000090452               1.000000000              -0.000000429               0.000100146               1.000000000              -0.000000511               0.000110540               1.000000000              -0.000000601               0.000121480               1.000000000              -0.000000715               0.000132978               1.000000000              -0.000000857               0.000144955               1.000000000              -0.000001001               0.000157404               1.000000000              -0.000001169               0.000170397               1.000000000               0.000000000               0.000046862               1.000000000              -0.000000000               0.000047254               1.000000000               0.000000000               0.000048631               1.000000000               0.000000000               0.000051262               1.000000000               0.000000000               0.000055157               1.000000000               0.000000000               0.000060223               1.000000000              -0.000000000               0.000066389               1.000000000              -0.000000000               0.000073584               1.000000000              -0.000000000               0.000081700               1.000000000              -0.000000000               0.000090628               1.000000000              -0.000000000               0.000100308               1.000000000              -0.000000000               0.000110670               1.000000000              -0.000000000               0.000121549               1.000000000              -0.000000000               0.000133014               1.000000000               0.000000000               0.000144930               1.000000000              -0.000000000               0.000157293               1.000000000              -0.000000000               0.000170223               1.000000000               0.000002237               0.000000000               1.000000000               0.000000695               0.000000000               1.000000000               0.000000127              -0.000000000               1.000000000               0.000000018              -0.000000000               1.000000000               0.000000037               0.000000000               1.000000000               0.000000009               0.000000000               1.000000000              -0.000000077               0.000000000               1.000000000              -0.000000163               0.000000000               1.000000000              -0.000000150               0.000000000               1.000000000              -0.000000015               0.000000000               1.000000000               0.000000180               0.000000000               1.000000000               0.000000352               0.000000000               1.000000000               0.000000427               0.000000000               1.000000000               0.000000294               0.000000000               1.000000000              -0.000000158               0.000000000               1.000000000              -0.000000988               0.000000000               1.000000000              -0.000002258               0.000000000               1.000000000               0.000002190              -0.000004044               1.000000000               0.000000674              -0.000003707               1.000000000               0.000000140              -0.000003741               1.000000000               0.000000044              -0.000003993               1.000000000               0.000000043              -0.000004486               1.000000000              -0.000000023              -0.000005090               1.000000000              -0.000000118              -0.000005663               1.000000000              -0.000000128              -0.000005940               1.000000000              -0.000000102              -0.000006202               1.000000000              -0.000000090              -0.000006457               1.000000000              -0.000000054              -0.000006717               1.000000000              -0.000000076              -0.000007139               1.000000000              -0.000000249              -0.000007748               1.000000000              -0.000000626              -0.000008590               1.000000000              -0.000001305              -0.000009690               1.000000000              -0.000002360              -0.000011036               1.000000000              -0.000003840              -0.000012614               1.000000000               0.000002061              -0.000008066               1.000000000               0.000000675              -0.000007409               1.000000000               0.000000206              -0.000007444               1.000000000               0.000000084              -0.000007951               1.000000000               0.000000044              -0.000008957               1.000000000              -0.000000026              -0.000010175               1.000000000              -0.000000142              -0.000011252               1.000000000              -0.000000220              -0.000011883               1.000000000              -0.000000305              -0.000012543               1.000000000              -0.000000418              -0.000013229               1.000000000              -0.000000632              -0.000013976               1.000000000              -0.000001070              -0.000015008               1.000000000              -0.000001766              -0.000016377               1.000000000              -0.000002740              -0.000018166               1.000000000              -0.000004050              -0.000020418               1.000000000              -0.000005750              -0.000023144               1.000000000              -0.000007873              -0.000026338               1.000000000               0.000001825              -0.000012008               1.000000000               0.000000684              -0.000011015               1.000000000               0.000000336              -0.000011083               1.000000000               0.000000228              -0.000011936               1.000000000               0.000000086              -0.000013439               1.000000000              -0.000000120              -0.000015203               1.000000000              -0.000000299              -0.000016805               1.000000000              -0.000000412              -0.000017950               1.000000000              -0.000000569              -0.000019247               1.000000000              -0.000000964              -0.000020646               1.000000000              -0.000001686              -0.000022267               1.000000000              -0.000002777              -0.000024279               1.000000000              -0.000004295              -0.000026747               1.000000000              -0.000006199              -0.000029770               1.000000000              -0.000008488              -0.000033401               1.000000000              -0.000011206              -0.000037690               1.000000000              -0.000014335              -0.000042684               1.000000000               0.000001573              -0.000015878               1.000000000               0.000000765              -0.000014493               1.000000000               0.000000577              -0.000014656               1.000000000               0.000000443              -0.000015951               1.000000000               0.000000114              -0.000017968               1.000000000              -0.000000225              -0.000020370               1.000000000              -0.000000553              -0.000022506               1.000000000              -0.000000925              -0.000024370               1.000000000              -0.000001471              -0.000026551               1.000000000              -0.000002353              -0.000029079               1.000000000              -0.000003636              -0.000032013               1.000000000              -0.000005442              -0.000035515               1.000000000              -0.000007781              -0.000039628               1.000000000              -0.000010583              -0.000044397               1.000000000              -0.000013874              -0.000049874               1.000000000              -0.000017643              -0.000056092               1.000000000              -0.000021833              -0.000063086               1.000000000               0.000001338              -0.000019669               1.000000000               0.000000996              -0.000017902               1.000000000               0.000000942              -0.000018231               1.000000000               0.000000685              -0.000020025               1.000000000               0.000000176              -0.000022712               1.000000000              -0.000000457              -0.000025809               1.000000000              -0.000001111              -0.000028718               1.000000000              -0.000001745              -0.000031682               1.000000000              -0.000002683              -0.000035126               1.000000000              -0.000004110              -0.000039204               1.000000000              -0.000006099              -0.000043870               1.000000000              -0.000008694              -0.000049281               1.000000000              -0.000011846              -0.000055455               1.000000000              -0.000015519              -0.000062399               1.000000000              -0.000019712              -0.000070145               1.000000000              -0.000024418              -0.000078656               1.000000000              -0.000029570              -0.000087919               1.000000000               0.000001099              -0.000023337               1.000000000               0.000001346              -0.000021219               1.000000000               0.000001375              -0.000021862               1.000000000               0.000000905              -0.000024261               1.000000000               0.000000085              -0.000027730               1.000000000              -0.000000792              -0.000031784               1.000000000              -0.000001584              -0.000035991               1.000000000              -0.000002555              -0.000040331               1.000000000              -0.000004002              -0.000045520               1.000000000              -0.000006082              -0.000051451               1.000000000              -0.000008806              -0.000058179               1.000000000              -0.000012212              -0.000065765               1.000000000              -0.000016169              -0.000074248               1.000000000              -0.000020649              -0.000083619               1.000000000              -0.000025703              -0.000093801               1.000000000              -0.000031247              -0.000104773               1.000000000              -0.000037237              -0.000116477               1.000000000               0.000000979              -0.000026916               1.000000000               0.000001784              -0.000024465               1.000000000               0.000001772              -0.000025542               1.000000000               0.000001050              -0.000028736               1.000000000              -0.000000017              -0.000033280               1.000000000              -0.000001106              -0.000038615               1.000000000              -0.000002234              -0.000044230               1.000000000              -0.000003615              -0.000050317               1.000000000              -0.000005583              -0.000057532               1.000000000              -0.000008291              -0.000065608               1.000000000              -0.000011701              -0.000074574               1.000000000              -0.000015752              -0.000084627               1.000000000              -0.000020371              -0.000095655               1.000000000              -0.000025615              -0.000107644               1.000000000              -0.000031429              -0.000120549               1.000000000              -0.000037740              -0.000134281               1.000000000              -0.000044529              -0.000148797               1.000000000               0.000000901              -0.000030283               1.000000000               0.000002265              -0.000027716               1.000000000               0.000002125              -0.000029359               1.000000000               0.000001064              -0.000033504               1.000000000              -0.000000296              -0.000039310               1.000000000              -0.000001717              -0.000046084               1.000000000              -0.000003051              -0.000053369               1.000000000              -0.000004701              -0.000061528               1.000000000              -0.000007209              -0.000070865               1.000000000              -0.000010495              -0.000081263               1.000000000              -0.000014463              -0.000092765               1.000000000              -0.000019023              -0.000105538               1.000000000              -0.000024232              -0.000119506               1.000000000              -0.000030074              -0.000134558               1.000000000              -0.000036447              -0.000150750               1.000000000              -0.000043349              -0.000167911               1.000000000              -0.000050606              -0.000185732               1.000000000               0.000000740              -0.000033532               1.000000000               0.000002573              -0.000031128               1.000000000               0.000002558              -0.000032429               1.000000000               0.000001580              -0.000036214               1.000000000               0.000000206              -0.000041707               1.000000000              -0.000001270              -0.000048421               1.000000000              -0.000002500              -0.000055747               1.000000000              -0.000003698              -0.000063738               1.000000000              -0.000005408              -0.000072668               1.000000000              -0.000007833              -0.000082563               1.000000000              -0.000010720              -0.000093392               1.000000000              -0.000014157              -0.000105256               1.000000000              -0.000018107              -0.000118211               1.000000000              -0.000022515              -0.000132279               1.000000000              -0.000027413              -0.000147309               1.000000000              -0.000032783              -0.000163462               1.000000000              -0.000038563              -0.000180568               1.000000000               0.000000669              -0.000036678               1.000000000               0.000002744              -0.000034557               1.000000000               0.000002826              -0.000035642               1.000000000               0.000001987              -0.000039031               1.000000000               0.000000761              -0.000044253               1.000000000              -0.000000621              -0.000050724               1.000000000              -0.000001833              -0.000057970               1.000000000              -0.000002768              -0.000065886               1.000000000              -0.000003899              -0.000074586               1.000000000              -0.000005554              -0.000084153               1.000000000              -0.000007615              -0.000094539               1.000000000              -0.000010099              -0.000105741               1.000000000              -0.000012963              -0.000117861               1.000000000              -0.000016141              -0.000130973               1.000000000              -0.000019679              -0.000145023               1.000000000              -0.000023572              -0.000160019               1.000000000              -0.000027889              -0.000175891               1.000000000               0.000000593              -0.000039564               1.000000000               0.000002675              -0.000037834               1.000000000               0.000002902              -0.000038863               1.000000000               0.000002324              -0.000041995               1.000000000               0.000001303              -0.000046866               1.000000000               0.000000066              -0.000052952               1.000000000              -0.000001075              -0.000060012               1.000000000              -0.000001962              -0.000067821               1.000000000              -0.000002769              -0.000076432               1.000000000              -0.000003802              -0.000085823               1.000000000              -0.000005164              -0.000095997               1.000000000              -0.000006810              -0.000106820               1.000000000              -0.000008740              -0.000118367               1.000000000              -0.000010900              -0.000130730               1.000000000              -0.000013240              -0.000143928               1.000000000              -0.000015800              -0.000157942               1.000000000              -0.000018642              -0.000172786               1.000000000               0.000000449              -0.000042045               1.000000000               0.000002436              -0.000040896               1.000000000               0.000002799              -0.000041964               1.000000000               0.000002412              -0.000044876               1.000000000               0.000001611              -0.000049325               1.000000000               0.000000606              -0.000055049               1.000000000              -0.000000395              -0.000061924               1.000000000              -0.000001229              -0.000069680               1.000000000              -0.000001864              -0.000078207               1.000000000              -0.000002500              -0.000087457               1.000000000              -0.000003315              -0.000097452               1.000000000              -0.000004283              -0.000108083               1.000000000              -0.000005446              -0.000119334               1.000000000              -0.000006778              -0.000131208               1.000000000              -0.000008196              -0.000143818               1.000000000              -0.000009709              -0.000157193               1.000000000              -0.000011260              -0.000171345               1.000000000               0.000000313              -0.000044088               1.000000000               0.000002029              -0.000043551               1.000000000               0.000002409              -0.000044679               1.000000000               0.000002194              -0.000047430               1.000000000               0.000001664              -0.000051604               1.000000000               0.000000922              -0.000057072               1.000000000               0.000000073              -0.000063681               1.000000000              -0.000000666              -0.000071265               1.000000000              -0.000001168              -0.000079659               1.000000000              -0.000001523              -0.000088805               1.000000000              -0.000001965              -0.000098675               1.000000000              -0.000002484              -0.000109233               1.000000000              -0.000003086              -0.000120386               1.000000000              -0.000003796              -0.000132029               1.000000000              -0.000004568              -0.000144313               1.000000000              -0.000005329              -0.000157255               1.000000000              -0.000006022              -0.000170835               1.000000000               0.000000200              -0.000045606               1.000000000               0.000001432              -0.000045548               1.000000000               0.000001769              -0.000046797               1.000000000               0.000001703              -0.000049490               1.000000000               0.000001382              -0.000053488               1.000000000               0.000000848              -0.000058747               1.000000000               0.000000273              -0.000065132               1.000000000              -0.000000248              -0.000072515               1.000000000              -0.000000616              -0.000080757               1.000000000              -0.000000834              -0.000089814               1.000000000              -0.000001042              -0.000099613               1.000000000              -0.000001286              -0.000110097               1.000000000              -0.000001539              -0.000121144               1.000000000              -0.000001847              -0.000132703               1.000000000              -0.000002219              -0.000144815               1.000000000              -0.000002567              -0.000157467               1.000000000              -0.000002883              -0.000170656               1.000000000               0.000000091              -0.000046534               1.000000000               0.000000731              -0.000046799               1.000000000               0.000000957              -0.000048161               1.000000000               0.000000930              -0.000050824               1.000000000               0.000000755              -0.000054720               1.000000000               0.000000521              -0.000059836               1.000000000               0.000000223              -0.000066050               1.000000000              -0.000000056              -0.000073290               1.000000000              -0.000000257              -0.000081475               1.000000000              -0.000000362              -0.000090452               1.000000000              -0.000000429              -0.000100146               1.000000000              -0.000000511              -0.000110540               1.000000000              -0.000000601              -0.000121480               1.000000000              -0.000000715              -0.000132978               1.000000000              -0.000000857              -0.000144955               1.000000000              -0.000001001              -0.000157404               1.000000000              -0.000001169              -0.000170397               1.000000000              -0.000000000              -0.000046862               1.000000000              -0.000000000              -0.000047254               1.000000000              -0.000000000              -0.000048631               1.000000000               0.000000000              -0.000051262               1.000000000              -0.000000000              -0.000055157               1.000000000               0.000000000              -0.000060223               1.000000000               0.000000000              -0.000066389               1.000000000               0.000000000              -0.000073584               1.000000000              -0.000000000              -0.000081700               1.000000000              -0.000000000              -0.000090628               1.000000000              -0.000000000              -0.000100308               1.000000000              -0.000000000              -0.000110670               1.000000000              -0.000000000              -0.000121549               1.000000000              -0.000000000              -0.000133014               1.000000000               0.000000000              -0.000144930               1.000000000               0.000000000              -0.000157293               1.000000000              -0.000000000              -0.000170223               1.000000000              -0.000002237               0.000000000               1.000000000              -0.000000695               0.000000000               1.000000000              -0.000000127               0.000000000               1.000000000              -0.000000018               0.000000000               1.000000000              -0.000000037              -0.000000000               1.000000000              -0.000000009              -0.000000000               1.000000000               0.000000077              -0.000000000               1.000000000               0.000000163              -0.000000000               1.000000000               0.000000150               0.000000000               1.000000000               0.000000015               0.000000000               1.000000000              -0.000000180               0.000000000               1.000000000              -0.000000352              -0.000000000               1.000000000              -0.000000427              -0.000000000               1.000000000              -0.000000294              -0.000000000               1.000000000               0.000000158              -0.000000000               1.000000000               0.000000988              -0.000000000               1.000000000               0.000002258              -0.000000000               1.000000000              -0.000002190              -0.000004044               1.000000000              -0.000000674              -0.000003707               1.000000000              -0.000000140              -0.000003741               1.000000000              -0.000000044              -0.000003993               1.000000000              -0.000000043              -0.000004486               1.000000000               0.000000023              -0.000005090               1.000000000               0.000000118              -0.000005663               1.000000000               0.000000128              -0.000005940               1.000000000               0.000000102              -0.000006202               1.000000000               0.000000090              -0.000006457               1.000000000               0.000000054              -0.000006717               1.000000000               0.000000076              -0.000007139               1.000000000               0.000000249              -0.000007748               1.000000000               0.000000626              -0.000008590               1.000000000               0.000001305              -0.000009690               1.000000000               0.000002360              -0.000011036               1.000000000               0.000003840              -0.000012614               1.000000000              -0.000002061              -0.000008066               1.000000000              -0.000000675              -0.000007409               1.000000000              -0.000000206              -0.000007444               1.000000000              -0.000000084              -0.000007951               1.000000000              -0.000000044              -0.000008957               1.000000000               0.000000026              -0.000010175               1.000000000               0.000000142              -0.000011252               1.000000000               0.000000220              -0.000011883               1.000000000               0.000000305              -0.000012543               1.000000000               0.000000418              -0.000013229               1.000000000               0.000000632              -0.000013976               1.000000000               0.000001070              -0.000015008               1.000000000               0.000001766              -0.000016377               1.000000000               0.000002740              -0.000018166               1.000000000               0.000004050              -0.000020418               1.000000000               0.000005750              -0.000023144               1.000000000               0.000007873              -0.000026338               1.000000000              -0.000001825              -0.000012008               1.000000000              -0.000000684              -0.000011015               1.000000000              -0.000000336              -0.000011083               1.000000000              -0.000000228              -0.000011936               1.000000000              -0.000000086              -0.000013439               1.000000000               0.000000120              -0.000015203               1.000000000               0.000000299              -0.000016805               1.000000000               0.000000412              -0.000017950               1.000000000               0.000000569              -0.000019247               1.000000000               0.000000964              -0.000020646               1.000000000               0.000001686              -0.000022267               1.000000000               0.000002777              -0.000024279               1.000000000               0.000004295              -0.000026747               1.000000000               0.000006199              -0.000029770               1.000000000               0.000008488              -0.000033401               1.000000000               0.000011206              -0.000037690               1.000000000               0.000014335              -0.000042684               1.000000000              -0.000001573              -0.000015878               1.000000000              -0.000000765              -0.000014493               1.000000000              -0.000000577              -0.000014656               1.000000000              -0.000000443              -0.000015951               1.000000000              -0.000000114              -0.000017968               1.000000000               0.000000225              -0.000020370               1.000000000               0.000000553              -0.000022506               1.000000000               0.000000925              -0.000024370               1.000000000               0.000001471              -0.000026551               1.000000000               0.000002353              -0.000029079               1.000000000               0.000003636              -0.000032013               1.000000000               0.000005442              -0.000035515               1.000000000               0.000007781              -0.000039628               1.000000000               0.000010583              -0.000044397               1.000000000               0.000013874              -0.000049874               1.000000000               0.000017643              -0.000056092               1.000000000               0.000021833              -0.000063086               1.000000000              -0.000001338              -0.000019669               1.000000000              -0.000000996              -0.000017902               1.000000000              -0.000000942              -0.000018231               1.000000000              -0.000000685              -0.000020025               1.000000000              -0.000000176              -0.000022712               1.000000000               0.000000457              -0.000025809               1.000000000               0.000001111              -0.000028718               1.000000000               0.000001745              -0.000031682               1.000000000               0.000002683              -0.000035126               1.000000000               0.000004110              -0.000039204               1.000000000               0.000006099              -0.000043870               1.000000000               0.000008694              -0.000049281               1.000000000               0.000011846              -0.000055455               1.000000000               0.000015519              -0.000062399               1.000000000               0.000019712              -0.000070145               1.000000000               0.000024418              -0.000078656               1.000000000               0.000029570              -0.000087919               1.000000000              -0.000001099              -0.000023337               1.000000000              -0.000001346              -0.000021219               1.000000000              -0.000001375              -0.000021862               1.000000000              -0.000000905              -0.000024261               1.000000000              -0.000000085              -0.000027730               1.000000000               0.000000792              -0.000031784               1.000000000               0.000001584              -0.000035991               1.000000000               0.000002555              -0.000040331               1.000000000               0.000004002              -0.000045520               1.000000000               0.000006082              -0.000051451               1.000000000               0.000008806              -0.000058179               1.000000000               0.000012212              -0.000065765               1.000000000               0.000016169              -0.000074248               1.000000000               0.000020649              -0.000083619               1.000000000               0.000025703              -0.000093801               1.000000000               0.000031247              -0.000104773               1.000000000               0.000037237              -0.000116477               1.000000000              -0.000000979              -0.000026916               1.000000000              -0.000001784              -0.000024465               1.000000000              -0.000001772              -0.000025542               1.000000000              -0.000001050              -0.000028736               1.000000000               0.000000017              -0.000033280               1.000000000               0.000001106              -0.000038615               1.000000000               0.000002234              -0.000044230               1.000000000               0.000003615              -0.000050317               1.000000000               0.000005583              -0.000057532               1.000000000               0.000008291              -0.000065608               1.000000000               0.000011701              -0.000074574               1.000000000               0.000015752              -0.000084627               1.000000000               0.000020371              -0.000095655               1.000000000               0.000025615              -0.000107644               1.000000000               0.000031429              -0.000120549               1.000000000               0.000037740              -0.000134281               1.000000000               0.000044529              -0.000148797               1.000000000              -0.000000901              -0.000030283               1.000000000              -0.000002265              -0.000027716               1.000000000              -0.000002125              -0.000029359               1.000000000              -0.000001064              -0.000033504               1.000000000               0.000000296              -0.000039310               1.000000000               0.000001717              -0.000046084               1.000000000               0.000003051              -0.000053369               1.000000000               0.000004701              -0.000061528               1.000000000               0.000007209              -0.000070865               1.000000000               0.000010495              -0.000081263               1.000000000               0.000014463              -0.000092765               1.000000000               0.000019023              -0.000105538               1.000000000               0.000024232              -0.000119506               1.000000000               0.000030074              -0.000134558               1.000000000               0.000036447              -0.000150750               1.000000000               0.000043349              -0.000167911               1.000000000               0.000050606              -0.000185732               1.000000000              -0.000000740              -0.000033532               1.000000000              -0.000002573              -0.000031128               1.000000000              -0.000002558              -0.000032429               1.000000000              -0.000001580              -0.000036214               1.000000000              -0.000000206              -0.000041707               1.000000000               0.000001270              -0.000048421               1.000000000               0.000002500              -0.000055747               1.000000000               0.000003698              -0.000063738               1.000000000               0.000005408              -0.000072668               1.000000000               0.000007833              -0.000082563               1.000000000               0.000010720              -0.000093392               1.000000000               0.000014157              -0.000105256               1.000000000               0.000018107              -0.000118211               1.000000000               0.000022515              -0.000132279               1.000000000               0.000027413              -0.000147309               1.000000000               0.000032783              -0.000163462               1.000000000               0.000038563              -0.000180568               1.000000000              -0.000000669              -0.000036678               1.000000000              -0.000002744              -0.000034557               1.000000000              -0.000002826              -0.000035642               1.000000000              -0.000001987              -0.000039031               1.000000000              -0.000000761              -0.000044253               1.000000000               0.000000621              -0.000050724               1.000000000               0.000001833              -0.000057970               1.000000000               0.000002768              -0.000065886               1.000000000               0.000003899              -0.000074586               1.000000000               0.000005554              -0.000084153               1.000000000               0.000007615              -0.000094539               1.000000000               0.000010099              -0.000105741               1.000000000               0.000012963              -0.000117861               1.000000000               0.000016141              -0.000130973               1.000000000               0.000019679              -0.000145023               1.000000000               0.000023572              -0.000160019               1.000000000               0.000027889              -0.000175891               1.000000000              -0.000000593              -0.000039564               1.000000000              -0.000002675              -0.000037834               1.000000000              -0.000002902              -0.000038863               1.000000000              -0.000002324              -0.000041995               1.000000000              -0.000001303              -0.000046866               1.000000000              -0.000000066              -0.000052952               1.000000000               0.000001075              -0.000060012               1.000000000               0.000001962              -0.000067821               1.000000000               0.000002769              -0.000076432               1.000000000               0.000003802              -0.000085823               1.000000000               0.000005164              -0.000095997               1.000000000               0.000006810              -0.000106820               1.000000000               0.000008740              -0.000118367               1.000000000               0.000010900              -0.000130730               1.000000000               0.000013240              -0.000143928               1.000000000               0.000015800              -0.000157942               1.000000000               0.000018642              -0.000172786               1.000000000              -0.000000449              -0.000042045               1.000000000              -0.000002436              -0.000040896               1.000000000              -0.000002799              -0.000041964               1.000000000              -0.000002412              -0.000044876               1.000000000              -0.000001611              -0.000049325               1.000000000              -0.000000606              -0.000055049               1.000000000               0.000000395              -0.000061924               1.000000000               0.000001229              -0.000069680               1.000000000               0.000001864              -0.000078207               1.000000000               0.000002500              -0.000087457               1.000000000               0.000003315              -0.000097452               1.000000000               0.000004283              -0.000108083               1.000000000               0.000005446              -0.000119334               1.000000000               0.000006778              -0.000131208               1.000000000               0.000008196              -0.000143818               1.000000000               0.000009709              -0.000157193               1.000000000               0.000011260              -0.000171345               1.000000000              -0.000000313              -0.000044088               1.000000000              -0.000002029              -0.000043551               1.000000000              -0.000002409              -0.000044679               1.000000000              -0.000002194              -0.000047430               1.000000000              -0.000001664              -0.000051604               1.000000000              -0.000000922              -0.000057072               1.000000000              -0.000000073              -0.000063681               1.000000000               0.000000666              -0.000071265               1.000000000               0.000001168              -0.000079659               1.000000000               0.000001523              -0.000088805               1.000000000               0.000001965              -0.000098675               1.000000000               0.000002484              -0.000109233               1.000000000               0.000003086              -0.000120386               1.000000000               0.000003796              -0.000132029               1.000000000               0.000004568              -0.000144313               1.000000000               0.000005329              -0.000157255               1.000000000               0.000006022              -0.000170835               1.000000000              -0.000000200              -0.000045606               1.000000000              -0.000001432              -0.000045548               1.000000000              -0.000001769              -0.000046797               1.000000000              -0.000001703              -0.000049490               1.000000000              -0.000001382              -0.000053488               1.000000000              -0.000000848              -0.000058747               1.000000000              -0.000000273              -0.000065132               1.000000000               0.000000248              -0.000072515               1.000000000               0.000000616              -0.000080757               1.000000000               0.000000834              -0.000089814               1.000000000               0.000001042              -0.000099613               1.000000000               0.000001286              -0.000110097               1.000000000               0.000001539              -0.000121144               1.000000000               0.000001847              -0.000132703               1.000000000               0.000002219              -0.000144815               1.000000000               0.000002567              -0.000157467               1.000000000               0.000002883              -0.000170656               1.000000000              -0.000000091              -0.000046534               1.000000000              -0.000000731              -0.000046799               1.000000000              -0.000000957              -0.000048161               1.000000000              -0.000000930              -0.000050824               1.000000000              -0.000000755              -0.000054720               1.000000000              -0.000000521              -0.000059836               1.000000000              -0.000000223              -0.000066050               1.000000000               0.000000056              -0.000073290               1.000000000               0.000000257              -0.000081475               1.000000000               0.000000362              -0.000090452               1.000000000               0.000000429              -0.000100146               1.000000000               0.000000511              -0.000110540               1.000000000               0.000000601              -0.000121480               1.000000000               0.000000715              -0.000132978               1.000000000               0.000000857              -0.000144955               1.000000000               0.000001001              -0.000157404               1.000000000               0.000001169              -0.000170397               1.000000000              -0.000000000              -0.000046862               1.000000000              -0.000000000              -0.000047254               1.000000000              -0.000000000              -0.000048631               1.000000000               0.000000000              -0.000051262               1.000000000              -0.000000000              -0.000055157               1.000000000               0.000000000              -0.000060223               1.000000000               0.000000000              -0.000066389               1.000000000               0.000000000              -0.000073584               1.000000000              -0.000000000              -0.000081700               1.000000000              -0.000000000              -0.000090628               1.000000000              -0.000000000              -0.000100308               1.000000000              -0.000000000              -0.000110670               1.000000000              -0.000000000              -0.000121549               1.000000000              -0.000000000              -0.000133014               1.000000000               0.000000000              -0.000144930               1.000000000               0.000000000              -0.000157293               1.000000000              -0.000000000              -0.000170223               1.000000000              -0.000002237               0.000000000               1.000000000              -0.000000695               0.000000000               1.000000000              -0.000000127               0.000000000               1.000000000              -0.000000018               0.000000000               1.000000000              -0.000000037              -0.000000000               1.000000000              -0.000000009              -0.000000000               1.000000000               0.000000077              -0.000000000               1.000000000               0.000000163              -0.000000000               1.000000000               0.000000150               0.000000000               1.000000000               0.000000015               0.000000000               1.000000000              -0.000000180               0.000000000               1.000000000              -0.000000352              -0.000000000               1.000000000              -0.000000427              -0.000000000               1.000000000              -0.000000294              -0.000000000               1.000000000               0.000000158              -0.000000000               1.000000000               0.000000988              -0.000000000               1.000000000               0.000002258              -0.000000000               1.000000000              -0.000002190               0.000004044               1.000000000              -0.000000674               0.000003707               1.000000000              -0.000000140               0.000003741               1.000000000              -0.000000044               0.000003993               1.000000000              -0.000000043               0.000004486               1.000000000               0.000000023               0.000005090               1.000000000               0.000000118               0.000005663               1.000000000               0.000000128               0.000005940               1.000000000               0.000000102               0.000006202               1.000000000               0.000000090               0.000006457               1.000000000               0.000000054               0.000006717               1.000000000               0.000000076               0.000007139               1.000000000               0.000000249               0.000007748               1.000000000               0.000000626               0.000008590               1.000000000               0.000001305               0.000009690               1.000000000               0.000002360               0.000011036               1.000000000               0.000003840               0.000012614               1.000000000              -0.000002061               0.000008066               1.000000000              -0.000000675               0.000007409               1.000000000              -0.000000206               0.000007444               1.000000000              -0.000000084               0.000007951               1.000000000              -0.000000044               0.000008957               1.000000000               0.000000026               0.000010175               1.000000000               0.000000142               0.000011252               1.000000000               0.000000220               0.000011883               1.000000000               0.000000305               0.000012543               1.000000000               0.000000418               0.000013229               1.000000000               0.000000632               0.000013976               1.000000000               0.000001070               0.000015008               1.000000000               0.000001766               0.000016377               1.000000000               0.000002740               0.000018166               1.000000000               0.000004050               0.000020418               1.000000000               0.000005750               0.000023144               1.000000000               0.000007873               0.000026338               1.000000000              -0.000001825               0.000012008               1.000000000              -0.000000684               0.000011015               1.000000000              -0.000000336               0.000011083               1.000000000              -0.000000228               0.000011936               1.000000000              -0.000000086               0.000013439               1.000000000               0.000000120               0.000015203               1.000000000               0.000000299               0.000016805               1.000000000               0.000000412               0.000017950               1.000000000               0.000000569               0.000019247               1.000000000               0.000000964               0.000020646               1.000000000               0.000001686               0.000022267               1.000000000               0.000002777               0.000024279               1.000000000               0.000004295               0.000026747               1.000000000               0.000006199               0.000029770               1.000000000               0.000008488               0.000033401               1.000000000               0.000011206               0.000037690               1.000000000               0.000014335               0.000042684               1.000000000              -0.000001573               0.000015878               1.000000000              -0.000000765               0.000014493               1.000000000              -0.000000577               0.000014656               1.000000000              -0.000000443               0.000015951               1.000000000              -0.000000114               0.000017968               1.000000000               0.000000225               0.000020370               1.000000000               0.000000553               0.000022506               1.000000000               0.000000925               0.000024370               1.000000000               0.000001471               0.000026551               1.000000000               0.000002353               0.000029079               1.000000000               0.000003636               0.000032013               1.000000000               0.000005442               0.000035515               1.000000000               0.000007781               0.000039628               1.000000000               0.000010583               0.000044397               1.000000000               0.000013874               0.000049874               1.000000000               0.000017643               0.000056092               1.000000000               0.000021833               0.000063086               1.000000000              -0.000001338               0.000019669               1.000000000              -0.000000996               0.000017902               1.000000000              -0.000000942               0.000018231               1.000000000              -0.000000685               0.000020025               1.000000000              -0.000000176               0.000022712               1.000000000               0.000000457               0.000025809               1.000000000               0.000001111               0.000028718               1.000000000               0.000001745               0.000031682               1.000000000               0.000002683               0.000035126               1.000000000               0.000004110               0.000039204               1.000000000               0.000006099               0.000043870               1.000000000               0.000008694               0.000049281               1.000000000               0.000011846               0.000055455               1.000000000               0.000015519               0.000062399               1.000000000               0.000019712               0.000070145               1.000000000               0.000024418               0.000078656               1.000000000               0.000029570               0.000087919               1.000000000              -0.000001099               0.000023337               1.000000000              -0.000001346               0.000021219               1.000000000              -0.000001375               0.000021862               1.000000000              -0.000000905               0.000024261               1.000000000              -0.000000085               0.000027730               1.000000000               0.000000792               0.000031784               1.000000000               0.000001584               0.000035991               1.000000000               0.000002555               0.000040331               1.000000000               0.000004002               0.000045520               1.000000000               0.000006082               0.000051451               1.000000000               0.000008806               0.000058179               1.000000000               0.000012212               0.000065765               1.000000000               0.000016169               0.000074248               1.000000000               0.000020649               0.000083619               1.000000000               0.000025703               0.000093801               1.000000000               0.000031247               0.000104773               1.000000000               0.000037237               0.000116477               1.000000000              -0.000000979               0.000026916               1.000000000              -0.000001784               0.000024465               1.000000000              -0.000001772               0.000025542               1.000000000              -0.000001050               0.000028736               1.000000000               0.000000017               0.000033280               1.000000000               0.000001106               0.000038615               1.000000000               0.000002234               0.000044230               1.000000000               0.000003615               0.000050317               1.000000000               0.000005583               0.000057532               1.000000000               0.000008291               0.000065608               1.000000000               0.000011701               0.000074574               1.000000000               0.000015752               0.000084627               1.000000000               0.000020371               0.000095655               1.000000000               0.000025615               0.000107644               1.000000000               0.000031429               0.000120549               1.000000000               0.000037740               0.000134281               1.000000000               0.000044529               0.000148797               1.000000000              -0.000000901               0.000030283               1.000000000              -0.000002265               0.000027716               1.000000000              -0.000002125               0.000029359               1.000000000              -0.000001064               0.000033504               1.000000000               0.000000296               0.000039310               1.000000000               0.000001717               0.000046084               1.000000000               0.000003051               0.000053369               1.000000000               0.000004701               0.000061528               1.000000000               0.000007209               0.000070865               1.000000000               0.000010495               0.000081263               1.000000000               0.000014463               0.000092765               1.000000000               0.000019023               0.000105538               1.000000000               0.000024232               0.000119506               1.000000000               0.000030074               0.000134558               1.000000000               0.000036447               0.000150750               1.000000000               0.000043349               0.000167911               1.000000000               0.000050606               0.000185732               1.000000000              -0.000000740               0.000033532               1.000000000              -0.000002573               0.000031128               1.000000000              -0.000002558               0.000032429               1.000000000              -0.000001580               0.000036214               1.000000000              -0.000000206               0.000041707               1.000000000               0.000001270               0.000048421               1.000000000               0.000002500               0.000055747               1.000000000               0.000003698               0.000063738               1.000000000               0.000005408               0.000072668               1.000000000               0.000007833               0.000082563               1.000000000               0.000010720               0.000093392               1.000000000               0.000014157               0.000105256               1.000000000               0.000018107               0.000118211               1.000000000               0.000022515               0.000132279               1.000000000               0.000027413               0.000147309               1.000000000               0.000032783               0.000163462               1.000000000               0.000038563               0.000180568               1.000000000              -0.000000669               0.000036678               1.000000000              -0.000002744               0.000034557               1.000000000              -0.000002826               0.000035642               1.000000000              -0.000001987               0.000039031               1.000000000              -0.000000761               0.000044253               1.000000000               0.000000621               0.000050724               1.000000000               0.000001833               0.000057970               1.000000000               0.000002768               0.000065886               1.000000000               0.000003899               0.000074586               1.000000000               0.000005554               0.000084153               1.000000000               0.000007615               0.000094539               1.000000000               0.000010099               0.000105741               1.000000000               0.000012963               0.000117861               1.000000000               0.000016141               0.000130973               1.000000000               0.000019679               0.000145023               1.000000000               0.000023572               0.000160019               1.000000000               0.000027889               0.000175891               1.000000000              -0.000000593               0.000039564               1.000000000              -0.000002675               0.000037834               1.000000000              -0.000002902               0.000038863               1.000000000              -0.000002324               0.000041995               1.000000000              -0.000001303               0.000046866               1.000000000              -0.000000066               0.000052952               1.000000000               0.000001075               0.000060012               1.000000000               0.000001962               0.000067821               1.000000000               0.000002769               0.000076432               1.000000000               0.000003802               0.000085823               1.000000000               0.000005164               0.000095997               1.000000000               0.000006810               0.000106820               1.000000000               0.000008740               0.000118367               1.000000000               0.000010900               0.000130730               1.000000000               0.000013240               0.000143928               1.000000000               0.000015800               0.000157942               1.000000000               0.000018642               0.000172786               1.000000000              -0.000000449               0.000042045               1.000000000              -0.000002436               0.000040896               1.000000000              -0.000002799               0.000041964               1.000000000              -0.000002412               0.000044876               1.000000000              -0.000001611               0.000049325               1.000000000              -0.000000606               0.000055049               1.000000000               0.000000395               0.000061924               1.000000000               0.000001229               0.000069680               1.000000000               0.000001864               0.000078207               1.000000000               0.000002500               0.000087457               1.000000000               0.000003315               0.000097452               1.000000000               0.000004283               0.000108083               1.000000000               0.000005446               0.000119334               1.000000000               0.000006778               0.000131208               1.000000000               0.000008196               0.000143818               1.000000000               0.000009709               0.000157193               1.000000000               0.000011260               0.000171345               1.000000000              -0.000000313               0.000044088               1.000000000              -0.000002029               0.000043551               1.000000000              -0.000002409               0.000044679               1.000000000              -0.000002194               0.000047430               1.000000000              -0.000001664               0.000051604               1.000000000              -0.000000922               0.000057072               1.000000000              -0.000000073               0.000063681               1.000000000               0.000000666               0.000071265               1.000000000               0.000001168               0.000079659               1.000000000               0.000001523               0.000088805               1.000000000               0.000001965               0.000098675               1.000000000               0.000002484               0.000109233               1.000000000               0.000003086               0.000120386               1.000000000               0.000003796               0.000132029               1.000000000               0.000004568               0.000144313               1.000000000               0.000005329               0.000157255               1.000000000               0.000006022               0.000170835               1.000000000              -0.000000200               0.000045606               1.000000000              -0.000001432               0.000045548               1.000000000              -0.000001769               0.000046797               1.000000000              -0.000001703               0.000049490               1.000000000              -0.000001382               0.000053488               1.000000000              -0.000000848               0.000058747               1.000000000              -0.000000273               0.000065132               1.000000000               0.000000248               0.000072515               1.000000000               0.000000616               0.000080757               1.000000000               0.000000834               0.000089814               1.000000000               0.000001042               0.000099613               1.000000000               0.000001286               0.000110097               1.000000000               0.000001539               0.000121144               1.000000000               0.000001847               0.000132703               1.000000000               0.000002219               0.000144815               1.000000000               0.000002567               0.000157467               1.000000000               0.000002883               0.000170656               1.000000000              -0.000000091               0.000046534               1.000000000              -0.000000731               0.000046799               1.000000000              -0.000000957               0.000048161               1.000000000              -0.000000930               0.000050824               1.000000000              -0.000000755               0.000054720               1.000000000              -0.000000521               0.000059836               1.000000000              -0.000000223               0.000066050               1.000000000               0.000000056               0.000073290               1.000000000               0.000000257               0.000081475               1.000000000               0.000000362               0.000090452               1.000000000               0.000000429               0.000100146               1.000000000               0.000000511               0.000110540               1.000000000               0.000000601               0.000121480               1.000000000               0.000000715               0.000132978               1.000000000               0.000000857               0.000144955               1.000000000               0.000001001               0.000157404               1.000000000               0.000001169               0.000170397               1.000000000               0.000000000               0.000046862               1.000000000              -0.000000000               0.000047254               1.000000000               0.000000000               0.000048631               1.000000000               0.000000000               0.000051262               1.000000000               0.000000000               0.000055157               1.000000000               0.000000000               0.000060223               1.000000000              -0.000000000               0.000066389               1.000000000              -0.000000000               0.000073584               1.000000000              -0.000000000               0.000081700               1.000000000              -0.000000000               0.000090628               1.000000000              -0.000000000               0.000100308               1.000000000              -0.000000000               0.000110670               1.000000000              -0.000000000               0.000121549               1.000000000              -0.000000000               0.000133014               1.000000000               0.000000000               0.000144930               1.000000000              -0.000000000               0.000157293               1.000000000              -0.000000000               0.000170223               1.000000000 </DataArray>
<DataArray type="Float64"                                    Name="stress"                                                      NumberOfComponents="10" format="ascii">
              0.000079042               0.000769650              -0.000000000              -0.000066565               0.000278736               0.000212171               0.000000000               0.000000000               0.000000000               0.000000000               0.000101066               0.000655574              -0.000000000              -0.000044047               0.000233205               0.000189158               0.000000000               0.000000000               0.000000000               0.000000000               0.000154672               0.000575089              -0.000000000              -0.000013884               0.000196322               0.000182438               0.000000000               0.000000000               0.000000000               0.000000000               0.000174908               0.000540144               0.000000000              -0.000001927               0.000180689               0.000178761               0.000000000               0.000000000               0.000000000               0.000000000               0.000175347               0.000531294               0.000000000              -0.000000657               0.000177315               0.000176659               0.000000000               0.000000000               0.000000000               0.000000000               0.000170018               0.000532580               0.000000000              -0.000002816               0.000178463               0.000175648               0.000000000               0.000000000               0.000000000               0.000000000               0.000168075               0.000529942               0.000000000              -0.000003214               0.000177717               0.000174502               0.000000000               0.000000000               0.000000000               0.000000000               0.000168416               0.000512627               0.000000000              -0.000000922               0.000171182               0.000170259               0.000000000               0.000000000               0.000000000               0.000000000               0.000171516               0.000494887               0.000000000               0.000002458               0.000164142               0.000166599               0.000000000               0.000000000               0.000000000               0.000000000               0.000173787               0.000479339               0.000000000               0.000005253               0.000158027               0.000163280               0.000000000               0.000000000               0.000000000               0.000000000               0.000170396               0.000465972               0.000000000               0.000005652               0.000153439               0.000159090               0.000000000               0.000000000               0.000000000               0.000000000               0.000160025               0.000459788              -0.000000000               0.000002536               0.000152416               0.000154952               0.000000000               0.000000000               0.000000000               0.000000000               0.000142320               0.000461638              -0.000000000              -0.000004335               0.000155323               0.000150988               0.000000000               0.000000000               0.000000000               0.000000000               0.000115629               0.000471105               0.000000000              -0.000015527               0.000162209               0.000146682               0.000000000               0.000000000               0.000000000               0.000000000               0.000081509               0.000487992               0.000000000              -0.000030433               0.000172807               0.000142374               0.000000000               0.000000000               0.000000000               0.000000000               0.000042338               0.000511247              -0.000000000              -0.000048029               0.000186424               0.000138395               0.000000000               0.000000000               0.000000000               0.000000000               0.000024826               0.000532692              -0.000000000              -0.000057277               0.000196654               0.000139378               0.000000000               0.000000000               0.000000000               0.000000000               0.000083822               0.000760684              -0.000061510              -0.000063652               0.000274776               0.000211124               0.000000000               0.000000000               0.000000000               0.000000000               0.000104389               0.000650371              -0.000041341              -0.000042150               0.000230838               0.000188688               0.000000000               0.000000000               0.000000000               0.000000000               0.000154782               0.000571296              -0.000019058              -0.000013369               0.000194886               0.000181518               0.000000000               0.000000000               0.000000000               0.000000000               0.000172858               0.000537697              -0.000006471              -0.000002390               0.000180027               0.000177637               0.000000000               0.000000000               0.000000000               0.000000000               0.000172939               0.000530528               0.000000355              -0.000001464               0.000177329               0.000175865               0.000000000               0.000000000               0.000000000               0.000000000               0.000168334               0.000531988               0.000000669              -0.000003373               0.000178452               0.000175079               0.000000000               0.000000000               0.000000000               0.000000000               0.000168985               0.000528361              -0.000006468              -0.000002676               0.000177011               0.000174335               0.000000000               0.000000000               0.000000000               0.000000000               0.000170210               0.000513628              -0.000011677              -0.000000375               0.000171333               0.000170958               0.000000000               0.000000000               0.000000000               0.000000000               0.000168584               0.000499018              -0.000012438               0.000000842               0.000166057               0.000166899               0.000000000               0.000000000               0.000000000               0.000000000               0.000166689               0.000487521              -0.000014555               0.000001568               0.000161983               0.000163551               0.000000000               0.000000000               0.000000000               0.000000000               0.000161408               0.000479309              -0.000014974               0.000000614               0.000159563               0.000160178               0.000000000               0.000000000               0.000000000               0.000000000               0.000148921               0.000476871              -0.000013638              -0.000003763               0.000160210               0.000156446               0.000000000               0.000000000               0.000000000               0.000000000               0.000131184               0.000481519              -0.000011981              -0.000010996               0.000164170               0.000153174               0.000000000               0.000000000               0.000000000               0.000000000               0.000107085               0.000493102              -0.000009222              -0.000021481               0.000171526               0.000150045               0.000000000               0.000000000               0.000000000               0.000000000               0.000075509               0.000510799              -0.000006008              -0.000035534               0.000182109               0.000146575               0.000000000               0.000000000               0.000000000               0.000000000               0.000038886               0.000534365              -0.000002920              -0.000052213               0.000195524               0.000143311               0.000000000               0.000000000               0.000000000               0.000000000               0.000023157               0.000556030              -0.000002551              -0.000060820               0.000205615               0.000144795               0.000000000               0.000000000               0.000000000               0.000000000               0.000099580               0.000730998              -0.000116773              -0.000054032               0.000261674               0.000207642               0.000000000               0.000000000               0.000000000               0.000000000               0.000112430               0.000629740              -0.000078170              -0.000036556               0.000222097               0.000185540               0.000000000               0.000000000               0.000000000               0.000000000               0.000152440               0.000559975              -0.000035664              -0.000012832               0.000190934               0.000178102               0.000000000               0.000000000               0.000000000               0.000000000               0.000166325               0.000534678              -0.000011469              -0.000004463               0.000179712               0.000175249               0.000000000               0.000000000               0.000000000               0.000000000               0.000168129               0.000530819               0.000000837              -0.000003304               0.000178039               0.000174735               0.000000000               0.000000000               0.000000000               0.000000000               0.000165862               0.000530669              -0.000000201              -0.000004135               0.000178266               0.000174131               0.000000000               0.000000000               0.000000000               0.000000000               0.000166495               0.000525746              -0.000013066              -0.000003283               0.000176341               0.000173059               0.000000000               0.000000000               0.000000000               0.000000000               0.000167494               0.000518685              -0.000021619              -0.000002025               0.000173568               0.000171543               0.000000000               0.000000000               0.000000000               0.000000000               0.000164440               0.000516174              -0.000022375              -0.000002857               0.000173009               0.000170152               0.000000000               0.000000000               0.000000000               0.000000000               0.000158010               0.000517215              -0.000025205              -0.000005398               0.000174203               0.000168804               0.000000000               0.000000000               0.000000000               0.000000000               0.000145957               0.000522271              -0.000026231              -0.000010550               0.000177605               0.000167055               0.000000000               0.000000000               0.000000000               0.000000000               0.000128171               0.000530981              -0.000024672              -0.000018308               0.000183095               0.000164786               0.000000000               0.000000000               0.000000000               0.000000000               0.000109327               0.000544589              -0.000022169              -0.000027076               0.000190553               0.000163477               0.000000000               0.000000000               0.000000000               0.000000000               0.000088218               0.000562907              -0.000017886              -0.000037282               0.000200061               0.000162779               0.000000000               0.000000000               0.000000000               0.000000000               0.000061607               0.000584773              -0.000012431              -0.000049994               0.000211587               0.000161593               0.000000000               0.000000000               0.000000000               0.000000000               0.000031058               0.000611112              -0.000006364              -0.000064742               0.000225283               0.000160541               0.000000000               0.000000000               0.000000000               0.000000000               0.000019627               0.000634459              -0.000005494              -0.000071947               0.000235466               0.000163519               0.000000000               0.000000000               0.000000000               0.000000000               0.000122239               0.000683672              -0.000160671              -0.000039619               0.000241095               0.000201475               0.000000000               0.000000000               0.000000000               0.000000000               0.000122494               0.000594637              -0.000106562              -0.000028394               0.000207675               0.000179281               0.000000000               0.000000000               0.000000000               0.000000000               0.000149140               0.000545014              -0.000046534              -0.000012199               0.000185736               0.000173537               0.000000000               0.000000000               0.000000000               0.000000000               0.000155944               0.000534115              -0.000014740              -0.000008285               0.000180798               0.000172513               0.000000000               0.000000000               0.000000000               0.000000000               0.000156687               0.000534157              -0.000001043              -0.000008012               0.000180721               0.000172709               0.000000000               0.000000000               0.000000000               0.000000000               0.000160285               0.000536181              -0.000004044              -0.000006916               0.000181030               0.000174115               0.000000000               0.000000000               0.000000000               0.000000000               0.000166551               0.000534827              -0.000019695              -0.000004397               0.000179740               0.000175343               0.000000000               0.000000000               0.000000000               0.000000000               0.000171691               0.000540681              -0.000029460              -0.000003201               0.000181292               0.000178091               0.000000000               0.000000000               0.000000000               0.000000000               0.000166392               0.000553804              -0.000031383              -0.000006829               0.000186876               0.000180047               0.000000000               0.000000000               0.000000000               0.000000000               0.000151748               0.000571891              -0.000035771              -0.000014581               0.000195489               0.000180908               0.000000000               0.000000000               0.000000000               0.000000000               0.000132486               0.000595534              -0.000037558              -0.000024760               0.000206763               0.000182003               0.000000000               0.000000000               0.000000000               0.000000000               0.000109546               0.000622295              -0.000036673              -0.000036707               0.000219665               0.000182958               0.000000000               0.000000000               0.000000000               0.000000000               0.000088095               0.000652210              -0.000034006              -0.000048490               0.000233565               0.000185074               0.000000000               0.000000000               0.000000000               0.000000000               0.000068700               0.000684292              -0.000028707              -0.000059774               0.000248020               0.000188246               0.000000000               0.000000000               0.000000000               0.000000000               0.000046261               0.000716530              -0.000021322              -0.000072218               0.000262914               0.000190695               0.000000000               0.000000000               0.000000000               0.000000000               0.000022160               0.000749671              -0.000011690              -0.000085399               0.000278354               0.000192955               0.000000000               0.000000000               0.000000000               0.000000000               0.000015555               0.000775606              -0.000009234              -0.000091117               0.000288905               0.000197788               0.000000000               0.000000000               0.000000000               0.000000000               0.000144563               0.000627753              -0.000190392              -0.000024258               0.000217335               0.000193077               0.000000000               0.000000000               0.000000000               0.000000000               0.000130450               0.000556805              -0.000124257              -0.000020682               0.000192494               0.000171812               0.000000000               0.000000000               0.000000000               0.000000000               0.000142226               0.000533232              -0.000052302              -0.000013319               0.000182182               0.000168863               0.000000000               0.000000000               0.000000000               0.000000000               0.000141742               0.000537939              -0.000018475              -0.000014089               0.000184007               0.000169918               0.000000000               0.000000000               0.000000000               0.000000000               0.000144560               0.000549027              -0.000005224              -0.000014418               0.000187813               0.000173395               0.000000000               0.000000000               0.000000000               0.000000000               0.000156632               0.000559566              -0.000011245              -0.000011209               0.000190256               0.000179048               0.000000000               0.000000000               0.000000000               0.000000000               0.000168739               0.000569212              -0.000029174              -0.000007874               0.000192360               0.000184486               0.000000000               0.000000000               0.000000000               0.000000000               0.000175588               0.000593702              -0.000038765              -0.000008367               0.000200688               0.000192320               0.000000000               0.000000000               0.000000000               0.000000000               0.000169561               0.000626256              -0.000040592              -0.000014697               0.000213649               0.000198952               0.000000000               0.000000000               0.000000000               0.000000000               0.000155022               0.000665742              -0.000044250              -0.000025085               0.000230273               0.000205189               0.000000000               0.000000000               0.000000000               0.000000000               0.000133828               0.000708669              -0.000045547              -0.000038398               0.000249020               0.000210622               0.000000000               0.000000000               0.000000000               0.000000000               0.000108225               0.000753253              -0.000043796              -0.000053572               0.000268939               0.000215367               0.000000000               0.000000000               0.000000000               0.000000000               0.000085695               0.000799790              -0.000039981              -0.000067838               0.000289206               0.000221369               0.000000000               0.000000000               0.000000000               0.000000000               0.000064743               0.000845716              -0.000033494              -0.000081436               0.000309048               0.000227612               0.000000000               0.000000000               0.000000000               0.000000000               0.000041383               0.000888746              -0.000024685              -0.000095575               0.000328104               0.000232529               0.000000000               0.000000000               0.000000000               0.000000000               0.000019040               0.000928675              -0.000013364              -0.000108944               0.000345870               0.000236926               0.000000000               0.000000000               0.000000000               0.000000000               0.000014122               0.000956286              -0.000010075              -0.000114240               0.000356839               0.000242599               0.000000000               0.000000000               0.000000000               0.000000000               0.000167552               0.000566483              -0.000206719              -0.000007979               0.000191485               0.000183507               0.000000000               0.000000000               0.000000000               0.000000000               0.000135909               0.000520136              -0.000133621              -0.000014051               0.000178061               0.000164009               0.000000000               0.000000000               0.000000000               0.000000000               0.000131443               0.000529413              -0.000057518              -0.000016886               0.000182098               0.000165212               0.000000000               0.000000000               0.000000000               0.000000000               0.000129726               0.000553554              -0.000024477              -0.000020547               0.000191365               0.000170818               0.000000000               0.000000000               0.000000000               0.000000000               0.000137475               0.000580154              -0.000013403              -0.000020966               0.000200371               0.000179405               0.000000000               0.000000000               0.000000000               0.000000000               0.000155473               0.000607138              -0.000021097              -0.000017590               0.000208241               0.000190651               0.000000000               0.000000000               0.000000000               0.000000000               0.000176744               0.000643565              -0.000037251              -0.000014166               0.000219242               0.000205075               0.000000000               0.000000000               0.000000000               0.000000000               0.000186574               0.000690814              -0.000044356              -0.000016386               0.000235731               0.000219345               0.000000000               0.000000000               0.000000000               0.000000000               0.000178151               0.000744134              -0.000045394              -0.000026210               0.000256779               0.000230569               0.000000000               0.000000000               0.000000000               0.000000000               0.000160550               0.000798909              -0.000047874              -0.000039657               0.000279519               0.000239862               0.000000000               0.000000000               0.000000000               0.000000000               0.000137889               0.000854385              -0.000048883              -0.000055089               0.000303155               0.000248066               0.000000000               0.000000000               0.000000000               0.000000000               0.000114224               0.000909495              -0.000045970              -0.000070853               0.000326779               0.000255927               0.000000000               0.000000000               0.000000000               0.000000000               0.000093094               0.000964273              -0.000040543              -0.000085624               0.000349962               0.000264339               0.000000000               0.000000000               0.000000000               0.000000000               0.000070640               0.001016097              -0.000032873              -0.000100522               0.000372203               0.000271681               0.000000000               0.000000000               0.000000000               0.000000000               0.000045492               0.001062393              -0.000023410              -0.000115739               0.000392707               0.000276968               0.000000000               0.000000000               0.000000000               0.000000000               0.000021363               0.001103470              -0.000012295              -0.000129922               0.000411127               0.000281205               0.000000000               0.000000000               0.000000000               0.000000000               0.000015243               0.001130788              -0.000009241              -0.000135632               0.000422136               0.000286504               0.000000000               0.000000000               0.000000000               0.000000000               0.000183963               0.000503855              -0.000210042               0.000006004               0.000165948               0.000171953               0.000000000               0.000000000               0.000000000               0.000000000               0.000138729               0.000486101              -0.000136877              -0.000008739               0.000164945               0.000156206               0.000000000               0.000000000               0.000000000               0.000000000               0.000122328               0.000534207              -0.000063999              -0.000020903               0.000185035               0.000164132               0.000000000               0.000000000               0.000000000               0.000000000               0.000122282               0.000584287              -0.000034120              -0.000027180               0.000203821               0.000176641               0.000000000               0.000000000               0.000000000               0.000000000               0.000140027               0.000635118              -0.000023944              -0.000026879               0.000220664               0.000193784               0.000000000               0.000000000               0.000000000               0.000000000               0.000170031               0.000687963              -0.000028664              -0.000022234               0.000236730               0.000214496               0.000000000               0.000000000               0.000000000               0.000000000               0.000195508               0.000745342              -0.000042950              -0.000019852               0.000255062               0.000235210               0.000000000               0.000000000               0.000000000               0.000000000               0.000201852               0.000809416              -0.000049352              -0.000025482               0.000278297               0.000252815               0.000000000               0.000000000               0.000000000               0.000000000               0.000189853               0.000878248              -0.000050380              -0.000038586               0.000305608               0.000267022               0.000000000               0.000000000               0.000000000               0.000000000               0.000168596               0.000941744              -0.000052774              -0.000054494               0.000332076               0.000277582               0.000000000               0.000000000               0.000000000               0.000000000               0.000143171               0.001002330              -0.000051336              -0.000071602               0.000357974               0.000286372               0.000000000               0.000000000               0.000000000               0.000000000               0.000119056               0.001062392              -0.000045826              -0.000088153               0.000383511               0.000295359               0.000000000               0.000000000               0.000000000               0.000000000               0.000097715               0.001119977              -0.000037769              -0.000103354               0.000407773               0.000304419               0.000000000               0.000000000               0.000000000               0.000000000               0.000072803               0.001172236              -0.000029147              -0.000119228               0.000430484               0.000311256               0.000000000               0.000000000               0.000000000               0.000000000               0.000046878               0.001219226              -0.000020057              -0.000134823               0.000451346               0.000316522               0.000000000               0.000000000               0.000000000               0.000000000               0.000023367               0.001261747              -0.000010048              -0.000148956               0.000470230               0.000321275               0.000000000               0.000000000               0.000000000               0.000000000               0.000017176               0.001290437              -0.000008138              -0.000154863               0.000481762               0.000326899               0.000000000               0.000000000               0.000000000               0.000000000               0.000187706               0.000440899              -0.000203920               0.000015277               0.000141872               0.000157149               0.000000000               0.000000000               0.000000000               0.000000000               0.000137259               0.000460604              -0.000137889              -0.000006104               0.000155567               0.000149464               0.000000000               0.000000000               0.000000000               0.000000000               0.000117995               0.000552004              -0.000072447              -0.000024752               0.000192250               0.000167498               0.000000000               0.000000000               0.000000000               0.000000000               0.000128059               0.000632465              -0.000045253              -0.000031036               0.000221165               0.000190129               0.000000000               0.000000000               0.000000000               0.000000000               0.000157918               0.000709109              -0.000034898              -0.000029419               0.000246174               0.000216754               0.000000000               0.000000000               0.000000000               0.000000000               0.000195466               0.000779808              -0.000039464              -0.000024176               0.000267992               0.000243816               0.000000000               0.000000000               0.000000000               0.000000000               0.000219714               0.000848732              -0.000050457              -0.000023699               0.000290807               0.000267109               0.000000000               0.000000000               0.000000000               0.000000000               0.000219682               0.000926221              -0.000053383              -0.000033397               0.000319870               0.000286473               0.000000000               0.000000000               0.000000000               0.000000000               0.000200545               0.000999755              -0.000052652              -0.000049765               0.000349837               0.000300072               0.000000000               0.000000000               0.000000000               0.000000000               0.000175013               0.001067148              -0.000053939              -0.000067764               0.000378300               0.000310537               0.000000000               0.000000000               0.000000000               0.000000000               0.000149394               0.001133247              -0.000048776              -0.000085633               0.000406289               0.000320657               0.000000000               0.000000000               0.000000000               0.000000000               0.000124384               0.001199256              -0.000039593              -0.000103263               0.000434169               0.000330906               0.000000000               0.000000000               0.000000000               0.000000000               0.000098139               0.001261995              -0.000030976              -0.000120947               0.000460976               0.000340029               0.000000000               0.000000000               0.000000000               0.000000000               0.000070248               0.001320424              -0.000021959              -0.000138710               0.000486374               0.000347664               0.000000000               0.000000000               0.000000000               0.000000000               0.000044968               0.001377677              -0.000013640              -0.000155346               0.000511003               0.000355657               0.000000000               0.000000000               0.000000000               0.000000000               0.000022511               0.001431542              -0.000006642              -0.000170501               0.000534009               0.000363509               0.000000000               0.000000000               0.000000000               0.000000000               0.000015725               0.001466133              -0.000006441              -0.000177369               0.000547829               0.000370460               0.000000000               0.000000000               0.000000000               0.000000000               0.000192720               0.000384589              -0.000191473               0.000024196               0.000120130               0.000144326               0.000000000               0.000000000               0.000000000               0.000000000               0.000140499               0.000443604              -0.000139165              -0.000002764               0.000148788               0.000146024               0.000000000               0.000000000               0.000000000               0.000000000               0.000120625               0.000574390              -0.000085064              -0.000026564               0.000200316               0.000173752               0.000000000               0.000000000               0.000000000               0.000000000               0.000139524               0.000679506              -0.000059122              -0.000032617               0.000237372               0.000204755               0.000000000               0.000000000               0.000000000               0.000000000               0.000177069               0.000771506              -0.000047093              -0.000030037               0.000267179               0.000237141               0.000000000               0.000000000               0.000000000               0.000000000               0.000217831               0.000849869              -0.000046806              -0.000024547               0.000291469               0.000266922               0.000000000               0.000000000               0.000000000               0.000000000               0.000240348               0.000925346              -0.000049009              -0.000025538               0.000316958               0.000291421               0.000000000               0.000000000               0.000000000               0.000000000               0.000233417               0.001007313              -0.000049651              -0.000038383               0.000348562               0.000310179               0.000000000               0.000000000               0.000000000               0.000000000               0.000208901               0.001082299              -0.000049737              -0.000056950               0.000379746               0.000322796               0.000000000               0.000000000               0.000000000               0.000000000               0.000184382               0.001153774              -0.000048507              -0.000075078               0.000409614               0.000334535               0.000000000               0.000000000               0.000000000               0.000000000               0.000161124               0.001228450              -0.000041177              -0.000093135               0.000440524               0.000347390               0.000000000               0.000000000               0.000000000               0.000000000               0.000138178               0.001303425              -0.000031302              -0.000111111               0.000471508               0.000360397               0.000000000               0.000000000               0.000000000               0.000000000               0.000113155               0.001375284              -0.000022981              -0.000129477               0.000501583               0.000372105               0.000000000               0.000000000               0.000000000               0.000000000               0.000088262               0.001446194              -0.000014161              -0.000147675               0.000531285               0.000383610               0.000000000               0.000000000               0.000000000               0.000000000               0.000065708               0.001516338              -0.000005938              -0.000164901               0.000560408               0.000395507               0.000000000               0.000000000               0.000000000               0.000000000               0.000046335               0.001581951              -0.000001363              -0.000180368               0.000587434               0.000407066               0.000000000               0.000000000               0.000000000               0.000000000               0.000036214               0.001615888              -0.000000433              -0.000188405               0.000601426               0.000413021               0.000000000               0.000000000               0.000000000               0.000000000               0.000194725               0.000331655              -0.000176201               0.000031565               0.000100029               0.000131594               0.000000000               0.000000000               0.000000000               0.000000000               0.000148571               0.000413026              -0.000142998               0.000004085               0.000136312               0.000140398               0.000000000               0.000000000               0.000000000               0.000000000               0.000132549               0.000568258              -0.000105035              -0.000021326               0.000196526               0.000175200               0.000000000               0.000000000               0.000000000               0.000000000               0.000151413               0.000691205              -0.000079403              -0.000029621               0.000240273               0.000210652               0.000000000               0.000000000               0.000000000               0.000000000               0.000185208               0.000798026              -0.000063478              -0.000030300               0.000276106               0.000245806               0.000000000               0.000000000               0.000000000               0.000000000               0.000220647               0.000881164              -0.000053409              -0.000027403               0.000302853               0.000275450               0.000000000               0.000000000               0.000000000               0.000000000               0.000246510               0.000953020              -0.000046280              -0.000026686               0.000326566               0.000299879               0.000000000               0.000000000               0.000000000               0.000000000               0.000250347               0.001031158              -0.000044070              -0.000035014               0.000355387               0.000320373               0.000000000               0.000000000               0.000000000               0.000000000               0.000234580               0.001109156              -0.000046286              -0.000050677               0.000386607               0.000335931               0.000000000               0.000000000               0.000000000               0.000000000               0.000214490               0.001183204              -0.000045986              -0.000067466               0.000416886               0.000349420               0.000000000               0.000000000               0.000000000               0.000000000               0.000194850               0.001258192              -0.000041279              -0.000084205               0.000447461               0.000363256               0.000000000               0.000000000               0.000000000               0.000000000               0.000176796               0.001335835              -0.000035095              -0.000100680               0.000478834               0.000378154               0.000000000               0.000000000               0.000000000               0.000000000               0.000158594               0.001415005              -0.000026751              -0.000117403               0.000510798               0.000393395               0.000000000               0.000000000               0.000000000               0.000000000               0.000137883               0.001490674              -0.000018164              -0.000134628               0.000541762               0.000407134               0.000000000               0.000000000               0.000000000               0.000000000               0.000118377               0.001567278              -0.000010496              -0.000151518               0.000572927               0.000421409               0.000000000               0.000000000               0.000000000               0.000000000               0.000100891               0.001643445              -0.000003819              -0.000167596               0.000603675               0.000436079               0.000000000               0.000000000               0.000000000               0.000000000               0.000085162               0.001673733               0.000001805              -0.000177280               0.000616999               0.000439718               0.000000000               0.000000000               0.000000000               0.000000000               0.000187617               0.000276332              -0.000159017               0.000035814               0.000080172               0.000115986               0.000000000               0.000000000               0.000000000               0.000000000               0.000158823               0.000372851              -0.000145230               0.000012952               0.000119965               0.000132917               0.000000000               0.000000000               0.000000000               0.000000000               0.000147757               0.000543693              -0.000123024              -0.000012553               0.000185414               0.000172861               0.000000000               0.000000000               0.000000000               0.000000000               0.000161995               0.000681701              -0.000097006              -0.000024464               0.000235386               0.000210922               0.000000000               0.000000000               0.000000000               0.000000000               0.000186621               0.000796747              -0.000076148              -0.000029610               0.000275450               0.000245840               0.000000000               0.000000000               0.000000000               0.000000000               0.000214304               0.000881484              -0.000058894              -0.000029821               0.000303766               0.000273944               0.000000000               0.000000000               0.000000000               0.000000000               0.000245010               0.000956578              -0.000044872              -0.000027694               0.000328087               0.000300394               0.000000000               0.000000000               0.000000000               0.000000000               0.000265571               0.001036635              -0.000038386              -0.000029990               0.000355538               0.000325548               0.000000000               0.000000000               0.000000000               0.000000000               0.000266802               0.001119349              -0.000040675              -0.000039868               0.000386402               0.000346534               0.000000000               0.000000000               0.000000000               0.000000000               0.000256006               0.001197514              -0.000043128              -0.000053687               0.000417063               0.000363376               0.000000000               0.000000000               0.000000000               0.000000000               0.000243391               0.001271150              -0.000043134              -0.000067622               0.000446253               0.000378631               0.000000000               0.000000000               0.000000000               0.000000000               0.000229331               0.001344227              -0.000040141              -0.000082029               0.000475414               0.000393385               0.000000000               0.000000000               0.000000000               0.000000000               0.000216022               0.001422028              -0.000032840              -0.000096745               0.000506253               0.000409508               0.000000000               0.000000000               0.000000000               0.000000000               0.000201016               0.001498051              -0.000023709              -0.000111875               0.000536637               0.000424762               0.000000000               0.000000000               0.000000000               0.000000000               0.000183266               0.001572019              -0.000014704              -0.000127777               0.000566593               0.000438816               0.000000000               0.000000000               0.000000000               0.000000000               0.000163455               0.001641958              -0.000006078              -0.000143949               0.000595297               0.000451348               0.000000000               0.000000000               0.000000000               0.000000000               0.000144085               0.001667543               0.000001412              -0.000154410               0.000607312               0.000452902               0.000000000               0.000000000               0.000000000               0.000000000               0.000176117               0.000216277              -0.000137669               0.000039009               0.000059089               0.000098097               0.000000000               0.000000000               0.000000000               0.000000000               0.000167382               0.000327457              -0.000140275               0.000021836               0.000101873               0.000123709               0.000000000               0.000000000               0.000000000               0.000000000               0.000164723               0.000509565              -0.000131138              -0.000001925               0.000170495               0.000168570               0.000000000               0.000000000               0.000000000               0.000000000               0.000177243               0.000656213              -0.000108498              -0.000015560               0.000223922               0.000208362               0.000000000               0.000000000               0.000000000               0.000000000               0.000195041               0.000772202              -0.000085963              -0.000023385               0.000265193               0.000241808               0.000000000               0.000000000               0.000000000               0.000000000               0.000217383               0.000866356              -0.000065726              -0.000026776               0.000297708               0.000270932               0.000000000               0.000000000               0.000000000               0.000000000               0.000248040               0.000954849              -0.000048902              -0.000026341               0.000327060               0.000300719               0.000000000               0.000000000               0.000000000               0.000000000               0.000279394               0.001043858              -0.000038746              -0.000025710               0.000356519               0.000330809               0.000000000               0.000000000               0.000000000               0.000000000               0.000296289               0.001131769              -0.000036453              -0.000030363               0.000387373               0.000357011               0.000000000               0.000000000               0.000000000               0.000000000               0.000297275               0.001213372              -0.000038096              -0.000040193               0.000417851               0.000377658               0.000000000               0.000000000               0.000000000               0.000000000               0.000290713               0.001286082              -0.000039577              -0.000051743               0.000445937               0.000394195               0.000000000               0.000000000               0.000000000               0.000000000               0.000279783               0.001353329              -0.000038865              -0.000064247               0.000472521               0.000408274               0.000000000               0.000000000               0.000000000               0.000000000               0.000269746               0.001425113              -0.000034894              -0.000076984               0.000500694               0.000423710               0.000000000               0.000000000               0.000000000               0.000000000               0.000260368               0.001499057              -0.000027072              -0.000089744               0.000529595               0.000439851               0.000000000               0.000000000               0.000000000               0.000000000               0.000248601               0.001571929              -0.000017851              -0.000103265               0.000558393               0.000455127               0.000000000               0.000000000               0.000000000               0.000000000               0.000233831               0.001643255              -0.000009386              -0.000117720               0.000586986               0.000469266               0.000000000               0.000000000               0.000000000               0.000000000               0.000216181               0.001672456              -0.000002224              -0.000127989               0.000600143               0.000472154               0.000000000               0.000000000               0.000000000               0.000000000               0.000159187               0.000167853              -0.000109695               0.000038713               0.000043046               0.000081759               0.000000000               0.000000000               0.000000000               0.000000000               0.000171355               0.000282815              -0.000125609               0.000028906               0.000084635               0.000113541               0.000000000               0.000000000               0.000000000               0.000000000               0.000183363               0.000463147              -0.000128279               0.000010868               0.000150758               0.000161626               0.000000000               0.000000000               0.000000000               0.000000000               0.000198090               0.000610689              -0.000111042              -0.000002052               0.000204245               0.000202193               0.000000000               0.000000000               0.000000000               0.000000000               0.000212070               0.000733665              -0.000090271              -0.000012182               0.000248613               0.000236431               0.000000000               0.000000000               0.000000000               0.000000000               0.000232095               0.000846907              -0.000071347              -0.000018828               0.000288576               0.000269748               0.000000000               0.000000000               0.000000000               0.000000000               0.000261530               0.000952331              -0.000054658              -0.000020968               0.000324430               0.000303462               0.000000000               0.000000000               0.000000000               0.000000000               0.000293191               0.001048001              -0.000041068              -0.000021054               0.000356348               0.000335295               0.000000000               0.000000000               0.000000000               0.000000000               0.000316423               0.001136204              -0.000032485              -0.000023367               0.000386520               0.000363153               0.000000000               0.000000000               0.000000000               0.000000000               0.000327564               0.001219485              -0.000030431              -0.000029599               0.000416357               0.000386758               0.000000000               0.000000000               0.000000000               0.000000000               0.000330567               0.001295405              -0.000030777              -0.000037963               0.000444452               0.000406489               0.000000000               0.000000000               0.000000000               0.000000000               0.000328302               0.001364220              -0.000031359              -0.000047414               0.000470540               0.000423126               0.000000000               0.000000000               0.000000000               0.000000000               0.000323360               0.001430301              -0.000030967              -0.000057528               0.000495938               0.000438411               0.000000000               0.000000000               0.000000000               0.000000000               0.000319583               0.001499878              -0.000026612              -0.000067641               0.000522501               0.000454860               0.000000000               0.000000000               0.000000000               0.000000000               0.000317612               0.001575421              -0.000019668              -0.000077823               0.000551076               0.000473253               0.000000000               0.000000000               0.000000000               0.000000000               0.000313277               0.001650957              -0.000010904              -0.000088890               0.000579943               0.000491053               0.000000000               0.000000000               0.000000000               0.000000000               0.000302619               0.001683570              -0.000003441              -0.000096964               0.000593506               0.000496542               0.000000000               0.000000000               0.000000000               0.000000000               0.000135450               0.000129251              -0.000078680               0.000034637               0.000031538               0.000066175               0.000000000               0.000000000               0.000000000               0.000000000               0.000172920               0.000236832              -0.000101420               0.000035241               0.000067196               0.000102437               0.000000000               0.000000000               0.000000000               0.000000000               0.000202275               0.000408958              -0.000112117               0.000024733               0.000128074               0.000152807               0.000000000               0.000000000               0.000000000               0.000000000               0.000220188               0.000560301              -0.000100569               0.000012533               0.000182588               0.000195120               0.000000000               0.000000000               0.000000000               0.000000000               0.000235432               0.000695621              -0.000085251               0.000001334               0.000231427               0.000232761               0.000000000               0.000000000               0.000000000               0.000000000               0.000255108               0.000822127              -0.000071060              -0.000007100               0.000276406               0.000269306               0.000000000               0.000000000               0.000000000               0.000000000               0.000278616               0.000936355              -0.000055681              -0.000012563               0.000316303               0.000303740               0.000000000               0.000000000               0.000000000               0.000000000               0.000304736               0.001037686              -0.000039532              -0.000015435               0.000351037               0.000335602               0.000000000               0.000000000               0.000000000               0.000000000               0.000329888               0.001130557              -0.000026646              -0.000017612               0.000382719               0.000365107               0.000000000               0.000000000               0.000000000               0.000000000               0.000349537               0.001219180              -0.000021697              -0.000021321               0.000413496               0.000392175               0.000000000               0.000000000               0.000000000               0.000000000               0.000363162               0.001302287              -0.000021396              -0.000026600               0.000442958               0.000416358               0.000000000               0.000000000               0.000000000               0.000000000               0.000371870               0.001376855              -0.000021699              -0.000032656               0.000469832               0.000437177               0.000000000               0.000000000               0.000000000               0.000000000               0.000374529               0.001440144              -0.000022187              -0.000039570               0.000493233               0.000453663               0.000000000               0.000000000               0.000000000               0.000000000               0.000377326               0.001505488              -0.000021312              -0.000046689               0.000517387               0.000470698               0.000000000               0.000000000               0.000000000               0.000000000               0.000383608               0.001578562              -0.000017095              -0.000053467               0.000544004               0.000490537               0.000000000               0.000000000               0.000000000               0.000000000               0.000389145               0.001650115              -0.000009101              -0.000060335               0.000570144               0.000509809               0.000000000               0.000000000               0.000000000               0.000000000               0.000387722               0.001682107              -0.000002812              -0.000064867               0.000582319               0.000517452               0.000000000               0.000000000               0.000000000               0.000000000               0.000110681               0.000097188              -0.000049760               0.000029357               0.000022610               0.000051967               0.000000000               0.000000000               0.000000000               0.000000000               0.000171265               0.000197062              -0.000070273               0.000039591               0.000052490               0.000092081               0.000000000               0.000000000               0.000000000               0.000000000               0.000217086               0.000361936              -0.000082568               0.000036165               0.000108589               0.000144754               0.000000000               0.000000000               0.000000000               0.000000000               0.000242451               0.000516295              -0.000077010               0.000026382               0.000163303               0.000189685               0.000000000               0.000000000               0.000000000               0.000000000               0.000261650               0.000659058              -0.000067931               0.000015736               0.000214438               0.000230175               0.000000000               0.000000000               0.000000000               0.000000000               0.000278213               0.000791978              -0.000057464               0.000005333               0.000262212               0.000267545               0.000000000               0.000000000               0.000000000               0.000000000               0.000295135               0.000912216              -0.000044932              -0.000003352               0.000305186               0.000301835               0.000000000               0.000000000               0.000000000               0.000000000               0.000315952               0.001021202              -0.000031787              -0.000009168               0.000343453               0.000334285               0.000000000               0.000000000               0.000000000               0.000000000               0.000341321               0.001122526              -0.000020618              -0.000012320               0.000378278               0.000365958               0.000000000               0.000000000               0.000000000               0.000000000               0.000366745               0.001217603              -0.000014608              -0.000014671               0.000410754               0.000396083               0.000000000               0.000000000               0.000000000               0.000000000               0.000387718               0.001305330              -0.000012849              -0.000017772               0.000441030               0.000423258               0.000000000               0.000000000               0.000000000               0.000000000               0.000403955               0.001381957              -0.000011861              -0.000021261               0.000467735               0.000446473               0.000000000               0.000000000               0.000000000               0.000000000               0.000415622               0.001447392              -0.000011429              -0.000025066               0.000490814               0.000465749               0.000000000               0.000000000               0.000000000               0.000000000               0.000426446               0.001512274              -0.000012042              -0.000029117               0.000513792               0.000484675               0.000000000               0.000000000               0.000000000               0.000000000               0.000438133               0.001578551              -0.000010110              -0.000033019               0.000537185               0.000504166               0.000000000               0.000000000               0.000000000               0.000000000               0.000451243               0.001644494              -0.000005371              -0.000036346               0.000560275               0.000523929               0.000000000               0.000000000               0.000000000               0.000000000               0.000457242               0.001676392              -0.000002139              -0.000038083               0.000571486               0.000533403               0.000000000               0.000000000               0.000000000               0.000000000               0.000090657               0.000077381              -0.000024623               0.000024324               0.000017686               0.000042009               0.000000000               0.000000000               0.000000000               0.000000000               0.000166475               0.000171176              -0.000036277               0.000041031               0.000043381               0.000084412               0.000000000               0.000000000               0.000000000               0.000000000               0.000227980               0.000329853              -0.000043836               0.000044261               0.000095196               0.000139457               0.000000000               0.000000000               0.000000000               0.000000000               0.000259779               0.000484959              -0.000042041               0.000036797               0.000149386               0.000186183               0.000000000               0.000000000               0.000000000               0.000000000               0.000279655               0.000630997              -0.000037506               0.000025996               0.000201665               0.000227661               0.000000000               0.000000000               0.000000000               0.000000000               0.000293720               0.000766862              -0.000031704               0.000014287               0.000250856               0.000265143               0.000000000               0.000000000               0.000000000               0.000000000               0.000308316               0.000892255              -0.000025294               0.000004086               0.000296053               0.000300140               0.000000000               0.000000000               0.000000000               0.000000000               0.000327368               0.001009665              -0.000018176              -0.000003445               0.000337700               0.000334255               0.000000000               0.000000000               0.000000000               0.000000000               0.000350934               0.001116325              -0.000011532              -0.000007940               0.000374751               0.000366811               0.000000000               0.000000000               0.000000000               0.000000000               0.000376898               0.001212592              -0.000007015              -0.000010237               0.000407606               0.000397368               0.000000000               0.000000000               0.000000000               0.000000000               0.000402385               0.001302861              -0.000005249              -0.000011963               0.000438270               0.000426307               0.000000000               0.000000000               0.000000000               0.000000000               0.000423800               0.001381135              -0.000004388              -0.000013717               0.000464946               0.000451229               0.000000000               0.000000000               0.000000000               0.000000000               0.000442281               0.001450590              -0.000003833              -0.000015468               0.000488681               0.000473213               0.000000000               0.000000000               0.000000000               0.000000000               0.000458789               0.001516201              -0.000004132              -0.000017479               0.000511222               0.000493743               0.000000000               0.000000000               0.000000000               0.000000000               0.000472979               0.001576438              -0.000003286              -0.000019688               0.000532037               0.000512349               0.000000000               0.000000000               0.000000000               0.000000000               0.000489405               0.001640809              -0.000001656              -0.000021574               0.000554122               0.000532548               0.000000000               0.000000000               0.000000000               0.000000000               0.000497889               0.001674469              -0.000000829              -0.000022600               0.000565684               0.000543084               0.000000000               0.000000000               0.000000000               0.000000000               0.000082350               0.000071149               0.000000000               0.000021987               0.000016387               0.000038374               0.000000000               0.000000000               0.000000000               0.000000000               0.000163649               0.000161426               0.000000000               0.000041190               0.000040078               0.000081268               0.000000000               0.000000000               0.000000000               0.000000000               0.000232571               0.000317186               0.000000000               0.000047565               0.000089873               0.000137438               0.000000000               0.000000000               0.000000000               0.000000000               0.000265903               0.000473722               0.000000000               0.000040498               0.000144406               0.000184904               0.000000000               0.000000000               0.000000000               0.000000000               0.000284983               0.000620961              -0.000000000               0.000029248               0.000197236               0.000226484               0.000000000               0.000000000               0.000000000               0.000000000               0.000300241               0.000757980               0.000000000               0.000017843               0.000246710               0.000264552               0.000000000               0.000000000               0.000000000               0.000000000               0.000314112               0.000885529              -0.000000000               0.000007101               0.000292807               0.000299907               0.000000000               0.000000000               0.000000000               0.000000000               0.000331378               0.001004363               0.000000000              -0.000001278               0.000335210               0.000333932               0.000000000               0.000000000               0.000000000               0.000000000               0.000353590               0.001111957               0.000000000              -0.000006398               0.000372781               0.000366383               0.000000000               0.000000000               0.000000000               0.000000000               0.000380202               0.001210292               0.000000000              -0.000008711               0.000406330               0.000397620               0.000000000               0.000000000               0.000000000               0.000000000               0.000407889               0.001302287              -0.000000000              -0.000009827               0.000437367               0.000427540               0.000000000               0.000000000               0.000000000               0.000000000               0.000431018               0.001380224              -0.000000000              -0.000010896               0.000463702               0.000452806               0.000000000               0.000000000               0.000000000               0.000000000               0.000451518               0.001451087              -0.000000000              -0.000012067               0.000487713               0.000475646               0.000000000               0.000000000               0.000000000               0.000000000               0.000469655               0.001517189               0.000000000              -0.000013528               0.000510234               0.000496706               0.000000000               0.000000000               0.000000000               0.000000000               0.000484447               0.001575141              -0.000000000              -0.000015225               0.000530117               0.000514892               0.000000000               0.000000000               0.000000000               0.000000000               0.000501466               0.001639750              -0.000000000              -0.000016919               0.000552217               0.000535298               0.000000000               0.000000000               0.000000000               0.000000000               0.000509894               0.001674506              -0.000000000              -0.000018103               0.000564198               0.000546094               0.000000000               0.000000000               0.000000000               0.000000000               0.000000000               0.000000000               0.000000000               0.000000000               0.000000000               0.000000000               0.000000000               0.000000000               0.000000000               0.000000000               0.000000000               0.000000000               0.000000000               0.000000000               0.000000000               0.000000000               0.000000000               0.000000000               0.000000000               0.000000000               0.000000000               0.000000000               0.000000000               0.000000000               0.000000000               0.000000000               0.000000000               0.000000000               0.000000000               0.000000000               0.000000000               0.000000000               0.000000000               0.000000000               0.000000000               0.000000000               0.000000000               0.000000000               0.000000000               0.000000000               0.000000000               0.000000000               0.000000000               0.000000000               0.000000000               0.000000000               0.000000000               0.000000000               0.000000000               0.000000000               0.000000000               0.000000000               0.000000000               0.000000000               0.000000000               0.000000000               0.000000000               0.000000000               0.000000000               0.000000000               0.000000000               0.000000000               0.000000000               0.000000000               0.000000000               0.000000000               0.000000000               0.000000000               0.000000000               0.000000000               0.000000000               0.000000000               0.000000000               0.000000000               0.000000000               0.000000000               0.000000000               0.000000000               0.000000000               0.000000000               0.000000000               0.000000000               0.000000000               0.000000000               0.000000000               0.000000000               0.000000000               0.000000000               0.000000000               0.000000000               0.000000000               0.000000000               0.000000000               0.000000000               0.000000000               0.000000000               0.000000000               0.000000000               0.000000000               0.000000000               0.000000000               0.000000000               0.000000000               0.000000000               0.000000000               0.000000000               0.000000000               0.000000000               0.000000000               0.000000000               0.000000000               0.000000000               0.000000000               0.000000000               0.000000000               0.000000000               0.000000000               0.000000000               0.000000000               0.000000000               0.000000000               0.000000000               0.000000000               0.000000000               0.000000000               0.000000000               0.000000000               0.000000000               0.000000000               0.000000000               0.000000000               0.000000000               0.000000000               0.000000000               0.000000000               0.000000000               0.000000000               0.000000000               0.000000000               0.000000000               0.000000000               0.000000000               0.000000000               0.000000000               0.000000000               0.000000000               0.000000000               0.000000000               0.000000000               0.000000000               0.000000000               0.000000000               0.000000000               0.000000000               0.000000000               0.000000000               0.000000000               0.000000000               0.000000000               0.000000000               0.000000000               0.000000000               0.000000000               0.000000000               0.000000000               0.000000000               0.000000000               0.000000000               0.000000000               0.000000000               0.000083822               0.000760684               0.000061510              -0.000063652               0.000274776               0.000211124               0.000000000               0.000000000               0.000000000               0.000000000               0.000104389               0.000650371               0.000041341              -0.000042150               0.000230838               0.000188688               0.000000000               0.000000000               0.000000000               0.000000000               0.000154782               0.000571296               0.000019058              -0.000013369               0.000194886               0.000181518               0.000000000               0.000000000               0.000000000               0.000000000               0.000172858               0.000537697               0.000006471              -0.000002390               0.000180027               0.000177637               0.000000000               0.000000000               0.000000000               0.000000000               0.000172939               0.000530528              -0.000000355              -0.000001464               0.000177329               0.000175865               0.000000000               0.000000000               0.000000000               0.000000000               0.000168334               0.000531988              -0.000000669              -0.000003373               0.000178452               0.000175079               0.000000000               0.000000000               0.000000000               0.000000000               0.000168985               0.000528361               0.000006468              -0.000002676               0.000177011               0.000174335               0.000000000               0.000000000               0.000000000               0.000000000               0.000170210               0.000513628               0.000011677              -0.000000375               0.000171333               0.000170958               0.000000000               0.000000000               0.000000000               0.000000000               0.000168584               0.000499018               0.000012438               0.000000842               0.000166057               0.000166899               0.000000000               0.000000000               0.000000000               0.000000000               0.000166689               0.000487521               0.000014555               0.000001568               0.000161983               0.000163551               0.000000000               0.000000000               0.000000000               0.000000000               0.000161408               0.000479309               0.000014974               0.000000614               0.000159563               0.000160178               0.000000000               0.000000000               0.000000000               0.000000000               0.000148921               0.000476871               0.000013638              -0.000003763               0.000160210               0.000156446               0.000000000               0.000000000               0.000000000               0.000000000               0.000131184               0.000481519               0.000011981              -0.000010996               0.000164170               0.000153174               0.000000000               0.000000000               0.000000000               0.000000000               0.000107085               0.000493102               0.000009222              -0.000021481               0.000171526               0.000150045               0.000000000               0.000000000               0.000000000               0.000000000               0.000075509               0.000510799               0.000006008              -0.000035534               0.000182109               0.000146575               0.000000000               0.000000000               0.000000000               0.000000000               0.000038886               0.000534365               0.000002920              -0.000052213               0.000195524               0.000143311               0.000000000               0.000000000               0.000000000               0.000000000               0.000023157               0.000556030               0.000002551              -0.000060820               0.000205615               0.000144795               0.000000000               0.000000000               0.000000000               0.000000000               0.000099580               0.000730998               0.000116773              -0.000054032               0.000261674               0.000207642               0.000000000               0.000000000               0.000000000               0.000000000               0.000112430               0.000629740               0.000078170              -0.000036556               0.000222097               0.000185540               0.000000000               0.000000000               0.000000000               0.000000000               0.000152440               0.000559975               0.000035664              -0.000012832               0.000190934               0.000178102               0.000000000               0.000000000               0.000000000               0.000000000               0.000166325               0.000534678               0.000011469              -0.000004463               0.000179712               0.000175249               0.000000000               0.000000000               0.000000000               0.000000000               0.000168129               0.000530819              -0.000000837              -0.000003304               0.000178039               0.000174735               0.000000000               0.000000000               0.000000000               0.000000000               0.000165862               0.000530669               0.000000201              -0.000004135               0.000178266               0.000174131               0.000000000               0.000000000               0.000000000               0.000000000               0.000166495               0.000525746               0.000013066              -0.000003283               0.000176341               0.000173059               0.000000000               0.000000000               0.000000000               0.000000000               0.000167494               0.000518685               0.000021619              -0.000002025               0.000173568               0.000171543               0.000000000               0.000000000               0.000000000               0.000000000               0.000164440               0.000516174               0.000022375              -0.000002857               0.000173009               0.000170152               0.000000000               0.000000000               0.000000000               0.000000000               0.000158010               0.000517215               0.000025205              -0.000005398               0.000174203               0.000168804               0.000000000               0.000000000               0.000000000               0.000000000               0.000145957               0.000522271               0.000026231              -0.000010550               0.000177605               0.000167055               0.000000000               0.000000000               0.000000000               0.000000000               0.000128171               0.000530981               0.000024672              -0.000018308               0.000183095               0.000164786               0.000000000               0.000000000               0.000000000               0.000000000               0.000109327               0.000544589               0.000022169              -0.000027076               0.000190553               0.000163477               0.000000000               0.000000000               0.000000000               0.000000000               0.000088218               0.000562907               0.000017886              -0.000037282               0.000200061               0.000162779               0.000000000               0.000000000               0.000000000               0.000000000               0.000061607               0.000584773               0.000012431              -0.000049994               0.000211587               0.000161593               0.000000000               0.000000000               0.000000000               0.000000000               0.000031058               0.000611112               0.000006364              -0.000064742               0.000225283               0.000160541               0.000000000               0.000000000               0.000000000               0.000000000               0.000019627               0.000634459               0.000005494              -0.000071947               0.000235466               0.000163519               0.000000000               0.000000000               0.000000000               0.000000000               0.000122239               0.000683672               0.000160671              -0.000039619               0.000241095               0.000201475               0.000000000               0.000000000               0.000000000               0.000000000               0.000122494               0.000594637               0.000106562              -0.000028394               0.000207675               0.000179281               0.000000000               0.000000000               0.000000000               0.000000000               0.000149140               0.000545014               0.000046534              -0.000012199               0.000185736               0.000173537               0.000000000               0.000000000               0.000000000               0.000000000               0.000155944               0.000534115               0.000014740              -0.000008285               0.000180798               0.000172513               0.000000000               0.000000000               0.000000000               0.000000000               0.000156687               0.000534157               0.000001043              -0.000008012               0.000180721               0.000172709               0.000000000               0.000000000               0.000000000               0.000000000               0.000160285               0.000536181               0.000004044              -0.000006916               0.000181030               0.000174115               0.000000000               0.000000000               0.000000000               0.000000000               0.000166551               0.000534827               0.000019695              -0.000004397               0.000179740               0.000175343               0.000000000               0.000000000               0.000000000               0.000000000               0.000171691               0.000540681               0.000029460              -0.000003201               0.000181292               0.000178091               0.000000000               0.000000000               0.000000000               0.000000000               0.000166392               0.000553804               0.000031383              -0.000006829               0.000186876               0.000180047               0.000000000               0.000000000               0.000000000               0.000000000               0.000151748               0.000571891               0.000035771              -0.000014581               0.000195489               0.000180908               0.000000000               0.000000000               0.000000000               0.000000000               0.000132486               0.000595534               0.000037558              -0.000024760               0.000206763               0.000182003               0.000000000               0.000000000               0.000000000               0.000000000               0.000109546               0.000622295               0.000036673              -0.000036707               0.000219665               0.000182958               0.000000000               0.000000000               0.000000000               0.000000000               0.000088095               0.000652210               0.000034006              -0.000048490               0.000233565               0.000185074               0.000000000               0.000000000               0.000000000               0.000000000               0.000068700               0.000684292               0.000028707              -0.000059774               0.000248020               0.000188246               0.000000000               0.000000000               0.000000000               0.000000000               0.000046261               0.000716530               0.000021322              -0.000072218               0.000262914               0.000190695               0.000000000               0.000000000               0.000000000               0.000000000               0.000022160               0.000749671               0.000011690              -0.000085399               0.000278354               0.000192955               0.000000000               0.000000000               0.000000000               0.000000000               0.000015555               0.000775606               0.000009234              -0.000091117               0.000288905               0.000197788               0.000000000               0.000000000               0.000000000               0.000000000               0.000144563               0.000627753               0.000190392              -0.000024258               0.000217335               0.000193077               0.000000000               0.000000000               0.000000000               0.000000000               0.000130450               0.000556805               0.000124257              -0.000020682               0.000192494               0.000171812               0.000000000               0.000000000               0.000000000               0.000000000               0.000142226               0.000533232               0.000052302              -0.000013319               0.000182182               0.000168863               0.000000000               0.000000000               0.000000000               0.000000000               0.000141742               0.000537939               0.000018475              -0.000014089               0.000184007               0.000169918               0.000000000               0.000000000               0.000000000               0.000000000               0.000144560               0.000549027               0.000005224              -0.000014418               0.000187813               0.000173395               0.000000000               0.000000000               0.000000000               0.000000000               0.000156632               0.000559566               0.000011245              -0.000011209               0.000190256               0.000179048               0.000000000               0.000000000               0.000000000               0.000000000               0.000168739               0.000569212               0.000029174              -0.000007874               0.000192360               0.000184486               0.000000000               0.000000000               0.000000000               0.000000000               0.000175588               0.000593702               0.000038765              -0.000008367               0.000200688               0.000192320               0.000000000               0.000000000               0.000000000               0.000000000               0.000169561               0.000626256               0.000040592              -0.000014697               0.000213649               0.000198952               0.000000000               0.000000000               0.000000000               0.000000000               0.000155022               0.000665742               0.000044250              -0.000025085               0.000230273               0.000205189               0.000000000               0.000000000               0.000000000               0.000000000               0.000133828               0.000708669               0.000045547              -0.000038398               0.000249020               0.000210622               0.000000000               0.000000000               0.000000000               0.000000000               0.000108225               0.000753253               0.000043796              -0.000053572               0.000268939               0.000215367               0.000000000               0.000000000               0.000000000               0.000000000               0.000085695               0.000799790               0.000039981              -0.000067838               0.000289206               0.000221369               0.000000000               0.000000000               0.000000000               0.000000000               0.000064743               0.000845716               0.000033494              -0.000081436               0.000309048               0.000227612               0.000000000               0.000000000               0.000000000               0.000000000               0.000041383               0.000888746               0.000024685              -0.000095575               0.000328104               0.000232529               0.000000000               0.000000000               0.000000000               0.000000000               0.000019040               0.000928675               0.000013364              -0.000108944               0.000345870               0.000236926               0.000000000               0.000000000               0.000000000               0.000000000               0.000014122               0.000956286               0.000010075              -0.000114240               0.000356839               0.000242599               0.000000000               0.000000000               0.000000000               0.000000000               0.000167552               0.000566483               0.000206719              -0.000007979               0.000191485               0.000183507               0.000000000               0.000000000               0.000000000               0.000000000               0.000135909               0.000520136               0.000133621              -0.000014051               0.000178061               0.000164009               0.000000000               0.000000000               0.000000000               0.000000000               0.000131443               0.000529413               0.000057518              -0.000016886               0.000182098               0.000165212               0.000000000               0.000000000               0.000000000               0.000000000               0.000129726               0.000553554               0.000024477              -0.000020547               0.000191365               0.000170818               0.000000000               0.000000000               0.000000000               0.000000000               0.000137475               0.000580154               0.000013403              -0.000020966               0.000200371               0.000179405               0.000000000               0.000000000               0.000000000               0.000000000               0.000155473               0.000607138               0.000021097              -0.000017590               0.000208241               0.000190651               0.000000000               0.000000000               0.000000000               0.000000000               0.000176744               0.000643565               0.000037251              -0.000014166               0.000219242               0.000205075               0.000000000               0.000000000               0.000000000               0.000000000               0.000186574               0.000690814               0.000044356              -0.000016386               0.000235731               0.000219345               0.000000000               0.000000000               0.000000000               0.000000000               0.000178151               0.000744134               0.000045394              -0.000026210               0.000256779               0.000230569               0.000000000               0.000000000               0.000000000               0.000000000               0.000160550               0.000798909               0.000047874              -0.000039657               0.000279519               0.000239862               0.000000000               0.000000000               0.000000000               0.000000000               0.000137889               0.000854385               0.000048883              -0.000055089               0.000303155               0.000248066               0.000000000               0.000000000               0.000000000               0.000000000               0.000114224               0.000909495               0.000045970              -0.000070853               0.000326779               0.000255927               0.000000000               0.000000000               0.000000000               0.000000000               0.000093094               0.000964273               0.000040543              -0.000085624               0.000349962               0.000264339               0.000000000               0.000000000               0.000000000               0.000000000               0.000070640               0.001016097               0.000032873              -0.000100522               0.000372203               0.000271681               0.000000000               0.000000000               0.000000000               0.000000000               0.000045492               0.001062393               0.000023410              -0.000115739               0.000392707               0.000276968               0.000000000               0.000000000               0.000000000               0.000000000               0.000021363               0.001103470               0.000012295              -0.000129922               0.000411127               0.000281205               0.000000000               0.000000000               0.000000000               0.000000000               0.000015243               0.001130788               0.000009241              -0.000135632               0.000422136               0.000286504               0.000000000               0.000000000               0.000000000               0.000000000               0.000183963               0.000503855               0.000210042               0.000006004               0.000165948               0.000171953               0.000000000               0.000000000               0.000000000               0.000000000               0.000138729               0.000486101               0.000136877              -0.000008739               0.000164945               0.000156206               0.000000000               0.000000000               0.000000000               0.000000000               0.000122328               0.000534207               0.000063999              -0.000020903               0.000185035               0.000164132               0.000000000               0.000000000               0.000000000               0.000000000               0.000122282               0.000584287               0.000034120              -0.000027180               0.000203821               0.000176641               0.000000000               0.000000000               0.000000000               0.000000000               0.000140027               0.000635118               0.000023944              -0.000026879               0.000220664               0.000193784               0.000000000               0.000000000               0.000000000               0.000000000               0.000170031               0.000687963               0.000028664              -0.000022234               0.000236730               0.000214496               0.000000000               0.000000000               0.000000000               0.000000000               0.000195508               0.000745342               0.000042950              -0.000019852               0.000255062               0.000235210               0.000000000               0.000000000               0.000000000               0.000000000               0.000201852               0.000809416               0.000049352              -0.000025482               0.000278297               0.000252815               0.000000000               0.000000000               0.000000000               0.000000000               0.000189853               0.000878248               0.000050380              -0.000038586               0.000305608               0.000267022               0.000000000               0.000000000               0.000000000               0.000000000               0.000168596               0.000941744               0.000052774              -0.000054494               0.000332076               0.000277582               0.000000000               0.000000000               0.000000000               0.000000000               0.000143171               0.001002330               0.000051336              -0.000071602               0.000357974               0.000286372               0.000000000               0.000000000               0.000000000               0.000000000               0.000119056               0.001062392               0.000045826              -0.000088153               0.000383511               0.000295359               0.000000000               0.000000000               0.000000000               0.000000000               0.000097715               0.001119977               0.000037769              -0.000103354               0.000407773               0.000304419               0.000000000               0.000000000               0.000000000               0.000000000               0.000072803               0.001172236               0.000029147              -0.000119228               0.000430484               0.000311256               0.000000000               0.000000000               0.000000000               0.000000000               0.000046878               0.001219226               0.000020057              -0.000134823               0.000451346               0.000316522               0.000000000               0.000000000               0.000000000               0.000000000               0.000023367               0.001261747               0.000010048              -0.000148956               0.000470230               0.000321275               0.000000000               0.000000000               0.000000000               0.000000000               0.000017176               0.001290437               0.000008138              -0.000154863               0.000481762               0.000326899               0.000000000               0.000000000               0.000000000               0.000000000               0.000187706               0.000440899               0.000203920               0.000015277               0.000141872               0.000157149               0.000000000               0.000000000               0.000000000               0.000000000               0.000137259               0.000460604               0.000137889              -0.000006104               0.000155567               0.000149464               0.000000000               0.000000000               0.000000000               0.000000000               0.000117995               0.000552004               0.000072447              -0.000024752               0.000192250               0.000167498               0.000000000               0.000000000               0.000000000               0.000000000               0.000128059               0.000632465               0.000045253              -0.000031036               0.000221165               0.000190129               0.000000000               0.000000000               0.000000000               0.000000000               0.000157918               0.000709109               0.000034898              -0.000029419               0.000246174               0.000216754               0.000000000               0.000000000               0.000000000               0.000000000               0.000195466               0.000779808               0.000039464              -0.000024176               0.000267992               0.000243816               0.000000000               0.000000000               0.000000000               0.000000000               0.000219714               0.000848732               0.000050457              -0.000023699               0.000290807               0.000267109               0.000000000               0.000000000               0.000000000               0.000000000               0.000219682               0.000926221               0.000053383              -0.000033397               0.000319870               0.000286473               0.000000000               0.000000000               0.000000000               0.000000000               0.000200545               0.000999755               0.000052652              -0.000049765               0.000349837               0.000300072               0.000000000               0.000000000               0.000000000               0.000000000               0.000175013               0.001067148               0.000053939              -0.000067764               0.000378300               0.000310537               0.000000000               0.000000000               0.000000000               0.000000000               0.000149394               0.001133247               0.000048776              -0.000085633               0.000406289               0.000320657               0.000000000               0.000000000               0.000000000               0.000000000               0.000124384               0.001199256               0.000039593              -0.000103263               0.000434169               0.000330906               0.000000000               0.000000000               0.000000000               0.000000000               0.000098139               0.001261995               0.000030976              -0.000120947               0.000460976               0.000340029               0.000000000               0.000000000               0.000000000               0.000000000               0.000070248               0.001320424               0.000021959              -0.000138710               0.000486374               0.000347664               0.000000000               0.000000000               0.000000000               0.000000000               0.000044968               0.001377677               0.000013640              -0.000155346               0.000511003               0.000355657               0.000000000               0.000000000               0.000000000               0.000000000               0.000022511               0.001431542               0.000006642              -0.000170501               0.000534009               0.000363509               0.000000000               0.000000000               0.000000000               0.000000000               0.000015725               0.001466133               0.000006441              -0.000177369               0.000547829               0.000370460               0.000000000               0.000000000               0.000000000               0.000000000               0.000192720               0.000384589               0.000191473               0.000024196               0.000120130               0.000144326               0.000000000               0.000000000               0.000000000               0.000000000               0.000140499               0.000443604               0.000139165              -0.000002764               0.000148788               0.000146024               0.000000000               0.000000000               0.000000000               0.000000000               0.000120625               0.000574390               0.000085064              -0.000026564               0.000200316               0.000173752               0.000000000               0.000000000               0.000000000               0.000000000               0.000139524               0.000679506               0.000059122              -0.000032617               0.000237372               0.000204755               0.000000000               0.000000000               0.000000000               0.000000000               0.000177069               0.000771506               0.000047093              -0.000030037               0.000267179               0.000237141               0.000000000               0.000000000               0.000000000               0.000000000               0.000217831               0.000849869               0.000046806              -0.000024547               0.000291469               0.000266922               0.000000000               0.000000000               0.000000000               0.000000000               0.000240348               0.000925346               0.000049009              -0.000025538               0.000316958               0.000291421               0.000000000               0.000000000               0.000000000               0.000000000               0.000233417               0.001007313               0.000049651              -0.000038383               0.000348562               0.000310179               0.000000000               0.000000000               0.000000000               0.000000000               0.000208901               0.001082299               0.000049737              -0.000056950               0.000379746               0.000322796               0.000000000               0.000000000               0.000000000               0.000000000               0.000184382               0.001153774               0.000048507              -0.000075078               0.000409614               0.000334535               0.000000000               0.000000000               0.000000000               0.000000000               0.000161124               0.001228450               0.000041177              -0.000093135               0.000440524               0.000347390               0.000000000               0.000000000               0.000000000               0.000000000               0.000138178               0.001303425               0.000031302              -0.000111111               0.000471508               0.000360397               0.000000000               0.000000000               0.000000000               0.000000000               0.000113155               0.001375284               0.000022981              -0.000129477               0.000501583               0.000372105               0.000000000               0.000000000               0.000000000               0.000000000               0.000088262               0.001446194               0.000014161              -0.000147675               0.000531285               0.000383610               0.000000000               0.000000000               0.000000000               0.000000000               0.000065708               0.001516338               0.000005938              -0.000164901               0.000560408               0.000395507               0.000000000               0.000000000               0.000000000               0.000000000               0.000046335               0.001581951               0.000001363              -0.000180368               0.000587434               0.000407066               0.000000000               0.000000000               0.000000000               0.000000000               0.000036214               0.001615888               0.000000433              -0.000188405               0.000601426               0.000413021               0.000000000               0.000000000               0.000000000               0.000000000               0.000194725               0.000331655               0.000176201               0.000031565               0.000100029               0.000131594               0.000000000               0.000000000               0.000000000               0.000000000               0.000148571               0.000413026               0.000142998               0.000004085               0.000136312               0.000140398               0.000000000               0.000000000               0.000000000               0.000000000               0.000132549               0.000568258               0.000105035              -0.000021326               0.000196526               0.000175200               0.000000000               0.000000000               0.000000000               0.000000000               0.000151413               0.000691205               0.000079403              -0.000029621               0.000240273               0.000210652               0.000000000               0.000000000               0.000000000               0.000000000               0.000185208               0.000798026               0.000063478              -0.000030300               0.000276106               0.000245806               0.000000000               0.000000000               0.000000000               0.000000000               0.000220647               0.000881164               0.000053409              -0.000027403               0.000302853               0.000275450               0.000000000               0.000000000               0.000000000               0.000000000               0.000246510               0.000953020               0.000046280              -0.000026686               0.000326566               0.000299879               0.000000000               0.000000000               0.000000000               0.000000000               0.000250347               0.001031158               0.000044070              -0.000035014               0.000355387               0.000320373               0.000000000               0.000000000               0.000000000               0.000000000               0.000234580               0.001109156               0.000046286              -0.000050677               0.000386607               0.000335931               0.000000000               0.000000000               0.000000000               0.000000000               0.000214490               0.001183204               0.000045986              -0.000067466               0.000416886               0.000349420               0.000000000               0.000000000               0.000000000               0.000000000               0.000194850               0.001258192               0.000041279              -0.000084205               0.000447461               0.000363256               0.000000000               0.000000000               0.000000000               0.000000000               0.000176796               0.001335835               0.000035095              -0.000100680               0.000478834               0.000378154               0.000000000               0.000000000               0.000000000               0.000000000               0.000158594               0.001415005               0.000026751              -0.000117403               0.000510798               0.000393395               0.000000000               0.000000000               0.000000000               0.000000000               0.000137883               0.001490674               0.000018164              -0.000134628               0.000541762               0.000407134               0.000000000               0.000000000               0.000000000               0.000000000               0.000118377               0.001567278               0.000010496              -0.000151518               0.000572927               0.000421409               0.000000000               0.000000000               0.000000000               0.000000000               0.000100891               0.001643445               0.000003819              -0.000167596               0.000603675               0.000436079               0.000000000               0.000000000               0.000000000               0.000000000               0.000085162               0.001673733              -0.000001805              -0.000177280               0.000616999               0.000439718               0.000000000               0.000000000               0.000000000               0.000000000               0.000187617               0.000276332               0.000159017               0.000035814               0.000080172               0.000115986               0.000000000               0.000000000               0.000000000               0.000000000               0.000158823               0.000372851               0.000145230               0.000012952               0.000119965               0.000132917               0.000000000               0.000000000               0.000000000               0.000000000               0.000147757               0.000543693               0.000123024              -0.000012553               0.000185414               0.000172861               0.000000000               0.000000000               0.000000000               0.000000000               0.000161995               0.000681701               0.000097006              -0.000024464               0.000235386               0.000210922               0.000000000               0.000000000               0.000000000               0.000000000               0.000186621               0.000796747               0.000076148              -0.000029610               0.000275450               0.000245840               0.000000000               0.000000000               0.000000000               0.000000000               0.000214304               0.000881484               0.000058894              -0.000029821               0.000303766               0.000273944               0.000000000               0.000000000               0.000000000               0.000000000               0.000245010               0.000956578               0.000044872              -0.000027694               0.000328087               0.000300394               0.000000000               0.000000000               0.000000000               0.000000000               0.000265571               0.001036635               0.000038386              -0.000029990               0.000355538               0.000325548               0.000000000               0.000000000               0.000000000               0.000000000               0.000266802               0.001119349               0.000040675              -0.000039868               0.000386402               0.000346534               0.000000000               0.000000000               0.000000000               0.000000000               0.000256006               0.001197514               0.000043128              -0.000053687               0.000417063               0.000363376               0.000000000               0.000000000               0.000000000               0.000000000               0.000243391               0.001271150               0.000043134              -0.000067622               0.000446253               0.000378631               0.000000000               0.000000000               0.000000000               0.000000000               0.000229331               0.001344227               0.000040141              -0.000082029               0.000475414               0.000393385               0.000000000               0.000000000               0.000000000               0.000000000               0.000216022               0.001422028               0.000032840              -0.000096745               0.000506253               0.000409508               0.000000000               0.000000000               0.000000000               0.000000000               0.000201016               0.001498051               0.000023709              -0.000111875               0.000536637               0.000424762               0.000000000               0.000000000               0.000000000               0.000000000               0.000183266               0.001572019               0.000014704              -0.000127777               0.000566593               0.000438816               0.000000000               0.000000000               0.000000000               0.000000000               0.000163455               0.001641958               0.000006078              -0.000143949               0.000595297               0.000451348               0.000000000               0.000000000               0.000000000               0.000000000               0.000144085               0.001667543              -0.000001412              -0.000154410               0.000607312               0.000452902               0.000000000               0.000000000               0.000000000               0.000000000               0.000176117               0.000216277               0.000137669               0.000039009               0.000059089               0.000098097               0.000000000               0.000000000               0.000000000               0.000000000               0.000167382               0.000327457               0.000140275               0.000021836               0.000101873               0.000123709               0.000000000               0.000000000               0.000000000               0.000000000               0.000164723               0.000509565               0.000131138              -0.000001925               0.000170495               0.000168570               0.000000000               0.000000000               0.000000000               0.000000000               0.000177243               0.000656213               0.000108498              -0.000015560               0.000223922               0.000208362               0.000000000               0.000000000               0.000000000               0.000000000               0.000195041               0.000772202               0.000085963              -0.000023385               0.000265193               0.000241808               0.000000000               0.000000000               0.000000000               0.000000000               0.000217383               0.000866356               0.000065726              -0.000026776               0.000297708               0.000270932               0.000000000               0.000000000               0.000000000               0.000000000               0.000248040               0.000954849               0.000048902              -0.000026341               0.000327060               0.000300719               0.000000000               0.000000000               0.000000000               0.000000000               0.000279394               0.001043858               0.000038746              -0.000025710               0.000356519               0.000330809               0.000000000               0.000000000               0.000000000               0.000000000               0.000296289               0.001131769               0.000036453              -0.000030363               0.000387373               0.000357011               0.000000000               0.000000000               0.000000000               0.000000000               0.000297275               0.001213372               0.000038096              -0.000040193               0.000417851               0.000377658               0.000000000               0.000000000               0.000000000               0.000000000               0.000290713               0.001286082               0.000039577              -0.000051743               0.000445937               0.000394195               0.000000000               0.000000000               0.000000000               0.000000000               0.000279783               0.001353329               0.000038865              -0.000064247               0.000472521               0.000408274               0.000000000               0.000000000               0.000000000               0.000000000               0.000269746               0.001425113               0.000034894              -0.000076984               0.000500694               0.000423710               0.000000000               0.000000000               0.000000000               0.000000000               0.000260368               0.001499057               0.000027072              -0.000089744               0.000529595               0.000439851               0.000000000               0.000000000               0.000000000               0.000000000               0.000248601               0.001571929               0.000017851              -0.000103265               0.000558393               0.000455127               0.000000000               0.000000000               0.000000000               0.000000000               0.000233831               0.001643255               0.000009386              -0.000117720               0.000586986               0.000469266               0.000000000               0.000000000               0.000000000               0.000000000               0.000216181               0.001672456               0.000002224              -0.000127989               0.000600143               0.000472154               0.000000000               0.000000000               0.000000000               0.000000000               0.000159187               0.000167853               0.000109695               0.000038713               0.000043046               0.000081759               0.000000000               0.000000000               0.000000000               0.000000000               0.000171355               0.000282815               0.000125609               0.000028906               0.000084635               0.000113541               0.000000000               0.000000000               0.000000000               0.000000000               0.000183363               0.000463147               0.000128279               0.000010868               0.000150758               0.000161626               0.000000000               0.000000000               0.000000000               0.000000000               0.000198090               0.000610689               0.000111042              -0.000002052               0.000204245               0.000202193               0.000000000               0.000000000               0.000000000               0.000000000               0.000212070               0.000733665               0.000090271              -0.000012182               0.000248613               0.000236431               0.000000000               0.000000000               0.000000000               0.000000000               0.000232095               0.000846907               0.000071347              -0.000018828               0.000288576               0.000269748               0.000000000               0.000000000               0.000000000               0.000000000               0.000261530               0.000952331               0.000054658              -0.000020968               0.000324430               0.000303462               0.000000000               0.000000000               0.000000000               0.000000000               0.000293191               0.001048001               0.000041068              -0.000021054               0.000356348               0.000335295               0.000000000               0.000000000               0.000000000               0.000000000               0.000316423               0.001136204               0.000032485              -0.000023367               0.000386520               0.000363153               0.000000000               0.000000000               0.000000000               0.000000000               0.000327564               0.001219485               0.000030431              -0.000029599               0.000416357               0.000386758               0.000000000               0.000000000               0.000000000               0.000000000               0.000330567               0.001295405               0.000030777              -0.000037963               0.000444452               0.000406489               0.000000000               0.000000000               0.000000000               0.000000000               0.000328302               0.001364220               0.000031359              -0.000047414               0.000470540               0.000423126               0.000000000               0.000000000               0.000000000               0.000000000               0.000323360               0.001430301               0.000030967              -0.000057528               0.000495938               0.000438411               0.000000000               0.000000000               0.000000000               0.000000000               0.000319583               0.001499878               0.000026612              -0.000067641               0.000522501               0.000454860               0.000000000               0.000000000               0.000000000               0.000000000               0.000317612               0.001575421               0.000019668              -0.000077823               0.000551076               0.000473253               0.000000000               0.000000000               0.000000000               0.000000000               0.000313277               0.001650957               0.000010904              -0.000088890               0.000579943               0.000491053               0.000000000               0.000000000               0.000000000               0.000000000               0.000302619               0.001683570               0.000003441              -0.000096964               0.000593506               0.000496542               0.000000000               0.000000000               0.000000000               0.000000000               0.000135450               0.000129251               0.000078680               0.000034637               0.000031538               0.000066175               0.000000000               0.000000000               0.000000000               0.000000000               0.000172920               0.000236832               0.000101420               0.000035241               0.000067196               0.000102437               0.000000000               0.000000000               0.000000000               0.000000000               0.000202275               0.000408958               0.000112117               0.000024733               0.000128074               0.000152807               0.000000000               0.000000000               0.000000000               0.000000000               0.000220188               0.000560301               0.000100569               0.000012533               0.000182588               0.000195120               0.000000000               0.000000000               0.000000000               0.000000000               0.000235432               0.000695621               0.000085251               0.000001334               0.000231427               0.000232761               0.000000000               0.000000000               0.000000000               0.000000000               0.000255108               0.000822127               0.000071060              -0.000007100               0.000276406               0.000269306               0.000000000               0.000000000               0.000000000               0.000000000               0.000278616               0.000936355               0.000055681              -0.000012563               0.000316303               0.000303740               0.000000000               0.000000000               0.000000000               0.000000000               0.000304736               0.001037686               0.000039532              -0.000015435               0.000351037               0.000335602               0.000000000               0.000000000               0.000000000               0.000000000               0.000329888               0.001130557               0.000026646              -0.000017612               0.000382719               0.000365107               0.000000000               0.000000000               0.000000000               0.000000000               0.000349537               0.001219180               0.000021697              -0.000021321               0.000413496               0.000392175               0.000000000               0.000000000               0.000000000               0.000000000               0.000363162               0.001302287               0.000021396              -0.000026600               0.000442958               0.000416358               0.000000000               0.000000000               0.000000000               0.000000000               0.000371870               0.001376855               0.000021699              -0.000032656               0.000469832               0.000437177               0.000000000               0.000000000               0.000000000               0.000000000               0.000374529               0.001440144               0.000022187              -0.000039570               0.000493233               0.000453663               0.000000000               0.000000000               0.000000000               0.000000000               0.000377326               0.001505488               0.000021312              -0.000046689               0.000517387               0.000470698               0.000000000               0.000000000               0.000000000               0.000000000               0.000383608               0.001578562               0.000017095              -0.000053467               0.000544004               0.000490537               0.000000000               0.000000000               0.000000000               0.000000000               0.000389145               0.001650115               0.000009101              -0.000060335               0.000570144               0.000509809               0.000000000               0.000000000               0.000000000               0.000000000               0.000387722               0.001682107               0.000002812              -0.000064867               0.000582319               0.000517452               0.000000000               0.000000000               0.000000000               0.000000000               0.000110681               0.000097188               0.000049760               0.000029357               0.000022610               0.000051967               0.000000000               0.000000000               0.000000000               0.000000000               0.000171265               0.000197062               0.000070273               0.000039591               0.000052490               0.000092081               0.000000000               0.000000000               0.000000000               0.000000000               0.000217086               0.000361936               0.000082568               0.000036165               0.000108589               0.000144754               0.000000000               0.000000000               0.000000000               0.000000000               0.000242451               0.000516295               0.000077010               0.000026382               0.000163303               0.000189685               0.000000000               0.000000000               0.000000000               0.000000000               0.000261650               0.000659058               0.000067931               0.000015736               0.000214438               0.000230175               0.000000000               0.000000000               0.000000000               0.000000000               0.000278213               0.000791978               0.000057464               0.000005333               0.000262212               0.000267545               0.000000000               0.000000000               0.000000000               0.000000000               0.000295135               0.000912216               0.000044932              -0.000003352               0.000305186               0.000301835               0.000000000               0.000000000               0.000000000               0.000000000               0.000315952               0.001021202               0.000031787              -0.000009168               0.000343453               0.000334285               0.000000000               0.000000000               0.000000000               0.000000000               0.000341321               0.001122526               0.000020618              -0.000012320               0.000378278               0.000365958               0.000000000               0.000000000               0.000000000               0.000000000               0.000366745               0.001217603               0.000014608              -0.000014671               0.000410754               0.000396083               0.000000000               0.000000000               0.000000000               0.000000000               0.000387718               0.001305330               0.000012849              -0.000017772               0.000441030               0.000423258               0.000000000               0.000000000               0.000000000               0.000000000               0.000403955               0.001381957               0.000011861              -0.000021261               0.000467735               0.000446473               0.000000000               0.000000000               0.000000000               0.000000000               0.000415622               0.001447392               0.000011429              -0.000025066               0.000490814               0.000465749               0.000000000               0.000000000               0.000000000               0.000000000               0.000426446               0.001512274               0.000012042              -0.000029117               0.000513792               0.000484675               0.000000000               0.000000000               0.000000000               0.000000000               0.000438133               0.001578551               0.000010110              -0.000033019               0.000537185               0.000504166               0.000000000               0.000000000               0.000000000               0.000000000               0.000451243               0.001644494               0.000005371              -0.000036346               0.000560275               0.000523929               0.000000000               0.000000000               0.000000000               0.000000000               0.000457242               0.001676392               0.000002139              -0.000038083               0.000571486               0.000533403               0.000000000               0.000000000               0.000000000               0.000000000               0.000090657               0.000077381               0.000024623               0.000024324               0.000017686               0.000042009               0.000000000               0.000000000               0.000000000               0.000000000               0.000166475               0.000171176               0.000036277               0.000041031               0.000043381               0.000084412               0.000000000               0.000000000               0.000000000               0.000000000               0.000227980               0.000329853               0.000043836               0.000044261               0.000095196               0.000139457               0.000000000               0.000000000               0.000000000               0.000000000               0.000259779               0.000484959               0.000042041               0.000036797               0.000149386               0.000186183               0.000000000               0.000000000               0.000000000               0.000000000               0.000279655               0.000630997               0.000037506               0.000025996               0.000201665               0.000227661               0.000000000               0.000000000               0.000000000               0.000000000               0.000293720               0.000766862               0.000031704               0.000014287               0.000250856               0.000265143               0.000000000               0.000000000               0.000000000               0.000000000               0.000308316               0.000892255               0.000025294               0.000004086               0.000296053               0.000300140               0.000000000               0.000000000               0.000000000               0.000000000               0.000327368               0.001009665               0.000018176              -0.000003445               0.000337700               0.000334255               0.000000000               0.000000000               0.000000000               0.000000000               0.000350934               0.001116325               0.000011532              -0.000007940               0.000374751               0.000366811               0.000000000               0.000000000               0.000000000               0.000000000               0.000376898               0.001212592               0.000007015              -0.000010237               0.000407606               0.000397368               0.000000000               0.000000000               0.000000000               0.000000000               0.000402385               0.001302861               0.000005249              -0.000011963               0.000438270               0.000426307               0.000000000               0.000000000               0.000000000               0.000000000               0.000423800               0.001381135               0.000004388              -0.000013717               0.000464946               0.000451229               0.000000000               0.000000000               0.000000000               0.000000000               0.000442281               0.001450590               0.000003833              -0.000015468               0.000488681               0.000473213               0.000000000               0.000000000               0.000000000               0.000000000               0.000458789               0.001516201               0.000004132              -0.000017479               0.000511222               0.000493743               0.000000000               0.000000000               0.000000000               0.000000000               0.000472979               0.001576438               0.000003286              -0.000019688               0.000532037               0.000512349               0.000000000               0.000000000               0.000000000               0.000000000               0.000489405               0.001640809               0.000001656              -0.000021574               0.000554122               0.000532548               0.000000000               0.000000000               0.000000000               0.000000000               0.000497889               0.001674469               0.000000829              -0.000022600               0.000565684               0.000543084               0.000000000               0.000000000               0.000000000               0.000000000               0.000082350               0.000071149               0.000000000               0.000021987               0.000016387               0.000038374               0.000000000               0.000000000               0.000000000               0.000000000               0.000163649               0.000161426               0.000000000               0.000041190               0.000040078               0.000081268               0.000000000               0.000000000               0.000000000               0.000000000               0.000232571               0.000317186              -0.000000000               0.000047565               0.000089873               0.000137438               0.000000000               0.000000000               0.000000000               0.000000000               0.000265903               0.000473722              -0.000000000               0.000040498               0.000144406               0.000184904               0.000000000               0.000000000               0.000000000               0.000000000               0.000284983               0.000620961              -0.000000000               0.000029248               0.000197236               0.000226484               0.000000000               0.000000000               0.000000000               0.000000000               0.000300241               0.000757980              -0.000000000               0.000017843               0.000246710               0.000264552               0.000000000               0.000000000               0.000000000               0.000000000               0.000314112               0.000885529              -0.000000000               0.000007101               0.000292807               0.000299907               0.000000000               0.000000000               0.000000000               0.000000000               0.000331378               0.001004363              -0.000000000              -0.000001278               0.000335210               0.000333932               0.000000000               0.000000000               0.000000000               0.000000000               0.000353590               0.001111957               0.000000000              -0.000006398               0.000372781               0.000366383               0.000000000               0.000000000               0.000000000               0.000000000               0.000380202               0.001210292               0.000000000              -0.000008711               0.000406330               0.000397620               0.000000000               0.000000000               0.000000000               0.000000000               0.000407889               0.001302287              -0.000000000              -0.000009827               0.000437367               0.000427540               0.000000000               0.000000000               0.000000000               0.000000000               0.000431018               0.001380224              -0.000000000              -0.000010896               0.000463702               0.000452806               0.000000000               0.000000000               0.000000000               0.000000000               0.000451518               0.001451087               0.000000000              -0.000012067               0.000487713               0.000475646               0.000000000               0.000000000               0.000000000               0.000000000               0.000469655               0.001517189               0.000000000              -0.000013528               0.000510234               0.000496706               0.000000000               0.000000000               0.000000000               0.000000000               0.000484447               0.001575141               0.000000000              -0.000015225               0.000530117               0.000514892               0.000000000               0.000000000               0.000000000               0.000000000               0.000501466               0.001639750               0.000000000              -0.000016919               0.000552217               0.000535298               0.000000000               0.000000000               0.000000000               0.000000000               0.000509894               0.001674506               0.000000000              -0.000018103               0.000564198               0.000546094               0.000000000               0.000000000               0.000000000               0.000000000               0.000079042               0.000769650              -0.000000000              -0.000066565               0.000278736               0.000212171               0.000000000               0.000000000               0.000000000               0.000000000               0.000101066               0.000655574              -0.000000000              -0.000044047               0.000233205               0.000189158               0.000000000               0.000000000               0.000000000               0.000000000               0.000154672               0.000575089               0.000000000              -0.000013884               0.000196322               0.000182438               0.000000000               0.000000000               0.000000000               0.000000000               0.000174908               0.000540144               0.000000000              -0.000001927               0.000180689               0.000178761               0.000000000               0.000000000               0.000000000               0.000000000               0.000175347               0.000531294               0.000000000              -0.000000657               0.000177315               0.000176659               0.000000000               0.000000000               0.000000000               0.000000000               0.000170018               0.000532580              -0.000000000              -0.000002816               0.000178463               0.000175648               0.000000000               0.000000000               0.000000000               0.000000000               0.000168075               0.000529942              -0.000000000              -0.000003214               0.000177717               0.000174502               0.000000000               0.000000000               0.000000000               0.000000000               0.000168416               0.000512627              -0.000000000              -0.000000922               0.000171182               0.000170259               0.000000000               0.000000000               0.000000000               0.000000000               0.000171516               0.000494887              -0.000000000               0.000002458               0.000164142               0.000166599               0.000000000               0.000000000               0.000000000               0.000000000               0.000173787               0.000479339               0.000000000               0.000005253               0.000158027               0.000163280               0.000000000               0.000000000               0.000000000               0.000000000               0.000170396               0.000465972               0.000000000               0.000005652               0.000153439               0.000159090               0.000000000               0.000000000               0.000000000               0.000000000               0.000160025               0.000459788               0.000000000               0.000002536               0.000152416               0.000154952               0.000000000               0.000000000               0.000000000               0.000000000               0.000142320               0.000461638               0.000000000              -0.000004335               0.000155323               0.000150988               0.000000000               0.000000000               0.000000000               0.000000000               0.000115629               0.000471105              -0.000000000              -0.000015527               0.000162209               0.000146682               0.000000000               0.000000000               0.000000000               0.000000000               0.000081509               0.000487992               0.000000000              -0.000030433               0.000172807               0.000142374               0.000000000               0.000000000               0.000000000               0.000000000               0.000042338               0.000511247              -0.000000000              -0.000048029               0.000186424               0.000138395               0.000000000               0.000000000               0.000000000               0.000000000               0.000024826               0.000532692              -0.000000000              -0.000057277               0.000196654               0.000139378               0.000000000               0.000000000               0.000000000               0.000000000               0.000083822               0.000760684              -0.000061510              -0.000063652               0.000274776               0.000211124               0.000000000               0.000000000               0.000000000               0.000000000               0.000104389               0.000650371              -0.000041341              -0.000042150               0.000230838               0.000188688               0.000000000               0.000000000               0.000000000               0.000000000               0.000154782               0.000571296              -0.000019058              -0.000013369               0.000194886               0.000181518               0.000000000               0.000000000               0.000000000               0.000000000               0.000172858               0.000537697              -0.000006471              -0.000002390               0.000180027               0.000177637               0.000000000               0.000000000               0.000000000               0.000000000               0.000172939               0.000530528               0.000000355              -0.000001464               0.000177329               0.000175865               0.000000000               0.000000000               0.000000000               0.000000000               0.000168334               0.000531988               0.000000669              -0.000003373               0.000178452               0.000175079               0.000000000               0.000000000               0.000000000               0.000000000               0.000168985               0.000528361              -0.000006468              -0.000002676               0.000177011               0.000174335               0.000000000               0.000000000               0.000000000               0.000000000               0.000170210               0.000513628              -0.000011677              -0.000000375               0.000171333               0.000170958               0.000000000               0.000000000               0.000000000               0.000000000               0.000168584               0.000499018              -0.000012438               0.000000842               0.000166057               0.000166899               0.000000000               0.000000000               0.000000000               0.000000000               0.000166689               0.000487521              -0.000014555               0.000001568               0.000161983               0.000163551               0.000000000               0.000000000               0.000000000               0.000000000               0.000161408               0.000479309              -0.000014974               0.000000614               0.000159563               0.000160178               0.000000000               0.000000000               0.000000000               0.000000000               0.000148921               0.000476871              -0.000013638              -0.000003763               0.000160210               0.000156446               0.000000000               0.000000000               0.000000000               0.000000000               0.000131184               0.000481519              -0.000011981              -0.000010996               0.000164170               0.000153174               0.000000000               0.000000000               0.000000000               0.000000000               0.000107085               0.000493102              -0.000009222              -0.000021481               0.000171526               0.000150045               0.000000000               0.000000000               0.000000000               0.000000000               0.000075509               0.000510799              -0.000006008              -0.000035534               0.000182109               0.000146575               0.000000000               0.000000000               0.000000000               0.000000000               0.000038886               0.000534365              -0.000002920              -0.000052213               0.000195524               0.000143311               0.000000000               0.000000000               0.000000000               0.000000000               0.000023157               0.000556030              -0.000002551              -0.000060820               0.000205615               0.000144795               0.000000000               0.000000000               0.000000000               0.000000000               0.000099580               0.000730998              -0.000116773              -0.000054032               0.000261674               0.000207642               0.000000000               0.000000000               0.000000000               0.000000000               0.000112430               0.000629740              -0.000078170              -0.000036556               0.000222097               0.000185540               0.000000000               0.000000000               0.000000000               0.000000000               0.000152440               0.000559975              -0.000035664              -0.000012832               0.000190934               0.000178102               0.000000000               0.000000000               0.000000000               0.000000000               0.000166325               0.000534678              -0.000011469              -0.000004463               0.000179712               0.000175249               0.000000000               0.000000000               0.000000000               0.000000000               0.000168129               0.000530819               0.000000837              -0.000003304               0.000178039               0.000174735               0.000000000               0.000000000               0.000000000               0.000000000               0.000165862               0.000530669              -0.000000201              -0.000004135               0.000178266               0.000174131               0.000000000               0.000000000               0.000000000               0.000000000               0.000166495               0.000525746              -0.000013066              -0.000003283               0.000176341               0.000173059               0.000000000               0.000000000               0.000000000               0.000000000               0.000167494               0.000518685              -0.000021619              -0.000002025               0.000173568               0.000171543               0.000000000               0.000000000               0.000000000               0.000000000               0.000164440               0.000516174              -0.000022375              -0.000002857               0.000173009               0.000170152               0.000000000               0.000000000               0.000000000               0.000000000               0.000158010               0.000517215              -0.000025205              -0.000005398               0.000174203               0.000168804               0.000000000               0.000000000               0.000000000               0.000000000               0.000145957               0.000522271              -0.000026231              -0.000010550               0.000177605               0.000167055               0.000000000               0.000000000               0.000000000               0.000000000               0.000128171               0.000530981              -0.000024672              -0.000018308               0.000183095               0.000164786               0.000000000               0.000000000               0.000000000               0.000000000               0.000109327               0.000544589              -0.000022169              -0.000027076               0.000190553               0.000163477               0.000000000               0.000000000               0.000000000               0.000000000               0.000088218               0.000562907              -0.000017886              -0.000037282               0.000200061               0.000162779               0.000000000               0.000000000               0.000000000               0.000000000               0.000061607               0.000584773              -0.000012431              -0.000049994               0.000211587               0.000161593               0.000000000               0.000000000               0.000000000               0.000000000               0.000031058               0.000611112              -0.000006364              -0.000064742               0.000225283               0.000160541               0.000000000               0.000000000               0.000000000               0.000000000               0.000019627               0.000634459              -0.000005494              -0.000071947               0.000235466               0.000163519               0.000000000               0.000000000               0.000000000               0.000000000               0.000122239               0.000683672              -0.000160671              -0.000039619               0.000241095               0.000201475               0.000000000               0.000000000               0.000000000               0.000000000               0.000122494               0.000594637              -0.000106562              -0.000028394               0.000207675               0.000179281               0.000000000               0.000000000               0.000000000               0.000000000               0.000149140               0.000545014              -0.000046534              -0.000012199               0.000185736               0.000173537               0.000000000               0.000000000               0.000000000               0.000000000               0.000155944               0.000534115              -0.000014740              -0.000008285               0.000180798               0.000172513               0.000000000               0.000000000               0.000000000               0.000000000               0.000156687               0.000534157              -0.000001043              -0.000008012               0.000180721               0.000172709               0.000000000               0.000000000               0.000000000               0.000000000               0.000160285               0.000536181              -0.000004044              -0.000006916               0.000181030               0.000174115               0.000000000               0.000000000               0.000000000               0.000000000               0.000166551               0.000534827              -0.000019695              -0.000004397               0.000179740               0.000175343               0.000000000               0.000000000               0.000000000               0.000000000               0.000171691               0.000540681              -0.000029460              -0.000003201               0.000181292               0.000178091               0.000000000               0.000000000               0.000000000               0.000000000               0.000166392               0.000553804              -0.000031383              -0.000006829               0.000186876               0.000180047               0.000000000               0.000000000               0.000000000               0.000000000               0.000151748               0.000571891              -0.000035771              -0.000014581               0.000195489               0.000180908               0.000000000               0.000000000               0.000000000               0.000000000               0.000132486               0.000595534              -0.000037558              -0.000024760               0.000206763               0.000182003               0.000000000               0.000000000               0.000000000               0.000000000               0.000109546               0.000622295              -0.000036673              -0.000036707               0.000219665               0.000182958               0.000000000               0.000000000               0.000000000               0.000000000               0.000088095               0.000652210              -0.000034006              -0.000048490               0.000233565               0.000185074               0.000000000               0.000000000               0.000000000               0.000000000               0.000068700               0.000684292              -0.000028707              -0.000059774               0.000248020               0.000188246               0.000000000               0.000000000               0.000000000               0.000000000               0.000046261               0.000716530              -0.000021322              -0.000072218               0.000262914               0.000190695               0.000000000               0.000000000               0.000000000               0.000000000               0.000022160               0.000749671              -0.000011690              -0.000085399               0.000278354               0.000192955               0.000000000               0.000000000               0.000000000               0.000000000               0.000015555               0.000775606              -0.000009234              -0.000091117               0.000288905               0.000197788               0.000000000               0.000000000               0.000000000               0.000000000               0.000144563               0.000627753              -0.000190392              -0.000024258               0.000217335               0.000193077               0.000000000               0.000000000               0.000000000               0.000000000               0.000130450               0.000556805              -0.000124257              -0.000020682               0.000192494               0.000171812               0.000000000               0.000000000               0.000000000               0.000000000               0.000142226               0.000533232              -0.000052302              -0.000013319               0.000182182               0.000168863               0.000000000               0.000000000               0.000000000               0.000000000               0.000141742               0.000537939              -0.000018475              -0.000014089               0.000184007               0.000169918               0.000000000               0.000000000               0.000000000               0.000000000               0.000144560               0.000549027              -0.000005224              -0.000014418               0.000187813               0.000173395               0.000000000               0.000000000               0.000000000               0.000000000               0.000156632               0.000559566              -0.000011245              -0.000011209               0.000190256               0.000179048               0.000000000               0.000000000               0.000000000               0.000000000               0.000168739               0.000569212              -0.000029174              -0.000007874               0.000192360               0.000184486               0.000000000               0.000000000               0.000000000               0.000000000               0.000175588               0.000593702              -0.000038765              -0.000008367               0.000200688               0.000192320               0.000000000               0.000000000               0.000000000               0.000000000               0.000169561               0.000626256              -0.000040592              -0.000014697               0.000213649               0.000198952               0.000000000               0.000000000               0.000000000               0.000000000               0.000155022               0.000665742              -0.000044250              -0.000025085               0.000230273               0.000205189               0.000000000               0.000000000               0.000000000               0.000000000               0.000133828               0.000708669              -0.000045547              -0.000038398               0.000249020               0.000210622               0.000000000               0.000000000               0.000000000               0.000000000               0.000108225               0.000753253              -0.000043796              -0.000053572               0.000268939               0.000215367               0.000000000               0.000000000               0.000000000               0.000000000               0.000085695               0.000799790              -0.000039981              -0.000067838               0.000289206               0.000221369               0.000000000               0.000000000               0.000000000               0.000000000               0.000064743               0.000845716              -0.000033494              -0.000081436               0.000309048               0.000227612               0.000000000               0.000000000               0.000000000               0.000000000               0.000041383               0.000888746              -0.000024685              -0.000095575               0.000328104               0.000232529               0.000000000               0.000000000               0.000000000               0.000000000               0.000019040               0.000928675              -0.000013364              -0.000108944               0.000345870               0.000236926               0.000000000               0.000000000               0.000000000               0.000000000               0.000014122               0.000956286              -0.000010075              -0.000114240               0.000356839               0.000242599               0.000000000               0.000000000               0.000000000               0.000000000               0.000167552               0.000566483              -0.000206719              -0.000007979               0.000191485               0.000183507               0.000000000               0.000000000               0.000000000               0.000000000               0.000135909               0.000520136              -0.000133621              -0.000014051               0.000178061               0.000164009               0.000000000               0.000000000               0.000000000               0.000000000               0.000131443               0.000529413              -0.000057518              -0.000016886               0.000182098               0.000165212               0.000000000               0.000000000               0.000000000               0.000000000               0.000129726               0.000553554              -0.000024477              -0.000020547               0.000191365               0.000170818               0.000000000               0.000000000               0.000000000               0.000000000               0.000137475               0.000580154              -0.000013403              -0.000020966               0.000200371               0.000179405               0.000000000               0.000000000               0.000000000               0.000000000               0.000155473               0.000607138              -0.000021097              -0.000017590               0.000208241               0.000190651               0.000000000               0.000000000               0.000000000               0.000000000               0.000176744               0.000643565              -0.000037251              -0.000014166               0.000219242               0.000205075               0.000000000               0.000000000               0.000000000               0.000000000               0.000186574               0.000690814              -0.000044356              -0.000016386               0.000235731               0.000219345               0.000000000               0.000000000               0.000000000               0.000000000               0.000178151               0.000744134              -0.000045394              -0.000026210               0.000256779               0.000230569               0.000000000               0.000000000               0.000000000               0.000000000               0.000160550               0.000798909              -0.000047874              -0.000039657               0.000279519               0.000239862               0.000000000               0.000000000               0.000000000               0.000000000               0.000137889               0.000854385              -0.000048883              -0.000055089               0.000303155               0.000248066               0.000000000               0.000000000               0.000000000               0.000000000               0.000114224               0.000909495              -0.000045970              -0.000070853               0.000326779               0.000255927               0.000000000               0.000000000               0.000000000               0.000000000               0.000093094               0.000964273              -0.000040543              -0.000085624               0.000349962               0.000264339               0.000000000               0.000000000               0.000000000               0.000000000               0.000070640               0.001016097              -0.000032873              -0.000100522               0.000372203               0.000271681               0.000000000               0.000000000               0.000000000               0.000000000               0.000045492               0.001062393              -0.000023410              -0.000115739               0.000392707               0.000276968               0.000000000               0.000000000               0.000000000               0.000000000               0.000021363               0.001103470              -0.000012295              -0.000129922               0.000411127               0.000281205               0.000000000               0.000000000               0.000000000               0.000000000               0.000015243               0.001130788              -0.000009241              -0.000135632               0.000422136               0.000286504               0.000000000               0.000000000               0.000000000               0.000000000               0.000183963               0.000503855              -0.000210042               0.000006004               0.000165948               0.000171953               0.000000000               0.000000000               0.000000000               0.000000000               0.000138729               0.000486101              -0.000136877              -0.000008739               0.000164945               0.000156206               0.000000000               0.000000000               0.000000000               0.000000000               0.000122328               0.000534207              -0.000063999              -0.000020903               0.000185035               0.000164132               0.000000000               0.000000000               0.000000000               0.000000000               0.000122282               0.000584287              -0.000034120              -0.000027180               0.000203821               0.000176641               0.000000000               0.000000000               0.000000000               0.000000000               0.000140027               0.000635118              -0.000023944              -0.000026879               0.000220664               0.000193784               0.000000000               0.000000000               0.000000000               0.000000000               0.000170031               0.000687963              -0.000028664              -0.000022234               0.000236730               0.000214496               0.000000000               0.000000000               0.000000000               0.000000000               0.000195508               0.000745342              -0.000042950              -0.000019852               0.000255062               0.000235210               0.000000000               0.000000000               0.000000000               0.000000000               0.000201852               0.000809416              -0.000049352              -0.000025482               0.000278297               0.000252815               0.000000000               0.000000000               0.000000000               0.000000000               0.000189853               0.000878248              -0.000050380              -0.000038586               0.000305608               0.000267022               0.000000000               0.000000000               0.000000000               0.000000000               0.000168596               0.000941744              -0.000052774              -0.000054494               0.000332076               0.000277582               0.000000000               0.000000000               0.000000000               0.000000000               0.000143171               0.001002330              -0.000051336              -0.000071602               0.000357974               0.000286372               0.000000000               0.000000000               0.000000000               0.000000000               0.000119056               0.001062392              -0.000045826              -0.000088153               0.000383511               0.000295359               0.000000000               0.000000000               0.000000000               0.000000000               0.000097715               0.001119977              -0.000037769              -0.000103354               0.000407773               0.000304419               0.000000000               0.000000000               0.000000000               0.000000000               0.000072803               0.001172236              -0.000029147              -0.000119228               0.000430484               0.000311256               0.000000000               0.000000000               0.000000000               0.000000000               0.000046878               0.001219226              -0.000020057              -0.000134823               0.000451346               0.000316522               0.000000000               0.000000000               0.000000000               0.000000000               0.000023367               0.001261747              -0.000010048              -0.000148956               0.000470230               0.000321275               0.000000000               0.000000000               0.000000000               0.000000000               0.000017176               0.001290437              -0.000008138              -0.000154863               0.000481762               0.000326899               0.000000000               0.000000000               0.000000000               0.000000000               0.000187706               0.000440899              -0.000203920               0.000015277               0.000141872               0.000157149               0.000000000               0.000000000               0.000000000               0.000000000               0.000137259               0.000460604              -0.000137889              -0.000006104               0.000155567               0.000149464               0.000000000               0.000000000               0.000000000               0.000000000               0.000117995               0.000552004              -0.000072447              -0.000024752               0.000192250               0.000167498               0.000000000               0.000000000               0.000000000               0.000000000               0.000128059               0.000632465              -0.000045253              -0.000031036               0.000221165               0.000190129               0.000000000               0.000000000               0.000000000               0.000000000               0.000157918               0.000709109              -0.000034898              -0.000029419               0.000246174               0.000216754               0.000000000               0.000000000               0.000000000               0.000000000               0.000195466               0.000779808              -0.000039464              -0.000024176               0.000267992               0.000243816               0.000000000               0.000000000               0.000000000               0.000000000               0.000219714               0.000848732              -0.000050457              -0.000023699               0.000290807               0.000267109               0.000000000               0.000000000               0.000000000               0.000000000               0.000219682               0.000926221              -0.000053383              -0.000033397               0.000319870               0.000286473               0.000000000               0.000000000               0.000000000               0.000000000               0.000200545               0.000999755              -0.000052652              -0.000049765               0.000349837               0.000300072               0.000000000               0.000000000               0.000000000               0.000000000               0.000175013               0.001067148              -0.000053939              -0.000067764               0.000378300               0.000310537               0.000000000               0.000000000               0.000000000               0.000000000               0.000149394               0.001133247              -0.000048776              -0.000085633               0.000406289               0.000320657               0.000000000               0.000000000               0.000000000               0.000000000               0.000124384               0.001199256              -0.000039593              -0.000103263               0.000434169               0.000330906               0.000000000               0.000000000               0.000000000               0.000000000               0.000098139               0.001261995              -0.000030976              -0.000120947               0.000460976               0.000340029               0.000000000               0.000000000               0.000000000               0.000000000               0.000070248               0.001320424              -0.000021959              -0.000138710               0.000486374               0.000347664               0.000000000               0.000000000               0.000000000               0.000000000               0.000044968               0.001377677              -0.000013640              -0.000155346               0.000511003               0.000355657               0.000000000               0.000000000               0.000000000               0.000000000               0.000022511               0.001431542              -0.000006642              -0.000170501               0.000534009               0.000363509               0.000000000               0.000000000               0.000000000               0.000000000               0.000015725               0.001466133              -0.000006441              -0.000177369               0.000547829               0.000370460               0.000000000               0.000000000               0.000000000               0.000000000               0.000192720               0.000384589              -0.000191473               0.000024196               0.000120130               0.000144326               0.000000000               0.000000000               0.000000000               0.000000000               0.000140499               0.000443604              -0.000139165              -0.000002764               0.000148788               0.000146024               0.000000000               0.000000000               0.000000000               0.000000000               0.000120625               0.000574390              -0.000085064              -0.000026564               0.000200316               0.000173752               0.000000000               0.000000000               0.000000000               0.000000000               0.000139524               0.000679506              -0.000059122              -0.000032617               0.000237372               0.000204755               0.000000000               0.000000000               0.000000000               0.000000000               0.000177069               0.000771506              -0.000047093              -0.000030037               0.000267179               0.000237141               0.000000000               0.000000000               0.000000000               0.000000000               0.000217831               0.000849869              -0.000046806              -0.000024547               0.000291469               0.000266922               0.000000000               0.000000000               0.000000000               0.000000000               0.000240348               0.000925346              -0.000049009              -0.000025538               0.000316958               0.000291421               0.000000000               0.000000000               0.000000000               0.000000000               0.000233417               0.001007313              -0.000049651              -0.000038383               0.000348562               0.000310179               0.000000000               0.000000000               0.000000000               0.000000000               0.000208901               0.001082299              -0.000049737              -0.000056950               0.000379746               0.000322796               0.000000000               0.000000000               0.000000000               0.000000000               0.000184382               0.001153774              -0.000048507              -0.000075078               0.000409614               0.000334535               0.000000000               0.000000000               0.000000000               0.000000000               0.000161124               0.001228450              -0.000041177              -0.000093135               0.000440524               0.000347390               0.000000000               0.000000000               0.000000000               0.000000000               0.000138178               0.001303425              -0.000031302              -0.000111111               0.000471508               0.000360397               0.000000000               0.000000000               0.000000000               0.000000000               0.000113155               0.001375284              -0.000022981              -0.000129477               0.000501583               0.000372105               0.000000000               0.000000000               0.000000000               0.000000000               0.000088262               0.001446194              -0.000014161              -0.000147675               0.000531285               0.000383610               0.000000000               0.000000000               0.000000000               0.000000000               0.000065708               0.001516338              -0.000005938              -0.000164901               0.000560408               0.000395507               0.000000000               0.000000000               0.000000000               0.000000000               0.000046335               0.001581951              -0.000001363              -0.000180368               0.000587434               0.000407066               0.000000000               0.000000000               0.000000000               0.000000000               0.000036214               0.001615888              -0.000000433              -0.000188405               0.000601426               0.000413021               0.000000000               0.000000000               0.000000000               0.000000000               0.000194725               0.000331655              -0.000176201               0.000031565               0.000100029               0.000131594               0.000000000               0.000000000               0.000000000               0.000000000               0.000148571               0.000413026              -0.000142998               0.000004085               0.000136312               0.000140398               0.000000000               0.000000000               0.000000000               0.000000000               0.000132549               0.000568258              -0.000105035              -0.000021326               0.000196526               0.000175200               0.000000000               0.000000000               0.000000000               0.000000000               0.000151413               0.000691205              -0.000079403              -0.000029621               0.000240273               0.000210652               0.000000000               0.000000000               0.000000000               0.000000000               0.000185208               0.000798026              -0.000063478              -0.000030300               0.000276106               0.000245806               0.000000000               0.000000000               0.000000000               0.000000000               0.000220647               0.000881164              -0.000053409              -0.000027403               0.000302853               0.000275450               0.000000000               0.000000000               0.000000000               0.000000000               0.000246510               0.000953020              -0.000046280              -0.000026686               0.000326566               0.000299879               0.000000000               0.000000000               0.000000000               0.000000000               0.000250347               0.001031158              -0.000044070              -0.000035014               0.000355387               0.000320373               0.000000000               0.000000000               0.000000000               0.000000000               0.000234580               0.001109156              -0.000046286              -0.000050677               0.000386607               0.000335931               0.000000000               0.000000000               0.000000000               0.000000000               0.000214490               0.001183204              -0.000045986              -0.000067466               0.000416886               0.000349420               0.000000000               0.000000000               0.000000000               0.000000000               0.000194850               0.001258192              -0.000041279              -0.000084205               0.000447461               0.000363256               0.000000000               0.000000000               0.000000000               0.000000000               0.000176796               0.001335835              -0.000035095              -0.000100680               0.000478834               0.000378154               0.000000000               0.000000000               0.000000000               0.000000000               0.000158594               0.001415005              -0.000026751              -0.000117403               0.000510798               0.000393395               0.000000000               0.000000000               0.000000000               0.000000000               0.000137883               0.001490674              -0.000018164              -0.000134628               0.000541762               0.000407134               0.000000000               0.000000000               0.000000000               0.000000000               0.000118377               0.001567278              -0.000010496              -0.000151518               0.000572927               0.000421409               0.000000000               0.000000000               0.000000000               0.000000000               0.000100891               0.001643445              -0.000003819              -0.000167596               0.000603675               0.000436079               0.000000000               0.000000000               0.000000000               0.000000000               0.000085162               0.001673733               0.000001805              -0.000177280               0.000616999               0.000439718               0.000000000               0.000000000               0.000000000               0.000000000               0.000187617               0.000276332              -0.000159017               0.000035814               0.000080172               0.000115986               0.000000000               0.000000000               0.000000000               0.000000000               0.000158823               0.000372851              -0.000145230               0.000012952               0.000119965               0.000132917               0.000000000               0.000000000               0.000000000               0.000000000               0.000147757               0.000543693              -0.000123024              -0.000012553               0.000185414               0.000172861               0.000000000               0.000000000               0.000000000               0.000000000               0.000161995               0.000681701              -0.000097006              -0.000024464               0.000235386               0.000210922               0.000000000               0.000000000               0.000000000               0.000000000               0.000186621               0.000796747              -0.000076148              -0.000029610               0.000275450               0.000245840               0.000000000               0.000000000               0.000000000               0.000000000               0.000214304               0.000881484              -0.000058894              -0.000029821               0.000303766               0.000273944               0.000000000               0.000000000               0.000000000               0.000000000               0.000245010               0.000956578              -0.000044872              -0.000027694               0.000328087               0.000300394               0.000000000               0.000000000               0.000000000               0.000000000               0.000265571               0.001036635              -0.000038386              -0.000029990               0.000355538               0.000325548               0.000000000               0.000000000               0.000000000               0.000000000               0.000266802               0.001119349              -0.000040675              -0.000039868               0.000386402               0.000346534               0.000000000               0.000000000               0.000000000               0.000000000               0.000256006               0.001197514              -0.000043128              -0.000053687               0.000417063               0.000363376               0.000000000               0.000000000               0.000000000               0.000000000               0.000243391               0.001271150              -0.000043134              -0.000067622               0.000446253               0.000378631               0.000000000               0.000000000               0.000000000               0.000000000               0.000229331               0.001344227              -0.000040141              -0.000082029               0.000475414               0.000393385               0.000000000               0.000000000               0.000000000               0.000000000               0.000216022               0.001422028              -0.000032840              -0.000096745               0.000506253               0.000409508               0.000000000               0.000000000               0.000000000               0.000000000               0.000201016               0.001498051              -0.000023709              -0.000111875               0.000536637               0.000424762               0.000000000               0.000000000               0.000000000               0.000000000               0.000183266               0.001572019              -0.000014704              -0.000127777               0.000566593               0.000438816               0.000000000               0.000000000               0.000000000               0.000000000               0.000163455               0.001641958              -0.000006078              -0.000143949               0.000595297               0.000451348               0.000000000               0.000000000               0.000000000               0.000000000               0.000144085               0.001667543               0.000001412              -0.000154410               0.000607312               0.000452902               0.000000000               0.000000000               0.000000000               0.000000000               0.000176117               0.000216277              -0.000137669               0.000039009               0.000059089               0.000098097               0.000000000               0.000000000               0.000000000               0.000000000               0.000167382               0.000327457              -0.000140275               0.000021836               0.000101873               0.000123709               0.000000000               0.000000000               0.000000000               0.000000000               0.000164723               0.000509565              -0.000131138              -0.000001925               0.000170495               0.000168570               0.000000000               0.000000000               0.000000000               0.000000000               0.000177243               0.000656213              -0.000108498              -0.000015560               0.000223922               0.000208362               0.000000000               0.000000000               0.000000000               0.000000000               0.000195041               0.000772202              -0.000085963              -0.000023385               0.000265193               0.000241808               0.000000000               0.000000000               0.000000000               0.000000000               0.000217383               0.000866356              -0.000065726              -0.000026776               0.000297708               0.000270932               0.000000000               0.000000000               0.000000000               0.000000000               0.000248040               0.000954849              -0.000048902              -0.000026341               0.000327060               0.000300719               0.000000000               0.000000000               0.000000000               0.000000000               0.000279394               0.001043858              -0.000038746              -0.000025710               0.000356519               0.000330809               0.000000000               0.000000000               0.000000000               0.000000000               0.000296289               0.001131769              -0.000036453              -0.000030363               0.000387373               0.000357011               0.000000000               0.000000000               0.000000000               0.000000000               0.000297275               0.001213372              -0.000038096              -0.000040193               0.000417851               0.000377658               0.000000000               0.000000000               0.000000000               0.000000000               0.000290713               0.001286082              -0.000039577              -0.000051743               0.000445937               0.000394195               0.000000000               0.000000000               0.000000000               0.000000000               0.000279783               0.001353329              -0.000038865              -0.000064247               0.000472521               0.000408274               0.000000000               0.000000000               0.000000000               0.000000000               0.000269746               0.001425113              -0.000034894              -0.000076984               0.000500694               0.000423710               0.000000000               0.000000000               0.000000000               0.000000000               0.000260368               0.001499057              -0.000027072              -0.000089744               0.000529595               0.000439851               0.000000000               0.000000000               0.000000000               0.000000000               0.000248601               0.001571929              -0.000017851              -0.000103265               0.000558393               0.000455127               0.000000000               0.000000000               0.000000000               0.000000000               0.000233831               0.001643255              -0.000009386              -0.000117720               0.000586986               0.000469266               0.000000000               0.000000000               0.000000000               0.000000000               0.000216181               0.001672456              -0.000002224              -0.000127989               0.000600143               0.000472154               0.000000000               0.000000000               0.000000000               0.000000000               0.000159187               0.000167853              -0.000109695               0.000038713               0.000043046               0.000081759               0.000000000               0.000000000               0.000000000               0.000000000               0.000171355               0.000282815              -0.000125609               0.000028906               0.000084635               0.000113541               0.000000000               0.000000000               0.000000000               0.000000000               0.000183363               0.000463147              -0.000128279               0.000010868               0.000150758               0.000161626               0.000000000               0.000000000               0.000000000               0.000000000               0.000198090               0.000610689              -0.000111042              -0.000002052               0.000204245               0.000202193               0.000000000               0.000000000               0.000000000               0.000000000               0.000212070               0.000733665              -0.000090271              -0.000012182               0.000248613               0.000236431               0.000000000               0.000000000               0.000000000               0.000000000               0.000232095               0.000846907              -0.000071347              -0.000018828               0.000288576               0.000269748               0.000000000               0.000000000               0.000000000               0.000000000               0.000261530               0.000952331              -0.000054658              -0.000020968               0.000324430               0.000303462               0.000000000               0.000000000               0.000000000               0.000000000               0.000293191               0.001048001              -0.000041068              -0.000021054               0.000356348               0.000335295               0.000000000               0.000000000               0.000000000               0.000000000               0.000316423               0.001136204              -0.000032485              -0.000023367               0.000386520               0.000363153               0.000000000               0.000000000               0.000000000               0.000000000               0.000327564               0.001219485              -0.000030431              -0.000029599               0.000416357               0.000386758               0.000000000               0.000000000               0.000000000               0.000000000               0.000330567               0.001295405              -0.000030777              -0.000037963               0.000444452               0.000406489               0.000000000               0.000000000               0.000000000               0.000000000               0.000328302               0.001364220              -0.000031359              -0.000047414               0.000470540               0.000423126               0.000000000               0.000000000               0.000000000               0.000000000               0.000323360               0.001430301              -0.000030967              -0.000057528               0.000495938               0.000438411               0.000000000               0.000000000               0.000000000               0.000000000               0.000319583               0.001499878              -0.000026612              -0.000067641               0.000522501               0.000454860               0.000000000               0.000000000               0.000000000               0.000000000               0.000317612               0.001575421              -0.000019668              -0.000077823               0.000551076               0.000473253               0.000000000               0.000000000               0.000000000               0.000000000               0.000313277               0.001650957              -0.000010904              -0.000088890               0.000579943               0.000491053               0.000000000               0.000000000               0.000000000               0.000000000               0.000302619               0.001683570              -0.000003441              -0.000096964               0.000593506               0.000496542               0.000000000               0.000000000               0.000000000               0.000000000               0.000135450               0.000129251              -0.000078680               0.000034637               0.000031538               0.000066175               0.000000000               0.000000000               0.000000000               0.000000000               0.000172920               0.000236832              -0.000101420               0.000035241               0.000067196               0.000102437               0.000000000               0.000000000               0.000000000               0.000000000               0.000202275               0.000408958              -0.000112117               0.000024733               0.000128074               0.000152807               0.000000000               0.000000000               0.000000000               0.000000000               0.000220188               0.000560301              -0.000100569               0.000012533               0.000182588               0.000195120               0.000000000               0.000000000               0.000000000               0.000000000               0.000235432               0.000695621              -0.000085251               0.000001334               0.000231427               0.000232761               0.000000000               0.000000000               0.000000000               0.000000000               0.000255108               0.000822127              -0.000071060              -0.000007100               0.000276406               0.000269306               0.000000000               0.000000000               0.000000000               0.000000000               0.000278616               0.000936355              -0.000055681              -0.000012563               0.000316303               0.000303740               0.000000000               0.000000000               0.000000000               0.000000000               0.000304736               0.001037686              -0.000039532              -0.000015435               0.000351037               0.000335602               0.000000000               0.000000000               0.000000000               0.000000000               0.000329888               0.001130557              -0.000026646              -0.000017612               0.000382719               0.000365107               0.000000000               0.000000000               0.000000000               0.000000000               0.000349537               0.001219180              -0.000021697              -0.000021321               0.000413496               0.000392175               0.000000000               0.000000000               0.000000000               0.000000000               0.000363162               0.001302287              -0.000021396              -0.000026600               0.000442958               0.000416358               0.000000000               0.000000000               0.000000000               0.000000000               0.000371870               0.001376855              -0.000021699              -0.000032656               0.000469832               0.000437177               0.000000000               0.000000000               0.000000000               0.000000000               0.000374529               0.001440144              -0.000022187              -0.000039570               0.000493233               0.000453663               0.000000000               0.000000000               0.000000000               0.000000000               0.000377326               0.001505488              -0.000021312              -0.000046689               0.000517387               0.000470698               0.000000000               0.000000000               0.000000000               0.000000000               0.000383608               0.001578562              -0.000017095              -0.000053467               0.000544004               0.000490537               0.000000000               0.000000000               0.000000000               0.000000000               0.000389145               0.001650115              -0.000009101              -0.000060335               0.000570144               0.000509809               0.000000000               0.000000000               0.000000000               0.000000000               0.000387722               0.001682107              -0.000002812              -0.000064867               0.000582319               0.000517452               0.000000000               0.000000000               0.000000000               0.000000000               0.000110681               0.000097188              -0.000049760               0.000029357               0.000022610               0.000051967               0.000000000               0.000000000               0.000000000               0.000000000               0.000171265               0.000197062              -0.000070273               0.000039591               0.000052490               0.000092081               0.000000000               0.000000000               0.000000000               0.000000000               0.000217086               0.000361936              -0.000082568               0.000036165               0.000108589               0.000144754               0.000000000               0.000000000               0.000000000               0.000000000               0.000242451               0.000516295              -0.000077010               0.000026382               0.000163303               0.000189685               0.000000000               0.000000000               0.000000000               0.000000000               0.000261650               0.000659058              -0.000067931               0.000015736               0.000214438               0.000230175               0.000000000               0.000000000               0.000000000               0.000000000               0.000278213               0.000791978              -0.000057464               0.000005333               0.000262212               0.000267545               0.000000000               0.000000000               0.000000000               0.000000000               0.000295135               0.000912216              -0.000044932              -0.000003352               0.000305186               0.000301835               0.000000000               0.000000000               0.000000000               0.000000000               0.000315952               0.001021202              -0.000031787              -0.000009168               0.000343453               0.000334285               0.000000000               0.000000000               0.000000000               0.000000000               0.000341321               0.001122526              -0.000020618              -0.000012320               0.000378278               0.000365958               0.000000000               0.000000000               0.000000000               0.000000000               0.000366745               0.001217603              -0.000014608              -0.000014671               0.000410754               0.000396083               0.000000000               0.000000000               0.000000000               0.000000000               0.000387718               0.001305330              -0.000012849              -0.000017772               0.000441030               0.000423258               0.000000000               0.000000000               0.000000000               0.000000000               0.000403955               0.001381957              -0.000011861              -0.000021261               0.000467735               0.000446473               0.000000000               0.000000000               0.000000000               0.000000000               0.000415622               0.001447392              -0.000011429              -0.000025066               0.000490814               0.000465749               0.000000000               0.000000000               0.000000000               0.000000000               0.000426446               0.001512274              -0.000012042              -0.000029117               0.000513792               0.000484675               0.000000000               0.000000000               0.000000000               0.000000000               0.000438133               0.001578551              -0.000010110              -0.000033019               0.000537185               0.000504166               0.000000000               0.000000000               0.000000000               0.000000000               0.000451243               0.001644494              -0.000005371              -0.000036346               0.000560275               0.000523929               0.000000000               0.000000000               0.000000000               0.000000000               0.000457242               0.001676392              -0.000002139              -0.000038083               0.000571486               0.000533403               0.000000000               0.000000000               0.000000000               0.000000000               0.000090657               0.000077381              -0.000024623               0.000024324               0.000017686               0.000042009               0.000000000               0.000000000               0.000000000               0.000000000               0.000166475               0.000171176              -0.000036277               0.000041031               0.000043381               0.000084412               0.000000000               0.000000000               0.000000000               0.000000000               0.000227980               0.000329853              -0.000043836               0.000044261               0.000095196               0.000139457               0.000000000               0.000000000               0.000000000               0.000000000               0.000259779               0.000484959              -0.000042041               0.000036797               0.000149386               0.000186183               0.000000000               0.000000000               0.000000000               0.000000000               0.000279655               0.000630997              -0.000037506               0.000025996               0.000201665               0.000227661               0.000000000               0.000000000               0.000000000               0.000000000               0.000293720               0.000766862              -0.000031704               0.000014287               0.000250856               0.000265143               0.000000000               0.000000000               0.000000000               0.000000000               0.000308316               0.000892255              -0.000025294               0.000004086               0.000296053               0.000300140               0.000000000               0.000000000               0.000000000               0.000000000               0.000327368               0.001009665              -0.000018176              -0.000003445               0.000337700               0.000334255               0.000000000               0.000000000               0.000000000               0.000000000               0.000350934               0.001116325              -0.000011532              -0.000007940               0.000374751               0.000366811               0.000000000               0.000000000               0.000000000               0.000000000               0.000376898               0.001212592              -0.000007015              -0.000010237               0.000407606               0.000397368               0.000000000               0.000000000               0.000000000               0.000000000               0.000402385               0.001302861              -0.000005249              -0.000011963               0.000438270               0.000426307               0.000000000               0.000000000               0.000000000               0.000000000               0.000423800               0.001381135              -0.000004388              -0.000013717               0.000464946               0.000451229               0.000000000               0.000000000               0.000000000               0.000000000               0.000442281               0.001450590              -0.000003833              -0.000015468               0.000488681               0.000473213               0.000000000               0.000000000               0.000000000               0.000000000               0.000458789               0.001516201              -0.000004132              -0.000017479               0.000511222               0.000493743               0.000000000               0.000000000               0.000000000               0.000000000               0.000472979               0.001576438              -0.000003286              -0.000019688               0.000532037               0.000512349               0.000000000               0.000000000               0.000000000               0.000000000               0.000489405               0.001640809              -0.000001656              -0.000021574               0.000554122               0.000532548               0.000000000               0.000000000               0.000000000               0.000000000               0.000497889               0.001674469              -0.000000829              -0.000022600               0.000565684               0.000543084               0.000000000               0.000000000               0.000000000               0.000000000               0.000000000               0.000000000               0.000000000               0.000000000               0.000000000               0.000000000               0.000000000               0.000000000               0.000000000               0.000000000               0.000000000               0.000000000               0.000000000               0.000000000               0.000000000               0.000000000               0.000000000               0.000000000               0.000000000               0.000000000               0.000000000               0.000000000               0.000000000               0.000000000               0.000000000               0.000000000               0.000000000               0.000000000               0.000000000               0.000000000               0.000000000               0.000000000               0.000000000               0.000000000               0.000000000               0.000000000               0.000000000               0.000000000               0.000000000               0.000000000               0.000000000               0.000000000               0.000000000               0.000000000               0.000000000               0.000000000               0.000000000               0.000000000               0.000000000               0.000000000               0.000000000               0.000000000               0.000000000               0.000000000               0.000000000               0.000000000               0.000000000               0.000000000               0.000000000               0.000000000               0.000000000               0.000000000               0.000000000               0.000000000               0.000000000               0.000000000               0.000000000               0.000000000               0.000000000               0.000000000               0.000000000               0.000000000               0.000000000               0.000000000               0.000000000               0.000000000               0.000000000               0.000000000               0.000000000               0.000000000               0.000000000               0.000000000               0.000000000               0.000000000               0.000000000               0.000000000               0.000000000               0.000000000               0.000000000               0.000000000               0.000000000               0.000000000               0.000000000               0.000000000               0.000000000               0.000000000               0.000000000               0.000000000               0.000000000               0.000000000               0.000000000               0.000000000               0.000000000               0.000000000               0.000000000               0.000000000               0.000000000               0.000000000               0.000000000               0.000000000               0.000000000               0.000000000               0.000000000               0.000000000               0.000000000               0.000000000               0.000000000               0.000000000               0.000000000               0.000000000               0.000000000               0.000000000               0.000000000               0.000000000               0.000000000               0.000000000               0.000000000               0.000000000               0.000000000               0.000000000               0.000000000               0.000000000               0.000000000               0.000000000               0.000000000               0.000000000               0.000000000               0.000000000               0.000000000               0.000000000               0.000000000               0.000000000               0.000000000               0.000000000               0.000000000               0.000000000               0.000000000               0.000000000               0.000000000               0.000000000               0.000000000               0.000000000               0.000000000               0.000000000               0.000000000               0.000000000               0.000000000               0.000000000               0.000000000               0.000000000               0.000000000               0.000000000               0.000000000               0.000000000               0.000000000               0.000000000               0.000000000               0.000000000               0.000000000               0.000000000               0.000000000               0.000000000               0.000000000               0.000000000               0.000000000               0.000000000               0.000000000               0.000000000               0.000000000               0.000000000               0.000000000               0.000000000               0.000000000               0.000000000               0.000000000               0.000000000               0.000000000               0.000000000               0.000000000               0.000000000               0.000000000               0.000000000               0.000000000               0.000000000               0.000000000               0.000000000               0.000000000               0.000000000               0.000000000               0.000000000               0.000000000               0.000000000               0.000000000               0.000000000               0.000000000               0.000000000               0.000000000               0.000000000               0.000000000               0.000000000               0.000000000               0.000000000               0.000000000               0.000000000               0.000000000               0.000000000               0.000000000               0.000000000               0.000000000               0.000000000               0.000000000               0.000000000               0.000000000               0.000000000               0.000000000               0.000000000               0.000000000               0.000000000               0.000000000               0.000000000               0.000000000               0.000000000               0.000000000               0.000000000               0.000000000               0.000000000               0.000000000               0.000000000               0.000000000               0.000000000               0.000000000               0.000000000               0.000000000               0.000000000               0.000000000               0.000000000               0.000000000               0.000000000               0.000000000               0.000000000               0.000000000               0.000000000               0.000000000               0.000000000               0.000000000               0.000000000               0.000000000               0.000000000               0.000000000               0.000000000               0.000000000               0.000000000               0.000000000               0.000000000               0.000000000               0.000000000               0.000000000               0.000000000               0.000000000               0.000000000               0.000000000               0.000000000               0.000000000               0.000000000               0.000000000               0.000000000               0.000000000               0.000000000               0.000000000               0.000000000               0.000000000               0.000000000               0.000000000               0.000000000               0.000000000               0.000000000               0.000000000               0.000000000               0.000000000               0.000000000               0.000000000               0.000000000               0.000000000               0.000000000               0.000000000               0.000000000               0.000000000               0.000000000               0.000000000               0.000000000               0.000000000               0.000000000               0.000000000               0.000000000               0.000000000               0.000000000               0.000000000               0.000000000               0.000000000               0.000000000               0.000000000               0.000000000               0.000000000               0.000000000               0.000000000               0.000000000               0.000000000               0.000000000               0.000000000               0.000000000               0.000000000               0.000000000               0.000000000               0.000000000               0.000000000               0.000000000               0.000000000               0.000000000               0.000000000               0.000000000               0.000000000               0.000000000               0.000000000               0.000000000               0.000000000               0.000000000               0.000000000               0.000000000               0.000000000               0.000000000               0.000083822               0.000760684               0.000061510              -0.000063652               0.000274776               0.000211124               0.000000000               0.000000000               0.000000000               0.000000000               0.000104389               0.000650371               0.000041341              -0.000042150               0.000230838               0.000188688               0.000000000               0.000000000               0.000000000               0.000000000               0.000154782               0.000571296               0.000019058              -0.000013369               0.000194886               0.000181518               0.000000000               0.000000000               0.000000000               0.000000000               0.000172858               0.000537697               0.000006471              -0.000002390               0.000180027               0.000177637               0.000000000               0.000000000               0.000000000               0.000000000               0.000172939               0.000530528              -0.000000355              -0.000001464               0.000177329               0.000175865               0.000000000               0.000000000               0.000000000               0.000000000               0.000168334               0.000531988              -0.000000669              -0.000003373               0.000178452               0.000175079               0.000000000               0.000000000               0.000000000               0.000000000               0.000168985               0.000528361               0.000006468              -0.000002676               0.000177011               0.000174335               0.000000000               0.000000000               0.000000000               0.000000000               0.000170210               0.000513628               0.000011677              -0.000000375               0.000171333               0.000170958               0.000000000               0.000000000               0.000000000               0.000000000               0.000168584               0.000499018               0.000012438               0.000000842               0.000166057               0.000166899               0.000000000               0.000000000               0.000000000               0.000000000               0.000166689               0.000487521               0.000014555               0.000001568               0.000161983               0.000163551               0.000000000               0.000000000               0.000000000               0.000000000               0.000161408               0.000479309               0.000014974               0.000000614               0.000159563               0.000160178               0.000000000               0.000000000               0.000000000               0.000000000               0.000148921               0.000476871               0.000013638              -0.000003763               0.000160210               0.000156446               0.000000000               0.000000000               0.000000000               0.000000000               0.000131184               0.000481519               0.000011981              -0.000010996               0.000164170               0.000153174               0.000000000               0.000000000               0.000000000               0.000000000               0.000107085               0.000493102               0.000009222              -0.000021481               0.000171526               0.000150045               0.000000000               0.000000000               0.000000000               0.000000000               0.000075509               0.000510799               0.000006008              -0.000035534               0.000182109               0.000146575               0.000000000               0.000000000               0.000000000               0.000000000               0.000038886               0.000534365               0.000002920              -0.000052213               0.000195524               0.000143311               0.000000000               0.000000000               0.000000000               0.000000000               0.000023157               0.000556030               0.000002551              -0.000060820               0.000205615               0.000144795               0.000000000               0.000000000               0.000000000               0.000000000               0.000099580               0.000730998               0.000116773              -0.000054032               0.000261674               0.000207642               0.000000000               0.000000000               0.000000000               0.000000000               0.000112430               0.000629740               0.000078170              -0.000036556               0.000222097               0.000185540               0.000000000               0.000000000               0.000000000               0.000000000               0.000152440               0.000559975               0.000035664              -0.000012832               0.000190934               0.000178102               0.000000000               0.000000000               0.000000000               0.000000000               0.000166325               0.000534678               0.000011469              -0.000004463               0.000179712               0.000175249               0.000000000               0.000000000               0.000000000               0.000000000               0.000168129               0.000530819              -0.000000837              -0.000003304               0.000178039               0.000174735               0.000000000               0.000000000               0.000000000               0.000000000               0.000165862               0.000530669               0.000000201              -0.000004135               0.000178266               0.000174131               0.000000000               0.000000000               0.000000000               0.000000000               0.000166495               0.000525746               0.000013066              -0.000003283               0.000176341               0.000173059               0.000000000               0.000000000               0.000000000               0.000000000               0.000167494               0.000518685               0.000021619              -0.000002025               0.000173568               0.000171543               0.000000000               0.000000000               0.000000000               0.000000000               0.000164440               0.000516174               0.000022375              -0.000002857               0.000173009               0.000170152               0.000000000               0.000000000               0.000000000               0.000000000               0.000158010               0.000517215               0.000025205              -0.000005398               0.000174203               0.000168804               0.000000000               0.000000000               0.000000000               0.000000000               0.000145957               0.000522271               0.000026231              -0.000010550               0.000177605               0.000167055               0.000000000               0.000000000               0.000000000               0.000000000               0.000128171               0.000530981               0.000024672              -0.000018308               0.000183095               0.000164786               0.000000000               0.000000000               0.000000000               0.000000000               0.000109327               0.000544589               0.000022169              -0.000027076               0.000190553               0.000163477               0.000000000               0.000000000               0.000000000               0.000000000               0.000088218               0.000562907               0.000017886              -0.000037282               0.000200061               0.000162779               0.000000000               0.000000000               0.000000000               0.000000000               0.000061607               0.000584773               0.000012431              -0.000049994               0.000211587               0.000161593               0.000000000               0.000000000               0.000000000               0.000000000               0.000031058               0.000611112               0.000006364              -0.000064742               0.000225283               0.000160541               0.000000000               0.000000000               0.000000000               0.000000000               0.000019627               0.000634459               0.000005494              -0.000071947               0.000235466               0.000163519               0.000000000               0.000000000               0.000000000               0.000000000               0.000122239               0.000683672               0.000160671              -0.000039619               0.000241095               0.000201475               0.000000000               0.000000000               0.000000000               0.000000000               0.000122494               0.000594637               0.000106562              -0.000028394               0.000207675               0.000179281               0.000000000               0.000000000               0.000000000               0.000000000               0.000149140               0.000545014               0.000046534              -0.000012199               0.000185736               0.000173537               0.000000000               0.000000000               0.000000000               0.000000000               0.000155944               0.000534115               0.000014740              -0.000008285               0.000180798               0.000172513               0.000000000               0.000000000               0.000000000               0.000000000               0.000156687               0.000534157               0.000001043              -0.000008012               0.000180721               0.000172709               0.000000000               0.000000000               0.000000000               0.000000000               0.000160285               0.000536181               0.000004044              -0.000006916               0.000181030               0.000174115               0.000000000               0.000000000               0.000000000               0.000000000               0.000166551               0.000534827               0.000019695              -0.000004397               0.000179740               0.000175343               0.000000000               0.000000000               0.000000000               0.000000000               0.000171691               0.000540681               0.000029460              -0.000003201               0.000181292               0.000178091               0.000000000               0.000000000               0.000000000               0.000000000               0.000166392               0.000553804               0.000031383              -0.000006829               0.000186876               0.000180047               0.000000000               0.000000000               0.000000000               0.000000000               0.000151748               0.000571891               0.000035771              -0.000014581               0.000195489               0.000180908               0.000000000               0.000000000               0.000000000               0.000000000               0.000132486               0.000595534               0.000037558              -0.000024760               0.000206763               0.000182003               0.000000000               0.000000000               0.000000000               0.000000000               0.000109546               0.000622295               0.000036673              -0.000036707               0.000219665               0.000182958               0.000000000               0.000000000               0.000000000               0.000000000               0.000088095               0.000652210               0.000034006              -0.000048490               0.000233565               0.000185074               0.000000000               0.000000000               0.000000000               0.000000000               0.000068700               0.000684292               0.000028707              -0.000059774               0.000248020               0.000188246               0.000000000               0.000000000               0.000000000               0.000000000               0.000046261               0.000716530               0.000021322              -0.000072218               0.000262914               0.000190695               0.000000000               0.000000000               0.000000000               0.000000000               0.000022160               0.000749671               0.000011690              -0.000085399               0.000278354               0.000192955               0.000000000               0.000000000               0.000000000               0.000000000               0.000015555               0.000775606               0.000009234              -0.000091117               0.000288905               0.000197788               0.000000000               0.000000000               0.000000000               0.000000000               0.000144563               0.000627753               0.000190392              -0.000024258               0.000217335               0.000193077               0.000000000               0.000000000               0.000000000               0.000000000               0.000130450               0.000556805               0.000124257              -0.000020682               0.000192494               0.000171812               0.000000000               0.000000000               0.000000000               0.000000000               0.000142226               0.000533232               0.000052302              -0.000013319               0.000182182               0.000168863               0.000000000               0.000000000               0.000000000               0.000000000               0.000141742               0.000537939               0.000018475              -0.000014089               0.000184007               0.000169918               0.000000000               0.000000000               0.000000000               0.000000000               0.000144560               0.000549027               0.000005224              -0.000014418               0.000187813               0.000173395               0.000000000               0.000000000               0.000000000               0.000000000               0.000156632               0.000559566               0.000011245              -0.000011209               0.000190256               0.000179048               0.000000000               0.000000000               0.000000000               0.000000000               0.000168739               0.000569212               0.000029174              -0.000007874               0.000192360               0.000184486               0.000000000               0.000000000               0.000000000               0.000000000               0.000175588               0.000593702               0.000038765              -0.000008367               0.000200688               0.000192320               0.000000000               0.000000000               0.000000000               0.000000000               0.000169561               0.000626256               0.000040592              -0.000014697               0.000213649               0.000198952               0.000000000               0.000000000               0.000000000               0.000000000               0.000155022               0.000665742               0.000044250              -0.000025085               0.000230273               0.000205189               0.000000000               0.000000000               0.000000000               0.000000000               0.000133828               0.000708669               0.000045547              -0.000038398               0.000249020               0.000210622               0.000000000               0.000000000               0.000000000               0.000000000               0.000108225               0.000753253               0.000043796              -0.000053572               0.000268939               0.000215367               0.000000000               0.000000000               0.000000000               0.000000000               0.000085695               0.000799790               0.000039981              -0.000067838               0.000289206               0.000221369               0.000000000               0.000000000               0.000000000               0.000000000               0.000064743               0.000845716               0.000033494              -0.000081436               0.000309048               0.000227612               0.000000000               0.000000000               0.000000000               0.000000000               0.000041383               0.000888746               0.000024685              -0.000095575               0.000328104               0.000232529               0.000000000               0.000000000               0.000000000               0.000000000               0.000019040               0.000928675               0.000013364              -0.000108944               0.000345870               0.000236926               0.000000000               0.000000000               0.000000000               0.000000000               0.000014122               0.000956286               0.000010075              -0.000114240               0.000356839               0.000242599               0.000000000               0.000000000               0.000000000               0.000000000               0.000167552               0.000566483               0.000206719              -0.000007979               0.000191485               0.000183507               0.000000000               0.000000000               0.000000000               0.000000000               0.000135909               0.000520136               0.000133621              -0.000014051               0.000178061               0.000164009               0.000000000               0.000000000               0.000000000               0.000000000               0.000131443               0.000529413               0.000057518              -0.000016886               0.000182098               0.000165212               0.000000000               0.000000000               0.000000000               0.000000000               0.000129726               0.000553554               0.000024477              -0.000020547               0.000191365               0.000170818               0.000000000               0.000000000               0.000000000               0.000000000               0.000137475               0.000580154               0.000013403              -0.000020966               0.000200371               0.000179405               0.000000000               0.000000000               0.000000000               0.000000000               0.000155473               0.000607138               0.000021097              -0.000017590               0.000208241               0.000190651               0.000000000               0.000000000               0.000000000               0.000000000               0.000176744               0.000643565               0.000037251              -0.000014166               0.000219242               0.000205075               0.000000000               0.000000000               0.000000000               0.000000000               0.000186574               0.000690814               0.000044356              -0.000016386               0.000235731               0.000219345               0.000000000               0.000000000               0.000000000               0.000000000               0.000178151               0.000744134               0.000045394              -0.000026210               0.000256779               0.000230569               0.000000000               0.000000000               0.000000000               0.000000000               0.000160550               0.000798909               0.000047874              -0.000039657               0.000279519               0.000239862               0.000000000               0.000000000               0.000000000               0.000000000               0.000137889               0.000854385               0.000048883              -0.000055089               0.000303155               0.000248066               0.000000000               0.000000000               0.000000000               0.000000000               0.000114224               0.000909495               0.000045970              -0.000070853               0.000326779               0.000255927               0.000000000               0.000000000               0.000000000               0.000000000               0.000093094               0.000964273               0.000040543              -0.000085624               0.000349962               0.000264339               0.000000000               0.000000000               0.000000000               0.000000000               0.000070640               0.001016097               0.000032873              -0.000100522               0.000372203               0.000271681               0.000000000               0.000000000               0.000000000               0.000000000               0.000045492               0.001062393               0.000023410              -0.000115739               0.000392707               0.000276968               0.000000000               0.000000000               0.000000000               0.000000000               0.000021363               0.001103470               0.000012295              -0.000129922               0.000411127               0.000281205               0.000000000               0.000000000               0.000000000               0.000000000               0.000015243               0.001130788               0.000009241              -0.000135632               0.000422136               0.000286504               0.000000000               0.000000000               0.000000000               0.000000000               0.000183963               0.000503855               0.000210042               0.000006004               0.000165948               0.000171953               0.000000000               0.000000000               0.000000000               0.000000000               0.000138729               0.000486101               0.000136877              -0.000008739               0.000164945               0.000156206               0.000000000               0.000000000               0.000000000               0.000000000               0.000122328               0.000534207               0.000063999              -0.000020903               0.000185035               0.000164132               0.000000000               0.000000000               0.000000000               0.000000000               0.000122282               0.000584287               0.000034120              -0.000027180               0.000203821               0.000176641               0.000000000               0.000000000               0.000000000               0.000000000               0.000140027               0.000635118               0.000023944              -0.000026879               0.000220664               0.000193784               0.000000000               0.000000000               0.000000000               0.000000000               0.000170031               0.000687963               0.000028664              -0.000022234               0.000236730               0.000214496               0.000000000               0.000000000               0.000000000               0.000000000               0.000195508               0.000745342               0.000042950              -0.000019852               0.000255062               0.000235210               0.000000000               0.000000000               0.000000000               0.000000000               0.000201852               0.000809416               0.000049352              -0.000025482               0.000278297               0.000252815               0.000000000               0.000000000               0.000000000               0.000000000               0.000189853               0.000878248               0.000050380              -0.000038586               0.000305608               0.000267022               0.000000000               0.000000000               0.000000000               0.000000000               0.000168596               0.000941744               0.000052774              -0.000054494               0.000332076               0.000277582               0.000000000               0.000000000               0.000000000               0.000000000               0.000143171               0.001002330               0.000051336              -0.000071602               0.000357974               0.000286372               0.000000000               0.000000000               0.000000000               0.000000000               0.000119056               0.001062392               0.000045826              -0.000088153               0.000383511               0.000295359               0.000000000               0.000000000               0.000000000               0.000000000               0.000097715               0.001119977               0.000037769              -0.000103354               0.000407773               0.000304419               0.000000000               0.000000000               0.000000000               0.000000000               0.000072803               0.001172236               0.000029147              -0.000119228               0.000430484               0.000311256               0.000000000               0.000000000               0.000000000               0.000000000               0.000046878               0.001219226               0.000020057              -0.000134823               0.000451346               0.000316522               0.000000000               0.000000000               0.000000000               0.000000000               0.000023367               0.001261747               0.000010048              -0.000148956               0.000470230               0.000321275               0.000000000               0.000000000               0.000000000               0.000000000               0.000017176               0.001290437               0.000008138              -0.000154863               0.000481762               0.000326899               0.000000000               0.000000000               0.000000000               0.000000000               0.000187706               0.000440899               0.000203920               0.000015277               0.000141872               0.000157149               0.000000000               0.000000000               0.000000000               0.000000000               0.000137259               0.000460604               0.000137889              -0.000006104               0.000155567               0.000149464               0.000000000               0.000000000               0.000000000               0.000000000               0.000117995               0.000552004               0.000072447              -0.000024752               0.000192250               0.000167498               0.000000000               0.000000000               0.000000000               0.000000000               0.000128059               0.000632465               0.000045253              -0.000031036               0.000221165               0.000190129               0.000000000               0.000000000               0.000000000               0.000000000               0.000157918               0.000709109               0.000034898              -0.000029419               0.000246174               0.000216754               0.000000000               0.000000000               0.000000000               0.000000000               0.000195466               0.000779808               0.000039464              -0.000024176               0.000267992               0.000243816               0.000000000               0.000000000               0.000000000               0.000000000               0.000219714               0.000848732               0.000050457              -0.000023699               0.000290807               0.000267109               0.000000000               0.000000000               0.000000000               0.000000000               0.000219682               0.000926221               0.000053383              -0.000033397               0.000319870               0.000286473               0.000000000               0.000000000               0.000000000               0.000000000               0.000200545               0.000999755               0.000052652              -0.000049765               0.000349837               0.000300072               0.000000000               0.000000000               0.000000000               0.000000000               0.000175013               0.001067148               0.000053939              -0.000067764               0.000378300               0.000310537               0.000000000               0.000000000               0.000000000               0.000000000               0.000149394               0.001133247               0.000048776              -0.000085633               0.000406289               0.000320657               0.000000000               0.000000000               0.000000000               0.000000000               0.000124384               0.001199256               0.000039593              -0.000103263               0.000434169               0.000330906               0.000000000               0.000000000               0.000000000               0.000000000               0.000098139               0.001261995               0.000030976              -0.000120947               0.000460976               0.000340029               0.000000000               0.000000000               0.000000000               0.000000000               0.000070248               0.001320424               0.000021959              -0.000138710               0.000486374               0.000347664               0.000000000               0.000000000               0.000000000               0.000000000               0.000044968               0.001377677               0.000013640              -0.000155346               0.000511003               0.000355657               0.000000000               0.000000000               0.000000000               0.000000000               0.000022511               0.001431542               0.000006642              -0.000170501               0.000534009               0.000363509               0.000000000               0.000000000               0.000000000               0.000000000               0.000015725               0.001466133               0.000006441              -0.000177369               0.000547829               0.000370460               0.000000000               0.000000000               0.000000000               0.000000000               0.000192720               0.000384589               0.000191473               0.000024196               0.000120130               0.000144326               0.000000000               0.000000000               0.000000000               0.000000000               0.000140499               0.000443604               0.000139165              -0.000002764               0.000148788               0.000146024               0.000000000               0.000000000               0.000000000               0.000000000               0.000120625               0.000574390               0.000085064              -0.000026564               0.000200316               0.000173752               0.000000000               0.000000000               0.000000000               0.000000000               0.000139524               0.000679506               0.000059122              -0.000032617               0.000237372               0.000204755               0.000000000               0.000000000               0.000000000               0.000000000               0.000177069               0.000771506               0.000047093              -0.000030037               0.000267179               0.000237141               0.000000000               0.000000000               0.000000000               0.000000000               0.000217831               0.000849869               0.000046806              -0.000024547               0.000291469               0.000266922               0.000000000               0.000000000               0.000000000               0.000000000               0.000240348               0.000925346               0.000049009              -0.000025538               0.000316958               0.000291421               0.000000000               0.000000000               0.000000000               0.000000000               0.000233417               0.001007313               0.000049651              -0.000038383               0.000348562               0.000310179               0.000000000               0.000000000               0.000000000               0.000000000               0.000208901               0.001082299               0.000049737              -0.000056950               0.000379746               0.000322796               0.000000000               0.000000000               0.000000000               0.000000000               0.000184382               0.001153774               0.000048507              -0.000075078               0.000409614               0.000334535               0.000000000               0.000000000               0.000000000               0.000000000               0.000161124               0.001228450               0.000041177              -0.000093135               0.000440524               0.000347390               0.000000000               0.000000000               0.000000000               0.000000000               0.000138178               0.001303425               0.000031302              -0.000111111               0.000471508               0.000360397               0.000000000               0.000000000               0.000000000               0.000000000               0.000113155               0.001375284               0.000022981              -0.000129477               0.000501583               0.000372105               0.000000000               0.000000000               0.000000000               0.000000000               0.000088262               0.001446194               0.000014161              -0.000147675               0.000531285               0.000383610               0.000000000               0.000000000               0.000000000               0.000000000               0.000065708               0.001516338               0.000005938              -0.000164901               0.000560408               0.000395507               0.000000000               0.000000000               0.000000000               0.000000000               0.000046335               0.001581951               0.000001363              -0.000180368               0.000587434               0.000407066               0.000000000               0.000000000               0.000000000               0.000000000               0.000036214               0.001615888               0.000000433              -0.000188405               0.000601426               0.000413021               0.000000000               0.000000000               0.000000000               0.000000000               0.000194725               0.000331655               0.000176201               0.000031565               0.000100029               0.000131594               0.000000000               0.000000000               0.000000000               0.000000000               0.000148571               0.000413026               0.000142998               0.000004085               0.000136312               0.000140398               0.000000000               0.000000000               0.000000000               0.000000000               0.000132549               0.000568258               0.000105035              -0.000021326               0.000196526               0.000175200               0.000000000               0.000000000               0.000000000               0.000000000               0.000151413               0.000691205               0.000079403              -0.000029621               0.000240273               0.000210652               0.000000000               0.000000000               0.000000000               0.000000000               0.000185208               0.000798026               0.000063478              -0.000030300               0.000276106               0.000245806               0.000000000               0.000000000               0.000000000               0.000000000               0.000220647               0.000881164               0.000053409              -0.000027403               0.000302853               0.000275450               0.000000000               0.000000000               0.000000000               0.000000000               0.000246510               0.000953020               0.000046280              -0.000026686               0.000326566               0.000299879               0.000000000               0.000000000               0.000000000               0.000000000               0.000250347               0.001031158               0.000044070              -0.000035014               0.000355387               0.000320373               0.000000000               0.000000000               0.000000000               0.000000000               0.000234580               0.001109156               0.000046286              -0.000050677               0.000386607               0.000335931               0.000000000               0.000000000               0.000000000               0.000000000               0.000214490               0.001183204               0.000045986              -0.000067466               0.000416886               0.000349420               0.000000000               0.000000000               0.000000000               0.000000000               0.000194850               0.001258192               0.000041279              -0.000084205               0.000447461               0.000363256               0.000000000               0.000000000               0.000000000               0.000000000               0.000176796               0.001335835               0.000035095              -0.000100680               0.000478834               0.000378154               0.000000000               0.000000000               0.000000000               0.000000000               0.000158594               0.001415005               0.000026751              -0.000117403               0.000510798               0.000393395               0.000000000               0.000000000               0.000000000               0.000000000               0.000137883               0.001490674               0.000018164              -0.000134628               0.000541762               0.000407134               0.000000000               0.000000000               0.000000000               0.000000000               0.000118377               0.001567278               0.000010496              -0.000151518               0.000572927               0.000421409               0.000000000               0.000000000               0.000000000               0.000000000               0.000100891               0.001643445               0.000003819              -0.000167596               0.000603675               0.000436079               0.000000000               0.000000000               0.000000000               0.000000000               0.000085162               0.001673733              -0.000001805              -0.000177280               0.000616999               0.000439718               0.000000000               0.000000000               0.000000000               0.000000000               0.000187617               0.000276332               0.000159017               0.000035814               0.000080172               0.000115986               0.000000000               0.000000000               0.000000000               0.000000000               0.000158823               0.000372851               0.000145230               0.000012952               0.000119965               0.000132917               0.000000000               0.000000000               0.000000000               0.000000000               0.000147757               0.000543693               0.000123024              -0.000012553               0.000185414               0.000172861               0.000000000               0.000000000               0.000000000               0.000000000               0.000161995               0.000681701               0.000097006              -0.000024464               0.000235386               0.000210922               0.000000000               0.000000000               0.000000000               0.000000000               0.000186621               0.000796747               0.000076148              -0.000029610               0.000275450               0.000245840               0.000000000               0.000000000               0.000000000               0.000000000               0.000214304               0.000881484               0.000058894              -0.000029821               0.000303766               0.000273944               0.000000000               0.000000000               0.000000000               0.000000000               0.000245010               0.000956578               0.000044872              -0.000027694               0.000328087               0.000300394               0.000000000               0.000000000               0.000000000               0.000000000               0.000265571               0.001036635               0.000038386              -0.000029990               0.000355538               0.000325548               0.000000000               0.000000000               0.000000000               0.000000000               0.000266802               0.001119349               0.000040675              -0.000039868               0.000386402               0.000346534               0.000000000               0.000000000               0.000000000               0.000000000               0.000256006               0.001197514               0.000043128              -0.000053687               0.000417063               0.000363376               0.000000000               0.000000000               0.000000000               0.000000000               0.000243391               0.001271150               0.000043134              -0.000067622               0.000446253               0.000378631               0.000000000               0.000000000               0.000000000               0.000000000               0.000229331               0.001344227               0.000040141              -0.000082029               0.000475414               0.000393385               0.000000000               0.000000000               0.000000000               0.000000000               0.000216022               0.001422028               0.000032840              -0.000096745               0.000506253               0.000409508               0.000000000               0.000000000               0.000000000               0.000000000               0.000201016               0.001498051               0.000023709              -0.000111875               0.000536637               0.000424762               0.000000000               0.000000000               0.000000000               0.000000000               0.000183266               0.001572019               0.000014704              -0.000127777               0.000566593               0.000438816               0.000000000               0.000000000               0.000000000               0.000000000               0.000163455               0.001641958               0.000006078              -0.000143949               0.000595297               0.000451348               0.000000000               0.000000000               0.000000000               0.000000000               0.000144085               0.001667543              -0.000001412              -0.000154410               0.000607312               0.000452902               0.000000000               0.000000000               0.000000000               0.000000000               0.000176117               0.000216277               0.000137669               0.000039009               0.000059089               0.000098097               0.000000000               0.000000000               0.000000000               0.000000000               0.000167382               0.000327457               0.000140275               0.000021836               0.000101873               0.000123709               0.000000000               0.000000000               0.000000000               0.000000000               0.000164723               0.000509565               0.000131138              -0.000001925               0.000170495               0.000168570               0.000000000               0.000000000               0.000000000               0.000000000               0.000177243               0.000656213               0.000108498              -0.000015560               0.000223922               0.000208362               0.000000000               0.000000000               0.000000000               0.000000000               0.000195041               0.000772202               0.000085963              -0.000023385               0.000265193               0.000241808               0.000000000               0.000000000               0.000000000               0.000000000               0.000217383               0.000866356               0.000065726              -0.000026776               0.000297708               0.000270932               0.000000000               0.000000000               0.000000000               0.000000000               0.000248040               0.000954849               0.000048902              -0.000026341               0.000327060               0.000300719               0.000000000               0.000000000               0.000000000               0.000000000               0.000279394               0.001043858               0.000038746              -0.000025710               0.000356519               0.000330809               0.000000000               0.000000000               0.000000000               0.000000000               0.000296289               0.001131769               0.000036453              -0.000030363               0.000387373               0.000357011               0.000000000               0.000000000               0.000000000               0.000000000               0.000297275               0.001213372               0.000038096              -0.000040193               0.000417851               0.000377658               0.000000000               0.000000000               0.000000000               0.000000000               0.000290713               0.001286082               0.000039577              -0.000051743               0.000445937               0.000394195               0.000000000               0.000000000               0.000000000               0.000000000               0.000279783               0.001353329               0.000038865              -0.000064247               0.000472521               0.000408274               0.000000000               0.000000000               0.000000000               0.000000000               0.000269746               0.001425113               0.000034894              -0.000076984               0.000500694               0.000423710               0.000000000               0.000000000               0.000000000               0.000000000               0.000260368               0.001499057               0.000027072              -0.000089744               0.000529595               0.000439851               0.000000000               0.000000000               0.000000000               0.000000000               0.000248601               0.001571929               0.000017851              -0.000103265               0.000558393               0.000455127               0.000000000               0.000000000               0.000000000               0.000000000               0.000233831               0.001643255               0.000009386              -0.000117720               0.000586986               0.000469266               0.000000000               0.000000000               0.000000000               0.000000000               0.000216181               0.001672456               0.000002224              -0.000127989               0.000600143               0.000472154               0.000000000               0.000000000               0.000000000               0.000000000               0.000159187               0.000167853               0.000109695               0.000038713               0.000043046               0.000081759               0.000000000               0.000000000               0.000000000               0.000000000               0.000171355               0.000282815               0.000125609               0.000028906               0.000084635               0.000113541               0.000000000               0.000000000               0.000000000               0.000000000               0.000183363               0.000463147               0.000128279               0.000010868               0.000150758               0.000161626               0.000000000               0.000000000               0.000000000               0.000000000               0.000198090               0.000610689               0.000111042              -0.000002052               0.000204245               0.000202193               0.000000000               0.000000000               0.000000000               0.000000000               0.000212070               0.000733665               0.000090271              -0.000012182               0.000248613               0.000236431               0.000000000               0.000000000               0.000000000               0.000000000               0.000232095               0.000846907               0.000071347              -0.000018828               0.000288576               0.000269748               0.000000000               0.000000000               0.000000000               0.000000000               0.000261530               0.000952331               0.000054658              -0.000020968               0.000324430               0.000303462               0.000000000               0.000000000               0.000000000               0.000000000               0.000293191               0.001048001               0.000041068              -0.000021054               0.000356348               0.000335295               0.000000000               0.000000000               0.000000000               0.000000000               0.000316423               0.001136204               0.000032485              -0.000023367               0.000386520               0.000363153               0.000000000               0.000000000               0.000000000               0.000000000               0.000327564               0.001219485               0.000030431              -0.000029599               0.000416357               0.000386758               0.000000000               0.000000000               0.000000000               0.000000000               0.000330567               0.001295405               0.000030777              -0.000037963               0.000444452               0.000406489               0.000000000               0.000000000               0.000000000               0.000000000               0.000328302               0.001364220               0.000031359              -0.000047414               0.000470540               0.000423126               0.000000000               0.000000000               0.000000000               0.000000000               0.000323360               0.001430301               0.000030967              -0.000057528               0.000495938               0.000438411               0.000000000               0.000000000               0.000000000               0.000000000               0.000319583               0.001499878               0.000026612              -0.000067641               0.000522501               0.000454860               0.000000000               0.000000000               0.000000000               0.000000000               0.000317612               0.001575421               0.000019668              -0.000077823               0.000551076               0.000473253               0.000000000               0.000000000               0.000000000               0.000000000               0.000313277               0.001650957               0.000010904              -0.000088890               0.000579943               0.000491053               0.000000000               0.000000000               0.000000000               0.000000000               0.000302619               0.001683570               0.000003441              -0.000096964               0.000593506               0.000496542               0.000000000               0.000000000               0.000000000               0.000000000               0.000135450               0.000129251               0.000078680               0.000034637               0.000031538               0.000066175               0.000000000               0.000000000               0.000000000               0.000000000               0.000172920               0.000236832               0.000101420               0.000035241               0.000067196               0.000102437               0.000000000               0.000000000               0.000000000               0.000000000               0.000202275               0.000408958               0.000112117               0.000024733               0.000128074               0.000152807               0.000000000               0.000000000               0.000000000               0.000000000               0.000220188               0.000560301               0.000100569               0.000012533               0.000182588               0.000195120               0.000000000               0.000000000               0.000000000               0.000000000               0.000235432               0.000695621               0.000085251               0.000001334               0.000231427               0.000232761               0.000000000               0.000000000               0.000000000               0.000000000               0.000255108               0.000822127               0.000071060              -0.000007100               0.000276406               0.000269306               0.000000000               0.000000000               0.000000000               0.000000000               0.000278616               0.000936355               0.000055681              -0.000012563               0.000316303               0.000303740               0.000000000               0.000000000               0.000000000               0.000000000               0.000304736               0.001037686               0.000039532              -0.000015435               0.000351037               0.000335602               0.000000000               0.000000000               0.000000000               0.000000000               0.000329888               0.001130557               0.000026646              -0.000017612               0.000382719               0.000365107               0.000000000               0.000000000               0.000000000               0.000000000               0.000349537               0.001219180               0.000021697              -0.000021321               0.000413496               0.000392175               0.000000000               0.000000000               0.000000000               0.000000000               0.000363162               0.001302287               0.000021396              -0.000026600               0.000442958               0.000416358               0.000000000               0.000000000               0.000000000               0.000000000               0.000371870               0.001376855               0.000021699              -0.000032656               0.000469832               0.000437177               0.000000000               0.000000000               0.000000000               0.000000000               0.000374529               0.001440144               0.000022187              -0.000039570               0.000493233               0.000453663               0.000000000               0.000000000               0.000000000               0.000000000               0.000377326               0.001505488               0.000021312              -0.000046689               0.000517387               0.000470698               0.000000000               0.000000000               0.000000000               0.000000000               0.000383608               0.001578562               0.000017095              -0.000053467               0.000544004               0.000490537               0.000000000               0.000000000               0.000000000               0.000000000               0.000389145               0.001650115               0.000009101              -0.000060335               0.000570144               0.000509809               0.000000000               0.000000000               0.000000000               0.000000000               0.000387722               0.001682107               0.000002812              -0.000064867               0.000582319               0.000517452               0.000000000               0.000000000               0.000000000               0.000000000               0.000110681               0.000097188               0.000049760               0.000029357               0.000022610               0.000051967               0.000000000               0.000000000               0.000000000               0.000000000               0.000171265               0.000197062               0.000070273               0.000039591               0.000052490               0.000092081               0.000000000               0.000000000               0.000000000               0.000000000               0.000217086               0.000361936               0.000082568               0.000036165               0.000108589               0.000144754               0.000000000               0.000000000               0.000000000               0.000000000               0.000242451               0.000516295               0.000077010               0.000026382               0.000163303               0.000189685               0.000000000               0.000000000               0.000000000               0.000000000               0.000261650               0.000659058               0.000067931               0.000015736               0.000214438               0.000230175               0.000000000               0.000000000               0.000000000               0.000000000               0.000278213               0.000791978               0.000057464               0.000005333               0.000262212               0.000267545               0.000000000               0.000000000               0.000000000               0.000000000               0.000295135               0.000912216               0.000044932              -0.000003352               0.000305186               0.000301835               0.000000000               0.000000000               0.000000000               0.000000000               0.000315952               0.001021202               0.000031787              -0.000009168               0.000343453               0.000334285               0.000000000               0.000000000               0.000000000               0.000000000               0.000341321               0.001122526               0.000020618              -0.000012320               0.000378278               0.000365958               0.000000000               0.000000000               0.000000000               0.000000000               0.000366745               0.001217603               0.000014608              -0.000014671               0.000410754               0.000396083               0.000000000               0.000000000               0.000000000               0.000000000               0.000387718               0.001305330               0.000012849              -0.000017772               0.000441030               0.000423258               0.000000000               0.000000000               0.000000000               0.000000000               0.000403955               0.001381957               0.000011861              -0.000021261               0.000467735               0.000446473               0.000000000               0.000000000               0.000000000               0.000000000               0.000415622               0.001447392               0.000011429              -0.000025066               0.000490814               0.000465749               0.000000000               0.000000000               0.000000000               0.000000000               0.000426446               0.001512274               0.000012042              -0.000029117               0.000513792               0.000484675               0.000000000               0.000000000               0.000000000               0.000000000               0.000438133               0.001578551               0.000010110              -0.000033019               0.000537185               0.000504166               0.000000000               0.000000000               0.000000000               0.000000000               0.000451243               0.001644494               0.000005371              -0.000036346               0.000560275               0.000523929               0.000000000               0.000000000               0.000000000               0.000000000               0.000457242               0.001676392               0.000002139              -0.000038083               0.000571486               0.000533403               0.000000000               0.000000000               0.000000000               0.000000000               0.000090657               0.000077381               0.000024623               0.000024324               0.000017686               0.000042009               0.000000000               0.000000000               0.000000000               0.000000000               0.000166475               0.000171176               0.000036277               0.000041031               0.000043381               0.000084412               0.000000000               0.000000000               0.000000000               0.000000000               0.000227980               0.000329853               0.000043836               0.000044261               0.000095196               0.000139457               0.000000000               0.000000000               0.000000000               0.000000000               0.000259779               0.000484959               0.000042041               0.000036797               0.000149386               0.000186183               0.000000000               0.000000000               0.000000000               0.000000000               0.000279655               0.000630997               0.000037506               0.000025996               0.000201665               0.000227661               0.000000000               0.000000000               0.000000000               0.000000000               0.000293720               0.000766862               0.000031704               0.000014287               0.000250856               0.000265143               0.000000000               0.000000000               0.000000000               0.000000000               0.000308316               0.000892255               0.000025294               0.000004086               0.000296053               0.000300140               0.000000000               0.000000000               0.000000000               0.000000000               0.000327368               0.001009665               0.000018176              -0.000003445               0.000337700               0.000334255               0.000000000               0.000000000               0.000000000               0.000000000               0.000350934               0.001116325               0.000011532              -0.000007940               0.000374751               0.000366811               0.000000000               0.000000000               0.000000000               0.000000000               0.000376898               0.001212592               0.000007015              -0.000010237               0.000407606               0.000397368               0.000000000               0.000000000               0.000000000               0.000000000               0.000402385               0.001302861               0.000005249              -0.000011963               0.000438270               0.000426307               0.000000000               0.000000000               0.000000000               0.000000000               0.000423800               0.001381135               0.000004388              -0.000013717               0.000464946               0.000451229               0.000000000               0.000000000               0.000000000               0.000000000               0.000442281               0.001450590               0.000003833              -0.000015468               0.000488681               0.000473213               0.000000000               0.000000000               0.000000000               0.000000000               0.000458789               0.001516201               0.000004132              -0.000017479               0.000511222               0.000493743               0.000000000               0.000000000               0.000000000               0.000000000               0.000472979               0.001576438               0.000003286              -0.000019688               0.000532037               0.000512349               0.000000000               0.000000000               0.000000000               0.000000000               0.000489405               0.001640809               0.000001656              -0.000021574               0.000554122               0.000532548               0.000000000               0.000000000               0.000000000               0.000000000               0.000497889               0.001674469               0.000000829              -0.000022600               0.000565684               0.000543084               0.000000000               0.000000000               0.000000000               0.000000000               0.000000000               0.000000000               0.000000000               0.000000000               0.000000000               0.000000000               0.000000000               0.000000000               0.000000000               0.000000000               0.000000000               0.000000000               0.000000000               0.000000000               0.000000000               0.000000000               0.000000000               0.000000000               0.000000000               0.000000000               0.000000000               0.000000000               0.000000000               0.000000000               0.000000000               0.000000000               0.000000000               0.000000000               0.000000000               0.000000000               0.000000000               0.000000000               0.000000000               0.000000000               0.000000000               0.000000000               0.000000000               0.000000000               0.000000000               0.000000000               0.000000000               0.000000000               0.000000000               0.000000000               0.000000000               0.000000000               0.000000000               0.000000000               0.000000000               0.000000000               0.000000000               0.000000000               0.000000000               0.000000000               0.000000000               0.000000000               0.000000000               0.000000000               0.000000000               0.000000000               0.000000000               0.000000000               0.000000000               0.000000000               0.000000000               0.000000000               0.000000000               0.000000000               0.000000000               0.000000000               0.000000000               0.000000000               0.000000000               0.000000000               0.000000000               0.000000000               0.000000000               0.000000000               0.000000000               0.000000000               0.000000000               0.000000000               0.000000000               0.000000000               0.000000000               0.000000000               0.000000000               0.000000000               0.000000000               0.000000000               0.000000000               0.000000000               0.000000000               0.000000000               0.000000000               0.000000000               0.000000000               0.000000000               0.000000000               0.000000000               0.000000000               0.000000000               0.000000000               0.000000000               0.000000000               0.000000000               0.000000000               0.000000000               0.000000000               0.000000000               0.000000000               0.000000000               0.000000000               0.000000000               0.000000000               0.000000000               0.000000000               0.000000000               0.000000000               0.000000000               0.000000000               0.000000000               0.000000000               0.000000000               0.000000000               0.000000000               0.000000000               0.000000000               0.000000000               0.000000000               0.000000000               0.000000000               0.000000000               0.000000000               0.000000000               0.000000000               0.000000000               0.000000000               0.000000000               0.000000000               0.000000000               0.000000000               0.000000000               0.000000000               0.000000000               0.000000000               0.000000000               0.000000000               0.000000000               0.000000000               0.000000000               0.000000000               0.000000000               0.000000000               0.000000000               0.000000000               0.000000000               0.000000000               0.000000000               0.000000000               0.000000000               0.000000000               0.000000000               0.000000000               0.000000000               0.000000000               0.000000000               0.000000000               0.000000000               0.000000000 </DataArray>
</PointData>
</Piece>
</UnstructuredGrid> </VTKFile>
