<?xml version="1.0"?>
<VTKFile type="UnstructuredGrid" version="0.1">
<UnstructuredGrid>
<Piece NumberOfPoints="      1156" NumberOfCells="      1024">
<Points>
<DataArray type="Float64"                                    Name="coordinates"                                                      NumberOfComponents=" 3" format="ascii">
              0.133000000               0.000000000               0.000000000               0.155937500               0.000000000               0.000000000               0.178875000               0.000000000               0.000000000               0.201812500               0.000000000               0.000000000               0.224750000               0.000000000               0.000000000               0.247687500               0.000000000               0.000000000               0.270625000               0.000000000               0.000000000               0.293562500               0.000000000               0.000000000               0.316500000               0.000000000               0.000000000               0.339437500               0.000000000               0.000000000               0.362375000               0.000000000               0.000000000               0.385312500               0.000000000               0.000000000               0.408250000               0.000000000               0.000000000               0.431187500               0.000000000               0.000000000               0.454125000               0.000000000               0.000000000               0.477062500               0.000000000               0.000000000               0.500000000               0.000000000               0.000000000               0.132359569               0.013036280               0.000000000               0.155337096               0.016127762               0.000000000               0.178314623               0.019219245               0.000000000               0.201292150               0.022310727               0.000000000               0.224269676               0.025402210               0.000000000               0.247247203               0.028493692               0.000000000               0.270224730               0.031585175               0.000000000               0.293202257               0.034676657               0.000000000               0.316179784               0.037768140               0.000000000               0.339157311               0.040859622               0.000000000               0.362134838               0.043951105               0.000000000               0.385112365               0.047042587               0.000000000               0.408089892               0.050134070               0.000000000               0.431067419               0.053225552               0.000000000               0.454044946               0.056317035               0.000000000               0.477022473               0.059408517               0.000000000               0.500000000               0.062500000               0.000000000               0.130444442               0.025947013               0.000000000               0.153541665               0.032137825               0.000000000               0.176638887               0.038328636               0.000000000               0.199736109               0.044519448               0.000000000               0.222833332               0.050710260               0.000000000               0.245930554               0.056901071               0.000000000               0.269027776               0.063091883               0.000000000               0.292124999               0.069282695               0.000000000               0.315222221               0.075473506               0.000000000               0.338319444               0.081664318               0.000000000               0.361416666               0.087855130               0.000000000               0.384513888               0.094045942               0.000000000               0.407611111               0.100236753               0.000000000               0.430708333               0.106427565               0.000000000               0.453805555               0.112618377               0.000000000               0.476902778               0.118809188               0.000000000               0.500000000               0.125000000               0.000000000               0.127273065               0.038607862               0.000000000               0.150568498               0.047913621               0.000000000               0.173863932               0.057219379               0.000000000               0.197159365               0.066525138               0.000000000               0.220454798               0.075830897               0.000000000               0.243750232               0.085136655               0.000000000               0.267045665               0.094442414               0.000000000               0.290341099               0.103748172               0.000000000               0.313636532               0.113053931               0.000000000               0.336931966               0.122359690               0.000000000               0.360227399               0.131665448               0.000000000               0.383522833               0.140971207               0.000000000               0.406818266               0.150276966               0.000000000               0.430113700               0.159582724               0.000000000               0.453409133               0.168888483               0.000000000               0.476704567               0.178194241               0.000000000               0.500000000               0.187500000               0.000000000               0.122875978               0.050896897               0.000000000               0.146446229               0.063340840               0.000000000               0.170016481               0.075784784               0.000000000               0.193586732               0.088228728               0.000000000               0.217156983               0.100672672               0.000000000               0.240727235               0.113116616               0.000000000               0.264297486               0.125560560               0.000000000               0.287867738               0.138004504               0.000000000               0.311437989               0.150448448               0.000000000               0.335008240               0.162892392               0.000000000               0.358578492               0.175336336               0.000000000               0.382148743               0.187780280               0.000000000               0.405718994               0.200224224               0.000000000               0.429289246               0.212668168               0.000000000               0.452859497               0.225112112               0.000000000               0.476429749               0.237556056               0.000000000               0.500000000               0.250000000               0.000000000               0.117295528               0.062695766               0.000000000               0.141214558               0.078308531               0.000000000               0.165133587               0.093921295               0.000000000               0.189052617               0.109534060               0.000000000               0.212971646               0.125146824               0.000000000               0.236890676               0.140759589               0.000000000               0.260809705               0.156372354               0.000000000               0.284728735               0.171985118               0.000000000               0.308647764               0.187597883               0.000000000               0.332566794               0.203210648               0.000000000               0.356485823               0.218823412               0.000000000               0.380404853               0.234436177               0.000000000               0.404323882               0.250048941               0.000000000               0.428242912               0.265661706               0.000000000               0.452161941               0.281274471               0.000000000               0.476080971               0.296887235               0.000000000               0.500000000               0.312500000               0.000000000               0.110585458               0.073890841               0.000000000               0.134923867               0.092710163               0.000000000               0.159262276               0.111529486               0.000000000               0.183600685               0.130348808               0.000000000               0.207939094               0.149168131               0.000000000               0.232277503               0.167987453               0.000000000               0.256615912               0.186806776               0.000000000               0.280954320               0.205626098               0.000000000               0.305292729               0.224445420               0.000000000               0.329631138               0.243264743               0.000000000               0.353969547               0.262084065               0.000000000               0.378307956               0.280903388               0.000000000               0.402646365               0.299722710               0.000000000               0.426984773               0.318542033               0.000000000               0.451323182               0.337361355               0.000000000               0.475661591               0.356180678               0.000000000               0.500000000               0.375000000               0.000000000               0.102810390               0.084374307               0.000000000               0.127634741               0.106444663               0.000000000               0.152459092               0.128515018               0.000000000               0.177283442               0.150585374               0.000000000               0.202107793               0.172655730               0.000000000               0.226932143               0.194726086               0.000000000               0.251756494               0.216796442               0.000000000               0.276580845               0.238866798               0.000000000               0.301405195               0.260937153               0.000000000               0.326229546               0.283007509               0.000000000               0.351053896               0.305077865               0.000000000               0.375878247               0.327148221               0.000000000               0.400702598               0.349218577               0.000000000               0.425526948               0.371288933               0.000000000               0.450351299               0.393359288               0.000000000               0.475175649               0.415429644               0.000000000               0.500000000               0.437500000               0.000000000               0.094045202               0.094045202               0.000000000               0.119417377               0.119417377               0.000000000               0.144789552               0.144789552               0.000000000               0.170161727               0.170161727               0.000000000               0.195533901               0.195533901               0.000000000               0.220906076               0.220906076               0.000000000               0.246278251               0.246278251               0.000000000               0.271650426               0.271650426               0.000000000               0.297022601               0.297022601               0.000000000               0.322394776               0.322394776               0.000000000               0.347766951               0.347766951               0.000000000               0.373139126               0.373139126               0.000000000               0.398511300               0.398511300               0.000000000               0.423883475               0.423883475               0.000000000               0.449255650               0.449255650               0.000000000               0.474627825               0.474627825               0.000000000               0.500000000               0.500000000               0.000000000               0.084374307               0.102810390               0.000000000               0.106444663               0.127634741               0.000000000               0.128515018               0.152459092               0.000000000               0.150585374               0.177283442               0.000000000               0.172655730               0.202107793               0.000000000               0.194726086               0.226932143               0.000000000               0.216796442               0.251756494               0.000000000               0.238866798               0.276580845               0.000000000               0.260937153               0.301405195               0.000000000               0.283007509               0.326229546               0.000000000               0.305077865               0.351053896               0.000000000               0.327148221               0.375878247               0.000000000               0.349218577               0.400702598               0.000000000               0.371288933               0.425526948               0.000000000               0.393359288               0.450351299               0.000000000               0.415429644               0.475175649               0.000000000               0.437500000               0.500000000               0.000000000               0.073890841               0.110585458               0.000000000               0.092710163               0.134923867               0.000000000               0.111529486               0.159262276               0.000000000               0.130348808               0.183600685               0.000000000               0.149168131               0.207939094               0.000000000               0.167987453               0.232277503               0.000000000               0.186806776               0.256615912               0.000000000               0.205626098               0.280954320               0.000000000               0.224445420               0.305292729               0.000000000               0.243264743               0.329631138               0.000000000               0.262084065               0.353969547               0.000000000               0.280903388               0.378307956               0.000000000               0.299722710               0.402646365               0.000000000               0.318542033               0.426984773               0.000000000               0.337361355               0.451323182               0.000000000               0.356180678               0.475661591               0.000000000               0.375000000               0.500000000               0.000000000               0.062695766               0.117295528               0.000000000               0.078308531               0.141214558               0.000000000               0.093921295               0.165133587               0.000000000               0.109534060               0.189052617               0.000000000               0.125146824               0.212971646               0.000000000               0.140759589               0.236890676               0.000000000               0.156372354               0.260809705               0.000000000               0.171985118               0.284728735               0.000000000               0.187597883               0.308647764               0.000000000               0.203210648               0.332566794               0.000000000               0.218823412               0.356485823               0.000000000               0.234436177               0.380404853               0.000000000               0.250048941               0.404323882               0.000000000               0.265661706               0.428242912               0.000000000               0.281274471               0.452161941               0.000000000               0.296887235               0.476080971               0.000000000               0.312500000               0.500000000               0.000000000               0.050896897               0.122875978               0.000000000               0.063340840               0.146446229               0.000000000               0.075784784               0.170016481               0.000000000               0.088228728               0.193586732               0.000000000               0.100672672               0.217156983               0.000000000               0.113116616               0.240727235               0.000000000               0.125560560               0.264297486               0.000000000               0.138004504               0.287867738               0.000000000               0.150448448               0.311437989               0.000000000               0.162892392               0.335008240               0.000000000               0.175336336               0.358578492               0.000000000               0.187780280               0.382148743               0.000000000               0.200224224               0.405718994               0.000000000               0.212668168               0.429289246               0.000000000               0.225112112               0.452859497               0.000000000               0.237556056               0.476429749               0.000000000               0.250000000               0.500000000               0.000000000               0.038607862               0.127273065               0.000000000               0.047913621               0.150568498               0.000000000               0.057219379               0.173863932               0.000000000               0.066525138               0.197159365               0.000000000               0.075830897               0.220454798               0.000000000               0.085136655               0.243750232               0.000000000               0.094442414               0.267045665               0.000000000               0.103748172               0.290341099               0.000000000               0.113053931               0.313636532               0.000000000               0.122359690               0.336931966               0.000000000               0.131665448               0.360227399               0.000000000               0.140971207               0.383522833               0.000000000               0.150276966               0.406818266               0.000000000               0.159582724               0.430113700               0.000000000               0.168888483               0.453409133               0.000000000               0.178194241               0.476704567               0.000000000               0.187500000               0.500000000               0.000000000               0.025947013               0.130444442               0.000000000               0.032137825               0.153541665               0.000000000               0.038328636               0.176638887               0.000000000               0.044519448               0.199736109               0.000000000               0.050710260               0.222833332               0.000000000               0.056901071               0.245930554               0.000000000               0.063091883               0.269027776               0.000000000               0.069282695               0.292124999               0.000000000               0.075473506               0.315222221               0.000000000               0.081664318               0.338319444               0.000000000               0.087855130               0.361416666               0.000000000               0.094045942               0.384513888               0.000000000               0.100236753               0.407611111               0.000000000               0.106427565               0.430708333               0.000000000               0.112618377               0.453805555               0.000000000               0.118809188               0.476902778               0.000000000               0.125000000               0.500000000               0.000000000               0.013036280               0.132359569               0.000000000               0.016127762               0.155337096               0.000000000               0.019219245               0.178314623               0.000000000               0.022310727               0.201292150               0.000000000               0.025402210               0.224269676               0.000000000               0.028493692               0.247247203               0.000000000               0.031585175               0.270224730               0.000000000               0.034676657               0.293202257               0.000000000               0.037768140               0.316179784               0.000000000               0.040859622               0.339157311               0.000000000               0.043951105               0.362134838               0.000000000               0.047042587               0.385112365               0.000000000               0.050134070               0.408089892               0.000000000               0.053225552               0.431067419               0.000000000               0.056317035               0.454044946               0.000000000               0.059408517               0.477022473               0.000000000               0.062500000               0.500000000               0.000000000               0.000000000               0.133000000               0.000000000               0.000000000               0.155937500               0.000000000               0.000000000               0.178875000               0.000000000               0.000000000               0.201812500               0.000000000               0.000000000               0.224750000               0.000000000               0.000000000               0.247687500               0.000000000               0.000000000               0.270625000               0.000000000               0.000000000               0.293562500               0.000000000               0.000000000               0.316500000               0.000000000               0.000000000               0.339437500               0.000000000               0.000000000               0.362375000               0.000000000               0.000000000               0.385312500               0.000000000               0.000000000               0.408250000               0.000000000               0.000000000               0.431187500               0.000000000               0.000000000               0.454125000               0.000000000               0.000000000               0.477062500               0.000000000               0.000000000               0.500000000               0.000000000               0.133000000               0.000000000               0.000000000               0.155937500               0.000000000               0.000000000               0.178875000               0.000000000               0.000000000               0.201812500               0.000000000               0.000000000               0.224750000               0.000000000               0.000000000               0.247687500               0.000000000               0.000000000               0.270625000               0.000000000               0.000000000               0.293562500               0.000000000               0.000000000               0.316500000               0.000000000               0.000000000               0.339437500               0.000000000               0.000000000               0.362375000               0.000000000               0.000000000               0.385312500               0.000000000               0.000000000               0.408250000               0.000000000               0.000000000               0.431187500               0.000000000               0.000000000               0.454125000               0.000000000               0.000000000               0.477062500               0.000000000               0.000000000               0.500000000               0.000000000               0.000000000               0.132359569              -0.013036280               0.000000000               0.155337096              -0.016127762               0.000000000               0.178314623              -0.019219245               0.000000000               0.201292150              -0.022310727               0.000000000               0.224269676              -0.025402210               0.000000000               0.247247203              -0.028493692               0.000000000               0.270224730              -0.031585175               0.000000000               0.293202257              -0.034676657               0.000000000               0.316179784              -0.037768140               0.000000000               0.339157311              -0.040859622               0.000000000               0.362134838              -0.043951105               0.000000000               0.385112365              -0.047042587               0.000000000               0.408089892              -0.050134070               0.000000000               0.431067419              -0.053225552               0.000000000               0.454044946              -0.056317035               0.000000000               0.477022473              -0.059408517               0.000000000               0.500000000              -0.062500000               0.000000000               0.130444442              -0.025947013               0.000000000               0.153541665              -0.032137825               0.000000000               0.176638887              -0.038328636               0.000000000               0.199736109              -0.044519448               0.000000000               0.222833332              -0.050710260               0.000000000               0.245930554              -0.056901071               0.000000000               0.269027776              -0.063091883               0.000000000               0.292124999              -0.069282695               0.000000000               0.315222221              -0.075473506               0.000000000               0.338319444              -0.081664318               0.000000000               0.361416666              -0.087855130               0.000000000               0.384513888              -0.094045942               0.000000000               0.407611111              -0.100236753               0.000000000               0.430708333              -0.106427565               0.000000000               0.453805555              -0.112618377               0.000000000               0.476902778              -0.118809188               0.000000000               0.500000000              -0.125000000               0.000000000               0.127273065              -0.038607862               0.000000000               0.150568498              -0.047913621               0.000000000               0.173863932              -0.057219379               0.000000000               0.197159365              -0.066525138               0.000000000               0.220454798              -0.075830897               0.000000000               0.243750232              -0.085136655               0.000000000               0.267045665              -0.094442414               0.000000000               0.290341099              -0.103748172               0.000000000               0.313636532              -0.113053931               0.000000000               0.336931966              -0.122359690               0.000000000               0.360227399              -0.131665448               0.000000000               0.383522833              -0.140971207               0.000000000               0.406818266              -0.150276966               0.000000000               0.430113700              -0.159582724               0.000000000               0.453409133              -0.168888483               0.000000000               0.476704567              -0.178194241               0.000000000               0.500000000              -0.187500000               0.000000000               0.122875978              -0.050896897               0.000000000               0.146446229              -0.063340840               0.000000000               0.170016481              -0.075784784               0.000000000               0.193586732              -0.088228728               0.000000000               0.217156983              -0.100672672               0.000000000               0.240727235              -0.113116616               0.000000000               0.264297486              -0.125560560               0.000000000               0.287867738              -0.138004504               0.000000000               0.311437989              -0.150448448               0.000000000               0.335008240              -0.162892392               0.000000000               0.358578492              -0.175336336               0.000000000               0.382148743              -0.187780280               0.000000000               0.405718994              -0.200224224               0.000000000               0.429289246              -0.212668168               0.000000000               0.452859497              -0.225112112               0.000000000               0.476429749              -0.237556056               0.000000000               0.500000000              -0.250000000               0.000000000               0.117295528              -0.062695766               0.000000000               0.141214558              -0.078308531               0.000000000               0.165133587              -0.093921295               0.000000000               0.189052617              -0.109534060               0.000000000               0.212971646              -0.125146824               0.000000000               0.236890676              -0.140759589               0.000000000               0.260809705              -0.156372354               0.000000000               0.284728735              -0.171985118               0.000000000               0.308647764              -0.187597883               0.000000000               0.332566794              -0.203210648               0.000000000               0.356485823              -0.218823412               0.000000000               0.380404853              -0.234436177               0.000000000               0.404323882              -0.250048941               0.000000000               0.428242912              -0.265661706               0.000000000               0.452161941              -0.281274471               0.000000000               0.476080971              -0.296887235               0.000000000               0.500000000              -0.312500000               0.000000000               0.110585458              -0.073890841               0.000000000               0.134923867              -0.092710163               0.000000000               0.159262276              -0.111529486               0.000000000               0.183600685              -0.130348808               0.000000000               0.207939094              -0.149168131               0.000000000               0.232277503              -0.167987453               0.000000000               0.256615912              -0.186806776               0.000000000               0.280954320              -0.205626098               0.000000000               0.305292729              -0.224445420               0.000000000               0.329631138              -0.243264743               0.000000000               0.353969547              -0.262084065               0.000000000               0.378307956              -0.280903388               0.000000000               0.402646365              -0.299722710               0.000000000               0.426984773              -0.318542033               0.000000000               0.451323182              -0.337361355               0.000000000               0.475661591              -0.356180678               0.000000000               0.500000000              -0.375000000               0.000000000               0.102810390              -0.084374307               0.000000000               0.127634741              -0.106444663               0.000000000               0.152459092              -0.128515018               0.000000000               0.177283442              -0.150585374               0.000000000               0.202107793              -0.172655730               0.000000000               0.226932143              -0.194726086               0.000000000               0.251756494              -0.216796442               0.000000000               0.276580845              -0.238866798               0.000000000               0.301405195              -0.260937153               0.000000000               0.326229546              -0.283007509               0.000000000               0.351053896              -0.305077865               0.000000000               0.375878247              -0.327148221               0.000000000               0.400702598              -0.349218577               0.000000000               0.425526948              -0.371288933               0.000000000               0.450351299              -0.393359288               0.000000000               0.475175649              -0.415429644               0.000000000               0.500000000              -0.437500000               0.000000000               0.094045202              -0.094045202               0.000000000               0.119417377              -0.119417377               0.000000000               0.144789552              -0.144789552               0.000000000               0.170161727              -0.170161727               0.000000000               0.195533901              -0.195533901               0.000000000               0.220906076              -0.220906076               0.000000000               0.246278251              -0.246278251               0.000000000               0.271650426              -0.271650426               0.000000000               0.297022601              -0.297022601               0.000000000               0.322394776              -0.322394776               0.000000000               0.347766951              -0.347766951               0.000000000               0.373139126              -0.373139126               0.000000000               0.398511300              -0.398511300               0.000000000               0.423883475              -0.423883475               0.000000000               0.449255650              -0.449255650               0.000000000               0.474627825              -0.474627825               0.000000000               0.500000000              -0.500000000               0.000000000               0.084374307              -0.102810390               0.000000000               0.106444663              -0.127634741               0.000000000               0.128515018              -0.152459092               0.000000000               0.150585374              -0.177283442               0.000000000               0.172655730              -0.202107793               0.000000000               0.194726086              -0.226932143               0.000000000               0.216796442              -0.251756494               0.000000000               0.238866798              -0.276580845               0.000000000               0.260937153              -0.301405195               0.000000000               0.283007509              -0.326229546               0.000000000               0.305077865              -0.351053896               0.000000000               0.327148221              -0.375878247               0.000000000               0.349218577              -0.400702598               0.000000000               0.371288933              -0.425526948               0.000000000               0.393359288              -0.450351299               0.000000000               0.415429644              -0.475175649               0.000000000               0.437500000              -0.500000000               0.000000000               0.073890841              -0.110585458               0.000000000               0.092710163              -0.134923867               0.000000000               0.111529486              -0.159262276               0.000000000               0.130348808              -0.183600685               0.000000000               0.149168131              -0.207939094               0.000000000               0.167987453              -0.232277503               0.000000000               0.186806776              -0.256615912               0.000000000               0.205626098              -0.280954320               0.000000000               0.224445420              -0.305292729               0.000000000               0.243264743              -0.329631138               0.000000000               0.262084065              -0.353969547               0.000000000               0.280903388              -0.378307956               0.000000000               0.299722710              -0.402646365               0.000000000               0.318542033              -0.426984773               0.000000000               0.337361355              -0.451323182               0.000000000               0.356180678              -0.475661591               0.000000000               0.375000000              -0.500000000               0.000000000               0.062695766              -0.117295528               0.000000000               0.078308531              -0.141214558               0.000000000               0.093921295              -0.165133587               0.000000000               0.109534060              -0.189052617               0.000000000               0.125146824              -0.212971646               0.000000000               0.140759589              -0.236890676               0.000000000               0.156372354              -0.260809705               0.000000000               0.171985118              -0.284728735               0.000000000               0.187597883              -0.308647764               0.000000000               0.203210648              -0.332566794               0.000000000               0.218823412              -0.356485823               0.000000000               0.234436177              -0.380404853               0.000000000               0.250048941              -0.404323882               0.000000000               0.265661706              -0.428242912               0.000000000               0.281274471              -0.452161941               0.000000000               0.296887235              -0.476080971               0.000000000               0.312500000              -0.500000000               0.000000000               0.050896897              -0.122875978               0.000000000               0.063340840              -0.146446229               0.000000000               0.075784784              -0.170016481               0.000000000               0.088228728              -0.193586732               0.000000000               0.100672672              -0.217156983               0.000000000               0.113116616              -0.240727235               0.000000000               0.125560560              -0.264297486               0.000000000               0.138004504              -0.287867738               0.000000000               0.150448448              -0.311437989               0.000000000               0.162892392              -0.335008240               0.000000000               0.175336336              -0.358578492               0.000000000               0.187780280              -0.382148743               0.000000000               0.200224224              -0.405718994               0.000000000               0.212668168              -0.429289246               0.000000000               0.225112112              -0.452859497               0.000000000               0.237556056              -0.476429749               0.000000000               0.250000000              -0.500000000               0.000000000               0.038607862              -0.127273065               0.000000000               0.047913621              -0.150568498               0.000000000               0.057219379              -0.173863932               0.000000000               0.066525138              -0.197159365               0.000000000               0.075830897              -0.220454798               0.000000000               0.085136655              -0.243750232               0.000000000               0.094442414              -0.267045665               0.000000000               0.103748172              -0.290341099               0.000000000               0.113053931              -0.313636532               0.000000000               0.122359690              -0.336931966               0.000000000               0.131665448              -0.360227399               0.000000000               0.140971207              -0.383522833               0.000000000               0.150276966              -0.406818266               0.000000000               0.159582724              -0.430113700               0.000000000               0.168888483              -0.453409133               0.000000000               0.178194241              -0.476704567               0.000000000               0.187500000              -0.500000000               0.000000000               0.025947013              -0.130444442               0.000000000               0.032137825              -0.153541665               0.000000000               0.038328636              -0.176638887               0.000000000               0.044519448              -0.199736109               0.000000000               0.050710260              -0.222833332               0.000000000               0.056901071              -0.245930554               0.000000000               0.063091883              -0.269027776               0.000000000               0.069282695              -0.292124999               0.000000000               0.075473506              -0.315222221               0.000000000               0.081664318              -0.338319444               0.000000000               0.087855130              -0.361416666               0.000000000               0.094045942              -0.384513888               0.000000000               0.100236753              -0.407611111               0.000000000               0.106427565              -0.430708333               0.000000000               0.112618377              -0.453805555               0.000000000               0.118809188              -0.476902778               0.000000000               0.125000000              -0.500000000               0.000000000               0.013036280              -0.132359569               0.000000000               0.016127762              -0.155337096               0.000000000               0.019219245              -0.178314623               0.000000000               0.022310727              -0.201292150               0.000000000               0.025402210              -0.224269676               0.000000000               0.028493692              -0.247247203               0.000000000               0.031585175              -0.270224730               0.000000000               0.034676657              -0.293202257               0.000000000               0.037768140              -0.316179784               0.000000000               0.040859622              -0.339157311               0.000000000               0.043951105              -0.362134838               0.000000000               0.047042587              -0.385112365               0.000000000               0.050134070              -0.408089892               0.000000000               0.053225552              -0.431067419               0.000000000               0.056317035              -0.454044946               0.000000000               0.059408517              -0.477022473               0.000000000               0.062500000              -0.500000000               0.000000000               0.000000000              -0.133000000               0.000000000               0.000000000              -0.155937500               0.000000000               0.000000000              -0.178875000               0.000000000               0.000000000              -0.201812500               0.000000000               0.000000000              -0.224750000               0.000000000               0.000000000              -0.247687500               0.000000000               0.000000000              -0.270625000               0.000000000               0.000000000              -0.293562500               0.000000000               0.000000000              -0.316500000               0.000000000               0.000000000              -0.339437500               0.000000000               0.000000000              -0.362375000               0.000000000               0.000000000              -0.385312500               0.000000000               0.000000000              -0.408250000               0.000000000               0.000000000              -0.431187500               0.000000000               0.000000000              -0.454125000               0.000000000               0.000000000              -0.477062500               0.000000000               0.000000000              -0.500000000               0.000000000              -0.133000000               0.000000000               0.000000000              -0.155937500               0.000000000               0.000000000              -0.178875000               0.000000000               0.000000000              -0.201812500               0.000000000               0.000000000              -0.224750000               0.000000000               0.000000000              -0.247687500               0.000000000               0.000000000              -0.270625000               0.000000000               0.000000000              -0.293562500               0.000000000               0.000000000              -0.316500000               0.000000000               0.000000000              -0.339437500               0.000000000               0.000000000              -0.362375000               0.000000000               0.000000000              -0.385312500               0.000000000               0.000000000              -0.408250000               0.000000000               0.000000000              -0.431187500               0.000000000               0.000000000              -0.454125000               0.000000000               0.000000000              -0.477062500               0.000000000               0.000000000              -0.500000000               0.000000000               0.000000000              -0.132359569              -0.013036280               0.000000000              -0.155337096              -0.016127762               0.000000000              -0.178314623              -0.019219245               0.000000000              -0.201292150              -0.022310727               0.000000000              -0.224269676              -0.025402210               0.000000000              -0.247247203              -0.028493692               0.000000000              -0.270224730              -0.031585175               0.000000000              -0.293202257              -0.034676657               0.000000000              -0.316179784              -0.037768140               0.000000000              -0.339157311              -0.040859622               0.000000000              -0.362134838              -0.043951105               0.000000000              -0.385112365              -0.047042587               0.000000000              -0.408089892              -0.050134070               0.000000000              -0.431067419              -0.053225552               0.000000000              -0.454044946              -0.056317035               0.000000000              -0.477022473              -0.059408517               0.000000000              -0.500000000              -0.062500000               0.000000000              -0.130444442              -0.025947013               0.000000000              -0.153541665              -0.032137825               0.000000000              -0.176638887              -0.038328636               0.000000000              -0.199736109              -0.044519448               0.000000000              -0.222833332              -0.050710260               0.000000000              -0.245930554              -0.056901071               0.000000000              -0.269027776              -0.063091883               0.000000000              -0.292124999              -0.069282695               0.000000000              -0.315222221              -0.075473506               0.000000000              -0.338319444              -0.081664318               0.000000000              -0.361416666              -0.087855130               0.000000000              -0.384513888              -0.094045942               0.000000000              -0.407611111              -0.100236753               0.000000000              -0.430708333              -0.106427565               0.000000000              -0.453805555              -0.112618377               0.000000000              -0.476902778              -0.118809188               0.000000000              -0.500000000              -0.125000000               0.000000000              -0.127273065              -0.038607862               0.000000000              -0.150568498              -0.047913621               0.000000000              -0.173863932              -0.057219379               0.000000000              -0.197159365              -0.066525138               0.000000000              -0.220454798              -0.075830897               0.000000000              -0.243750232              -0.085136655               0.000000000              -0.267045665              -0.094442414               0.000000000              -0.290341099              -0.103748172               0.000000000              -0.313636532              -0.113053931               0.000000000              -0.336931966              -0.122359690               0.000000000              -0.360227399              -0.131665448               0.000000000              -0.383522833              -0.140971207               0.000000000              -0.406818266              -0.150276966               0.000000000              -0.430113700              -0.159582724               0.000000000              -0.453409133              -0.168888483               0.000000000              -0.476704567              -0.178194241               0.000000000              -0.500000000              -0.187500000               0.000000000              -0.122875978              -0.050896897               0.000000000              -0.146446229              -0.063340840               0.000000000              -0.170016481              -0.075784784               0.000000000              -0.193586732              -0.088228728               0.000000000              -0.217156983              -0.100672672               0.000000000              -0.240727235              -0.113116616               0.000000000              -0.264297486              -0.125560560               0.000000000              -0.287867738              -0.138004504               0.000000000              -0.311437989              -0.150448448               0.000000000              -0.335008240              -0.162892392               0.000000000              -0.358578492              -0.175336336               0.000000000              -0.382148743              -0.187780280               0.000000000              -0.405718994              -0.200224224               0.000000000              -0.429289246              -0.212668168               0.000000000              -0.452859497              -0.225112112               0.000000000              -0.476429749              -0.237556056               0.000000000              -0.500000000              -0.250000000               0.000000000              -0.117295528              -0.062695766               0.000000000              -0.141214558              -0.078308531               0.000000000              -0.165133587              -0.093921295               0.000000000              -0.189052617              -0.109534060               0.000000000              -0.212971646              -0.125146824               0.000000000              -0.236890676              -0.140759589               0.000000000              -0.260809705              -0.156372354               0.000000000              -0.284728735              -0.171985118               0.000000000              -0.308647764              -0.187597883               0.000000000              -0.332566794              -0.203210648               0.000000000              -0.356485823              -0.218823412               0.000000000              -0.380404853              -0.234436177               0.000000000              -0.404323882              -0.250048941               0.000000000              -0.428242912              -0.265661706               0.000000000              -0.452161941              -0.281274471               0.000000000              -0.476080971              -0.296887235               0.000000000              -0.500000000              -0.312500000               0.000000000              -0.110585458              -0.073890841               0.000000000              -0.134923867              -0.092710163               0.000000000              -0.159262276              -0.111529486               0.000000000              -0.183600685              -0.130348808               0.000000000              -0.207939094              -0.149168131               0.000000000              -0.232277503              -0.167987453               0.000000000              -0.256615912              -0.186806776               0.000000000              -0.280954320              -0.205626098               0.000000000              -0.305292729              -0.224445420               0.000000000              -0.329631138              -0.243264743               0.000000000              -0.353969547              -0.262084065               0.000000000              -0.378307956              -0.280903388               0.000000000              -0.402646365              -0.299722710               0.000000000              -0.426984773              -0.318542033               0.000000000              -0.451323182              -0.337361355               0.000000000              -0.475661591              -0.356180678               0.000000000              -0.500000000              -0.375000000               0.000000000              -0.102810390              -0.084374307               0.000000000              -0.127634741              -0.106444663               0.000000000              -0.152459092              -0.128515018               0.000000000              -0.177283442              -0.150585374               0.000000000              -0.202107793              -0.172655730               0.000000000              -0.226932143              -0.194726086               0.000000000              -0.251756494              -0.216796442               0.000000000              -0.276580845              -0.238866798               0.000000000              -0.301405195              -0.260937153               0.000000000              -0.326229546              -0.283007509               0.000000000              -0.351053896              -0.305077865               0.000000000              -0.375878247              -0.327148221               0.000000000              -0.400702598              -0.349218577               0.000000000              -0.425526948              -0.371288933               0.000000000              -0.450351299              -0.393359288               0.000000000              -0.475175649              -0.415429644               0.000000000              -0.500000000              -0.437500000               0.000000000              -0.094045202              -0.094045202               0.000000000              -0.119417377              -0.119417377               0.000000000              -0.144789552              -0.144789552               0.000000000              -0.170161727              -0.170161727               0.000000000              -0.195533901              -0.195533901               0.000000000              -0.220906076              -0.220906076               0.000000000              -0.246278251              -0.246278251               0.000000000              -0.271650426              -0.271650426               0.000000000              -0.297022601              -0.297022601               0.000000000              -0.322394776              -0.322394776               0.000000000              -0.347766951              -0.347766951               0.000000000              -0.373139126              -0.373139126               0.000000000              -0.398511300              -0.398511300               0.000000000              -0.423883475              -0.423883475               0.000000000              -0.449255650              -0.449255650               0.000000000              -0.474627825              -0.474627825               0.000000000              -0.500000000              -0.500000000               0.000000000              -0.084374307              -0.102810390               0.000000000              -0.106444663              -0.127634741               0.000000000              -0.128515018              -0.152459092               0.000000000              -0.150585374              -0.177283442               0.000000000              -0.172655730              -0.202107793               0.000000000              -0.194726086              -0.226932143               0.000000000              -0.216796442              -0.251756494               0.000000000              -0.238866798              -0.276580845               0.000000000              -0.260937153              -0.301405195               0.000000000              -0.283007509              -0.326229546               0.000000000              -0.305077865              -0.351053896               0.000000000              -0.327148221              -0.375878247               0.000000000              -0.349218577              -0.400702598               0.000000000              -0.371288933              -0.425526948               0.000000000              -0.393359288              -0.450351299               0.000000000              -0.415429644              -0.475175649               0.000000000              -0.437500000              -0.500000000               0.000000000              -0.073890841              -0.110585458               0.000000000              -0.092710163              -0.134923867               0.000000000              -0.111529486              -0.159262276               0.000000000              -0.130348808              -0.183600685               0.000000000              -0.149168131              -0.207939094               0.000000000              -0.167987453              -0.232277503               0.000000000              -0.186806776              -0.256615912               0.000000000              -0.205626098              -0.280954320               0.000000000              -0.224445420              -0.305292729               0.000000000              -0.243264743              -0.329631138               0.000000000              -0.262084065              -0.353969547               0.000000000              -0.280903388              -0.378307956               0.000000000              -0.299722710              -0.402646365               0.000000000              -0.318542033              -0.426984773               0.000000000              -0.337361355              -0.451323182               0.000000000              -0.356180678              -0.475661591               0.000000000              -0.375000000              -0.500000000               0.000000000              -0.062695766              -0.117295528               0.000000000              -0.078308531              -0.141214558               0.000000000              -0.093921295              -0.165133587               0.000000000              -0.109534060              -0.189052617               0.000000000              -0.125146824              -0.212971646               0.000000000              -0.140759589              -0.236890676               0.000000000              -0.156372354              -0.260809705               0.000000000              -0.171985118              -0.284728735               0.000000000              -0.187597883              -0.308647764               0.000000000              -0.203210648              -0.332566794               0.000000000              -0.218823412              -0.356485823               0.000000000              -0.234436177              -0.380404853               0.000000000              -0.250048941              -0.404323882               0.000000000              -0.265661706              -0.428242912               0.000000000              -0.281274471              -0.452161941               0.000000000              -0.296887235              -0.476080971               0.000000000              -0.312500000              -0.500000000               0.000000000              -0.050896897              -0.122875978               0.000000000              -0.063340840              -0.146446229               0.000000000              -0.075784784              -0.170016481               0.000000000              -0.088228728              -0.193586732               0.000000000              -0.100672672              -0.217156983               0.000000000              -0.113116616              -0.240727235               0.000000000              -0.125560560              -0.264297486               0.000000000              -0.138004504              -0.287867738               0.000000000              -0.150448448              -0.311437989               0.000000000              -0.162892392              -0.335008240               0.000000000              -0.175336336              -0.358578492               0.000000000              -0.187780280              -0.382148743               0.000000000              -0.200224224              -0.405718994               0.000000000              -0.212668168              -0.429289246               0.000000000              -0.225112112              -0.452859497               0.000000000              -0.237556056              -0.476429749               0.000000000              -0.250000000              -0.500000000               0.000000000              -0.038607862              -0.127273065               0.000000000              -0.047913621              -0.150568498               0.000000000              -0.057219379              -0.173863932               0.000000000              -0.066525138              -0.197159365               0.000000000              -0.075830897              -0.220454798               0.000000000              -0.085136655              -0.243750232               0.000000000              -0.094442414              -0.267045665               0.000000000              -0.103748172              -0.290341099               0.000000000              -0.113053931              -0.313636532               0.000000000              -0.122359690              -0.336931966               0.000000000              -0.131665448              -0.360227399               0.000000000              -0.140971207              -0.383522833               0.000000000              -0.150276966              -0.406818266               0.000000000              -0.159582724              -0.430113700               0.000000000              -0.168888483              -0.453409133               0.000000000              -0.178194241              -0.476704567               0.000000000              -0.187500000              -0.500000000               0.000000000              -0.025947013              -0.130444442               0.000000000              -0.032137825              -0.153541665               0.000000000              -0.038328636              -0.176638887               0.000000000              -0.044519448              -0.199736109               0.000000000              -0.050710260              -0.222833332               0.000000000              -0.056901071              -0.245930554               0.000000000              -0.063091883              -0.269027776               0.000000000              -0.069282695              -0.292124999               0.000000000              -0.075473506              -0.315222221               0.000000000              -0.081664318              -0.338319444               0.000000000              -0.087855130              -0.361416666               0.000000000              -0.094045942              -0.384513888               0.000000000              -0.100236753              -0.407611111               0.000000000              -0.106427565              -0.430708333               0.000000000              -0.112618377              -0.453805555               0.000000000              -0.118809188              -0.476902778               0.000000000              -0.125000000              -0.500000000               0.000000000              -0.013036280              -0.132359569               0.000000000              -0.016127762              -0.155337096               0.000000000              -0.019219245              -0.178314623               0.000000000              -0.022310727              -0.201292150               0.000000000              -0.025402210              -0.224269676               0.000000000              -0.028493692              -0.247247203               0.000000000              -0.031585175              -0.270224730               0.000000000              -0.034676657              -0.293202257               0.000000000              -0.037768140              -0.316179784               0.000000000              -0.040859622              -0.339157311               0.000000000              -0.043951105              -0.362134838               0.000000000              -0.047042587              -0.385112365               0.000000000              -0.050134070              -0.408089892               0.000000000              -0.053225552              -0.431067419               0.000000000              -0.056317035              -0.454044946               0.000000000              -0.059408517              -0.477022473               0.000000000              -0.062500000              -0.500000000               0.000000000               0.000000000              -0.133000000               0.000000000               0.000000000              -0.155937500               0.000000000               0.000000000              -0.178875000               0.000000000               0.000000000              -0.201812500               0.000000000               0.000000000              -0.224750000               0.000000000               0.000000000              -0.247687500               0.000000000               0.000000000              -0.270625000               0.000000000               0.000000000              -0.293562500               0.000000000               0.000000000              -0.316500000               0.000000000               0.000000000              -0.339437500               0.000000000               0.000000000              -0.362375000               0.000000000               0.000000000              -0.385312500               0.000000000               0.000000000              -0.408250000               0.000000000               0.000000000              -0.431187500               0.000000000               0.000000000              -0.454125000               0.000000000               0.000000000              -0.477062500               0.000000000               0.000000000              -0.500000000               0.000000000              -0.133000000               0.000000000               0.000000000              -0.155937500               0.000000000               0.000000000              -0.178875000               0.000000000               0.000000000              -0.201812500               0.000000000               0.000000000              -0.224750000               0.000000000               0.000000000              -0.247687500               0.000000000               0.000000000              -0.270625000               0.000000000               0.000000000              -0.293562500               0.000000000               0.000000000              -0.316500000               0.000000000               0.000000000              -0.339437500               0.000000000               0.000000000              -0.362375000               0.000000000               0.000000000              -0.385312500               0.000000000               0.000000000              -0.408250000               0.000000000               0.000000000              -0.431187500               0.000000000               0.000000000              -0.454125000               0.000000000               0.000000000              -0.477062500               0.000000000               0.000000000              -0.500000000               0.000000000               0.000000000              -0.132359569               0.013036280               0.000000000              -0.155337096               0.016127762               0.000000000              -0.178314623               0.019219245               0.000000000              -0.201292150               0.022310727               0.000000000              -0.224269676               0.025402210               0.000000000              -0.247247203               0.028493692               0.000000000              -0.270224730               0.031585175               0.000000000              -0.293202257               0.034676657               0.000000000              -0.316179784               0.037768140               0.000000000              -0.339157311               0.040859622               0.000000000              -0.362134838               0.043951105               0.000000000              -0.385112365               0.047042587               0.000000000              -0.408089892               0.050134070               0.000000000              -0.431067419               0.053225552               0.000000000              -0.454044946               0.056317035               0.000000000              -0.477022473               0.059408517               0.000000000              -0.500000000               0.062500000               0.000000000              -0.130444442               0.025947013               0.000000000              -0.153541665               0.032137825               0.000000000              -0.176638887               0.038328636               0.000000000              -0.199736109               0.044519448               0.000000000              -0.222833332               0.050710260               0.000000000              -0.245930554               0.056901071               0.000000000              -0.269027776               0.063091883               0.000000000              -0.292124999               0.069282695               0.000000000              -0.315222221               0.075473506               0.000000000              -0.338319444               0.081664318               0.000000000              -0.361416666               0.087855130               0.000000000              -0.384513888               0.094045942               0.000000000              -0.407611111               0.100236753               0.000000000              -0.430708333               0.106427565               0.000000000              -0.453805555               0.112618377               0.000000000              -0.476902778               0.118809188               0.000000000              -0.500000000               0.125000000               0.000000000              -0.127273065               0.038607862               0.000000000              -0.150568498               0.047913621               0.000000000              -0.173863932               0.057219379               0.000000000              -0.197159365               0.066525138               0.000000000              -0.220454798               0.075830897               0.000000000              -0.243750232               0.085136655               0.000000000              -0.267045665               0.094442414               0.000000000              -0.290341099               0.103748172               0.000000000              -0.313636532               0.113053931               0.000000000              -0.336931966               0.122359690               0.000000000              -0.360227399               0.131665448               0.000000000              -0.383522833               0.140971207               0.000000000              -0.406818266               0.150276966               0.000000000              -0.430113700               0.159582724               0.000000000              -0.453409133               0.168888483               0.000000000              -0.476704567               0.178194241               0.000000000              -0.500000000               0.187500000               0.000000000              -0.122875978               0.050896897               0.000000000              -0.146446229               0.063340840               0.000000000              -0.170016481               0.075784784               0.000000000              -0.193586732               0.088228728               0.000000000              -0.217156983               0.100672672               0.000000000              -0.240727235               0.113116616               0.000000000              -0.264297486               0.125560560               0.000000000              -0.287867738               0.138004504               0.000000000              -0.311437989               0.150448448               0.000000000              -0.335008240               0.162892392               0.000000000              -0.358578492               0.175336336               0.000000000              -0.382148743               0.187780280               0.000000000              -0.405718994               0.200224224               0.000000000              -0.429289246               0.212668168               0.000000000              -0.452859497               0.225112112               0.000000000              -0.476429749               0.237556056               0.000000000              -0.500000000               0.250000000               0.000000000              -0.117295528               0.062695766               0.000000000              -0.141214558               0.078308531               0.000000000              -0.165133587               0.093921295               0.000000000              -0.189052617               0.109534060               0.000000000              -0.212971646               0.125146824               0.000000000              -0.236890676               0.140759589               0.000000000              -0.260809705               0.156372354               0.000000000              -0.284728735               0.171985118               0.000000000              -0.308647764               0.187597883               0.000000000              -0.332566794               0.203210648               0.000000000              -0.356485823               0.218823412               0.000000000              -0.380404853               0.234436177               0.000000000              -0.404323882               0.250048941               0.000000000              -0.428242912               0.265661706               0.000000000              -0.452161941               0.281274471               0.000000000              -0.476080971               0.296887235               0.000000000              -0.500000000               0.312500000               0.000000000              -0.110585458               0.073890841               0.000000000              -0.134923867               0.092710163               0.000000000              -0.159262276               0.111529486               0.000000000              -0.183600685               0.130348808               0.000000000              -0.207939094               0.149168131               0.000000000              -0.232277503               0.167987453               0.000000000              -0.256615912               0.186806776               0.000000000              -0.280954320               0.205626098               0.000000000              -0.305292729               0.224445420               0.000000000              -0.329631138               0.243264743               0.000000000              -0.353969547               0.262084065               0.000000000              -0.378307956               0.280903388               0.000000000              -0.402646365               0.299722710               0.000000000              -0.426984773               0.318542033               0.000000000              -0.451323182               0.337361355               0.000000000              -0.475661591               0.356180678               0.000000000              -0.500000000               0.375000000               0.000000000              -0.102810390               0.084374307               0.000000000              -0.127634741               0.106444663               0.000000000              -0.152459092               0.128515018               0.000000000              -0.177283442               0.150585374               0.000000000              -0.202107793               0.172655730               0.000000000              -0.226932143               0.194726086               0.000000000              -0.251756494               0.216796442               0.000000000              -0.276580845               0.238866798               0.000000000              -0.301405195               0.260937153               0.000000000              -0.326229546               0.283007509               0.000000000              -0.351053896               0.305077865               0.000000000              -0.375878247               0.327148221               0.000000000              -0.400702598               0.349218577               0.000000000              -0.425526948               0.371288933               0.000000000              -0.450351299               0.393359288               0.000000000              -0.475175649               0.415429644               0.000000000              -0.500000000               0.437500000               0.000000000              -0.094045202               0.094045202               0.000000000              -0.119417377               0.119417377               0.000000000              -0.144789552               0.144789552               0.000000000              -0.170161727               0.170161727               0.000000000              -0.195533901               0.195533901               0.000000000              -0.220906076               0.220906076               0.000000000              -0.246278251               0.246278251               0.000000000              -0.271650426               0.271650426               0.000000000              -0.297022601               0.297022601               0.000000000              -0.322394776               0.322394776               0.000000000              -0.347766951               0.347766951               0.000000000              -0.373139126               0.373139126               0.000000000              -0.398511300               0.398511300               0.000000000              -0.423883475               0.423883475               0.000000000              -0.449255650               0.449255650               0.000000000              -0.474627825               0.474627825               0.000000000              -0.500000000               0.500000000               0.000000000              -0.084374307               0.102810390               0.000000000              -0.106444663               0.127634741               0.000000000              -0.128515018               0.152459092               0.000000000              -0.150585374               0.177283442               0.000000000              -0.172655730               0.202107793               0.000000000              -0.194726086               0.226932143               0.000000000              -0.216796442               0.251756494               0.000000000              -0.238866798               0.276580845               0.000000000              -0.260937153               0.301405195               0.000000000              -0.283007509               0.326229546               0.000000000              -0.305077865               0.351053896               0.000000000              -0.327148221               0.375878247               0.000000000              -0.349218577               0.400702598               0.000000000              -0.371288933               0.425526948               0.000000000              -0.393359288               0.450351299               0.000000000              -0.415429644               0.475175649               0.000000000              -0.437500000               0.500000000               0.000000000              -0.073890841               0.110585458               0.000000000              -0.092710163               0.134923867               0.000000000              -0.111529486               0.159262276               0.000000000              -0.130348808               0.183600685               0.000000000              -0.149168131               0.207939094               0.000000000              -0.167987453               0.232277503               0.000000000              -0.186806776               0.256615912               0.000000000              -0.205626098               0.280954320               0.000000000              -0.224445420               0.305292729               0.000000000              -0.243264743               0.329631138               0.000000000              -0.262084065               0.353969547               0.000000000              -0.280903388               0.378307956               0.000000000              -0.299722710               0.402646365               0.000000000              -0.318542033               0.426984773               0.000000000              -0.337361355               0.451323182               0.000000000              -0.356180678               0.475661591               0.000000000              -0.375000000               0.500000000               0.000000000              -0.062695766               0.117295528               0.000000000              -0.078308531               0.141214558               0.000000000              -0.093921295               0.165133587               0.000000000              -0.109534060               0.189052617               0.000000000              -0.125146824               0.212971646               0.000000000              -0.140759589               0.236890676               0.000000000              -0.156372354               0.260809705               0.000000000              -0.171985118               0.284728735               0.000000000              -0.187597883               0.308647764               0.000000000              -0.203210648               0.332566794               0.000000000              -0.218823412               0.356485823               0.000000000              -0.234436177               0.380404853               0.000000000              -0.250048941               0.404323882               0.000000000              -0.265661706               0.428242912               0.000000000              -0.281274471               0.452161941               0.000000000              -0.296887235               0.476080971               0.000000000              -0.312500000               0.500000000               0.000000000              -0.050896897               0.122875978               0.000000000              -0.063340840               0.146446229               0.000000000              -0.075784784               0.170016481               0.000000000              -0.088228728               0.193586732               0.000000000              -0.100672672               0.217156983               0.000000000              -0.113116616               0.240727235               0.000000000              -0.125560560               0.264297486               0.000000000              -0.138004504               0.287867738               0.000000000              -0.150448448               0.311437989               0.000000000              -0.162892392               0.335008240               0.000000000              -0.175336336               0.358578492               0.000000000              -0.187780280               0.382148743               0.000000000              -0.200224224               0.405718994               0.000000000              -0.212668168               0.429289246               0.000000000              -0.225112112               0.452859497               0.000000000              -0.237556056               0.476429749               0.000000000              -0.250000000               0.500000000               0.000000000              -0.038607862               0.127273065               0.000000000              -0.047913621               0.150568498               0.000000000              -0.057219379               0.173863932               0.000000000              -0.066525138               0.197159365               0.000000000              -0.075830897               0.220454798               0.000000000              -0.085136655               0.243750232               0.000000000              -0.094442414               0.267045665               0.000000000              -0.103748172               0.290341099               0.000000000              -0.113053931               0.313636532               0.000000000              -0.122359690               0.336931966               0.000000000              -0.131665448               0.360227399               0.000000000              -0.140971207               0.383522833               0.000000000              -0.150276966               0.406818266               0.000000000              -0.159582724               0.430113700               0.000000000              -0.168888483               0.453409133               0.000000000              -0.178194241               0.476704567               0.000000000              -0.187500000               0.500000000               0.000000000              -0.025947013               0.130444442               0.000000000              -0.032137825               0.153541665               0.000000000              -0.038328636               0.176638887               0.000000000              -0.044519448               0.199736109               0.000000000              -0.050710260               0.222833332               0.000000000              -0.056901071               0.245930554               0.000000000              -0.063091883               0.269027776               0.000000000              -0.069282695               0.292124999               0.000000000              -0.075473506               0.315222221               0.000000000              -0.081664318               0.338319444               0.000000000              -0.087855130               0.361416666               0.000000000              -0.094045942               0.384513888               0.000000000              -0.100236753               0.407611111               0.000000000              -0.106427565               0.430708333               0.000000000              -0.112618377               0.453805555               0.000000000              -0.118809188               0.476902778               0.000000000              -0.125000000               0.500000000               0.000000000              -0.013036280               0.132359569               0.000000000              -0.016127762               0.155337096               0.000000000              -0.019219245               0.178314623               0.000000000              -0.022310727               0.201292150               0.000000000              -0.025402210               0.224269676               0.000000000              -0.028493692               0.247247203               0.000000000              -0.031585175               0.270224730               0.000000000              -0.034676657               0.293202257               0.000000000              -0.037768140               0.316179784               0.000000000              -0.040859622               0.339157311               0.000000000              -0.043951105               0.362134838               0.000000000              -0.047042587               0.385112365               0.000000000              -0.050134070               0.408089892               0.000000000              -0.053225552               0.431067419               0.000000000              -0.056317035               0.454044946               0.000000000              -0.059408517               0.477022473               0.000000000              -0.062500000               0.500000000               0.000000000               0.000000000               0.133000000               0.000000000               0.000000000               0.155937500               0.000000000               0.000000000               0.178875000               0.000000000               0.000000000               0.201812500               0.000000000               0.000000000               0.224750000               0.000000000               0.000000000               0.247687500               0.000000000               0.000000000               0.270625000               0.000000000               0.000000000               0.293562500               0.000000000               0.000000000               0.316500000               0.000000000               0.000000000               0.339437500               0.000000000               0.000000000               0.362375000               0.000000000               0.000000000               0.385312500               0.000000000               0.000000000               0.408250000               0.000000000               0.000000000               0.431187500               0.000000000               0.000000000               0.454125000               0.000000000               0.000000000               0.477062500               0.000000000               0.000000000               0.500000000               0.000000000 </DataArray>
</Points>
<Cells>
<DataArray type="Int32"                                    Name="connectivity"                                                      NumberOfComponents=" 1" format="ascii">
         0          1         18         17          1          2         19         18          2          3         20         19          3          4         21         20          4          5         22         21          5          6         23         22          6          7         24         23          7          8         25         24          8          9         26         25          9         10         27         26         10         11         28         27         11         12         29         28         12         13         30         29         13         14         31         30         14         15         32         31         15         16         33         32         17         18         35         34         18         19         36         35         19         20         37         36         20         21         38         37         21         22         39         38         22         23         40         39         23         24         41         40         24         25         42         41         25         26         43         42         26         27         44         43         27         28         45         44         28         29         46         45         29         30         47         46         30         31         48         47         31         32         49         48         32         33         50         49         34         35         52         51         35         36         53         52         36         37         54         53         37         38         55         54         38         39         56         55         39         40         57         56         40         41         58         57         41         42         59         58         42         43         60         59         43         44         61         60         44         45         62         61         45         46         63         62         46         47         64         63         47         48         65         64         48         49         66         65         49         50         67         66         51         52         69         68         52         53         70         69         53         54         71         70         54         55         72         71         55         56         73         72         56         57         74         73         57         58         75         74         58         59         76         75         59         60         77         76         60         61         78         77         61         62         79         78         62         63         80         79         63         64         81         80         64         65         82         81         65         66         83         82         66         67         84         83         68         69         86         85         69         70         87         86         70         71         88         87         71         72         89         88         72         73         90         89         73         74         91         90         74         75         92         91         75         76         93         92         76         77         94         93         77         78         95         94         78         79         96         95         79         80         97         96         80         81         98         97         81         82         99         98         82         83        100         99         83         84        101        100         85         86        103        102         86         87        104        103         87         88        105        104         88         89        106        105         89         90        107        106         90         91        108        107         91         92        109        108         92         93        110        109         93         94        111        110         94         95        112        111         95         96        113        112         96         97        114        113         97         98        115        114         98         99        116        115         99        100        117        116        100        101        118        117        102        103        120        119        103        104        121        120        104        105        122        121        105        106        123        122        106        107        124        123        107        108        125        124        108        109        126        125        109        110        127        126        110        111        128        127        111        112        129        128        112        113        130        129        113        114        131        130        114        115        132        131        115        116        133        132        116        117        134        133        117        118        135        134        119        120        137        136        120        121        138        137        121        122        139        138        122        123        140        139        123        124        141        140        124        125        142        141        125        126        143        142        126        127        144        143        127        128        145        144        128        129        146        145        129        130        147        146        130        131        148        147        131        132        149        148        132        133        150        149        133        134        151        150        134        135        152        151        136        137        154        153        137        138        155        154        138        139        156        155        139        140        157        156        140        141        158        157        141        142        159        158        142        143        160        159        143        144        161        160        144        145        162        161        145        146        163        162        146        147        164        163        147        148        165        164        148        149        166        165        149        150        167        166        150        151        168        167        151        152        169        168        153        154        171        170        154        155        172        171        155        156        173        172        156        157        174        173        157        158        175        174        158        159        176        175        159        160        177        176        160        161        178        177        161        162        179        178        162        163        180        179        163        164        181        180        164        165        182        181        165        166        183        182        166        167        184        183        167        168        185        184        168        169        186        185        170        171        188        187        171        172        189        188        172        173        190        189        173        174        191        190        174        175        192        191        175        176        193        192        176        177        194        193        177        178        195        194        178        179        196        195        179        180        197        196        180        181        198        197        181        182        199        198        182        183        200        199        183        184        201        200        184        185        202        201        185        186        203        202        187        188        205        204        188        189        206        205        189        190        207        206        190        191        208        207        191        192        209        208        192        193        210        209        193        194        211        210        194        195        212        211        195        196        213        212        196        197        214        213        197        198        215        214        198        199        216        215        199        200        217        216        200        201        218        217        201        202        219        218        202        203        220        219        204        205        222        221        205        206        223        222        206        207        224        223        207        208        225        224        208        209        226        225        209        210        227        226        210        211        228        227        211        212        229        228        212        213        230        229        213        214        231        230        214        215        232        231        215        216        233        232        216        217        234        233        217        218        235        234        218        219        236        235        219        220        237        236        221        222        239        238        222        223        240        239        223        224        241        240        224        225        242        241        225        226        243        242        226        227        244        243        227        228        245        244        228        229        246        245        229        230        247        246        230        231        248        247        231        232        249        248        232        233        250        249        233        234        251        250        234        235        252        251        235        236        253        252        236        237        254        253        238        239        256        255        239        240        257        256        240        241        258        257        241        242        259        258        242        243        260        259        243        244        261        260        244        245        262        261        245        246        263        262        246        247        264        263        247        248        265        264        248        249        266        265        249        250        267        266        250        251        268        267        251        252        269        268        252        253        270        269        253        254        271        270        255        256        273        272        256        257        274        273        257        258        275        274        258        259        276        275        259        260        277        276        260        261        278        277        261        262        279        278        262        263        280        279        263        264        281        280        264        265        282        281        265        266        283        282        266        267        284        283        267        268        285        284        268        269        286        285        269        270        287        286        270        271        288        287        306        307          1          0        307        308          2          1        308        309          3          2        309        310          4          3        310        311          5          4        311        312          6          5        312        313          7          6        313        314          8          7        314        315          9          8        315        316         10          9        316        317         11         10        317        318         12         11        318        319         13         12        319        320         14         13        320        321         15         14        321        322         16         15        323        324        307        306        324        325        308        307        325        326        309        308        326        327        310        309        327        328        311        310        328        329        312        311        329        330        313        312        330        331        314        313        331        332        315        314        332        333        316        315        333        334        317        316        334        335        318        317        335        336        319        318        336        337        320        319        337        338        321        320        338        339        322        321        340        341        324        323        341        342        325        324        342        343        326        325        343        344        327        326        344        345        328        327        345        346        329        328        346        347        330        329        347        348        331        330        348        349        332        331        349        350        333        332        350        351        334        333        351        352        335        334        352        353        336        335        353        354        337        336        354        355        338        337        355        356        339        338        357        358        341        340        358        359        342        341        359        360        343        342        360        361        344        343        361        362        345        344        362        363        346        345        363        364        347        346        364        365        348        347        365        366        349        348        366        367        350        349        367        368        351        350        368        369        352        351        369        370        353        352        370        371        354        353        371        372        355        354        372        373        356        355        374        375        358        357        375        376        359        358        376        377        360        359        377        378        361        360        378        379        362        361        379        380        363        362        380        381        364        363        381        382        365        364        382        383        366        365        383        384        367        366        384        385        368        367        385        386        369        368        386        387        370        369        387        388        371        370        388        389        372        371        389        390        373        372        391        392        375        374        392        393        376        375        393        394        377        376        394        395        378        377        395        396        379        378        396        397        380        379        397        398        381        380        398        399        382        381        399        400        383        382        400        401        384        383        401        402        385        384        402        403        386        385        403        404        387        386        404        405        388        387        405        406        389        388        406        407        390        389        408        409        392        391        409        410        393        392        410        411        394        393        411        412        395        394        412        413        396        395        413        414        397        396        414        415        398        397        415        416        399        398        416        417        400        399        417        418        401        400        418        419        402        401        419        420        403        402        420        421        404        403        421        422        405        404        422        423        406        405        423        424        407        406        425        426        409        408        426        427        410        409        427        428        411        410        428        429        412        411        429        430        413        412        430        431        414        413        431        432        415        414        432        433        416        415        433        434        417        416        434        435        418        417        435        436        419        418        436        437        420        419        437        438        421        420        438        439        422        421        439        440        423        422        440        441        424        423        442        443        426        425        443        444        427        426        444        445        428        427        445        446        429        428        446        447        430        429        447        448        431        430        448        449        432        431        449        450        433        432        450        451        434        433        451        452        435        434        452        453        436        435        453        454        437        436        454        455        438        437        455        456        439        438        456        457        440        439        457        458        441        440        459        460        443        442        460        461        444        443        461        462        445        444        462        463        446        445        463        464        447        446        464        465        448        447        465        466        449        448        466        467        450        449        467        468        451        450        468        469        452        451        469        470        453        452        470        471        454        453        471        472        455        454        472        473        456        455        473        474        457        456        474        475        458        457        476        477        460        459        477        478        461        460        478        479        462        461        479        480        463        462        480        481        464        463        481        482        465        464        482        483        466        465        483        484        467        466        484        485        468        467        485        486        469        468        486        487        470        469        487        488        471        470        488        489        472        471        489        490        473        472        490        491        474        473        491        492        475        474        493        494        477        476        494        495        478        477        495        496        479        478        496        497        480        479        497        498        481        480        498        499        482        481        499        500        483        482        500        501        484        483        501        502        485        484        502        503        486        485        503        504        487        486        504        505        488        487        505        506        489        488        506        507        490        489        507        508        491        490        508        509        492        491        510        511        494        493        511        512        495        494        512        513        496        495        513        514        497        496        514        515        498        497        515        516        499        498        516        517        500        499        517        518        501        500        518        519        502        501        519        520        503        502        520        521        504        503        521        522        505        504        522        523        506        505        523        524        507        506        524        525        508        507        525        526        509        508        527        528        511        510        528        529        512        511        529        530        513        512        530        531        514        513        531        532        515        514        532        533        516        515        533        534        517        516        534        535        518        517        535        536        519        518        536        537        520        519        537        538        521        520        538        539        522        521        539        540        523        522        540        541        524        523        541        542        525        524        542        543        526        525        544        545        528        527        545        546        529        528        546        547        530        529        547        548        531        530        548        549        532        531        549        550        533        532        550        551        534        533        551        552        535        534        552        553        536        535        553        554        537        536        554        555        538        537        555        556        539        538        556        557        540        539        557        558        541        540        558        559        542        541        559        560        543        542        561        562        545        544        562        563        546        545        563        564        547        546        564        565        548        547        565        566        549        548        566        567        550        549        567        568        551        550        568        569        552        551        569        570        553        552        570        571        554        553        571        572        555        554        572        573        556        555        573        574        557        556        574        575        558        557        575        576        559        558        576        577        560        559        578        579        596        595        579        580        597        596        580        581        598        597        581        582        599        598        582        583        600        599        583        584        601        600        584        585        602        601        585        586        603        602        586        587        604        603        587        588        605        604        588        589        606        605        589        590        607        606        590        591        608        607        591        592        609        608        592        593        610        609        593        594        611        610        595        596        613        612        596        597        614        613        597        598        615        614        598        599        616        615        599        600        617        616        600        601        618        617        601        602        619        618        602        603        620        619        603        604        621        620        604        605        622        621        605        606        623        622        606        607        624        623        607        608        625        624        608        609        626        625        609        610        627        626        610        611        628        627        612        613        630        629        613        614        631        630        614        615        632        631        615        616        633        632        616        617        634        633        617        618        635        634        618        619        636        635        619        620        637        636        620        621        638        637        621        622        639        638        622        623        640        639        623        624        641        640        624        625        642        641        625        626        643        642        626        627        644        643        627        628        645        644        629        630        647        646        630        631        648        647        631        632        649        648        632        633        650        649        633        634        651        650        634        635        652        651        635        636        653        652        636        637        654        653        637        638        655        654        638        639        656        655        639        640        657        656        640        641        658        657        641        642        659        658        642        643        660        659        643        644        661        660        644        645        662        661        646        647        664        663        647        648        665        664        648        649        666        665        649        650        667        666        650        651        668        667        651        652        669        668        652        653        670        669        653        654        671        670        654        655        672        671        655        656        673        672        656        657        674        673        657        658        675        674        658        659        676        675        659        660        677        676        660        661        678        677        661        662        679        678        663        664        681        680        664        665        682        681        665        666        683        682        666        667        684        683        667        668        685        684        668        669        686        685        669        670        687        686        670        671        688        687        671        672        689        688        672        673        690        689        673        674        691        690        674        675        692        691        675        676        693        692        676        677        694        693        677        678        695        694        678        679        696        695        680        681        698        697        681        682        699        698        682        683        700        699        683        684        701        700        684        685        702        701        685        686        703        702        686        687        704        703        687        688        705        704        688        689        706        705        689        690        707        706        690        691        708        707        691        692        709        708        692        693        710        709        693        694        711        710        694        695        712        711        695        696        713        712        697        698        715        714        698        699        716        715        699        700        717        716        700        701        718        717        701        702        719        718        702        703        720        719        703        704        721        720        704        705        722        721        705        706        723        722        706        707        724        723        707        708        725        724        708        709        726        725        709        710        727        726        710        711        728        727        711        712        729        728        712        713        730        729        714        715        732        731        715        716        733        732        716        717        734        733        717        718        735        734        718        719        736        735        719        720        737        736        720        721        738        737        721        722        739        738        722        723        740        739        723        724        741        740        724        725        742        741        725        726        743        742        726        727        744        743        727        728        745        744        728        729        746        745        729        730        747        746        731        732        749        748        732        733        750        749        733        734        751        750        734        735        752        751        735        736        753        752        736        737        754        753        737        738        755        754        738        739        756        755        739        740        757        756        740        741        758        757        741        742        759        758        742        743        760        759        743        744        761        760        744        745        762        761        745        746        763        762        746        747        764        763        748        749        766        765        749        750        767        766        750        751        768        767        751        752        769        768        752        753        770        769        753        754        771        770        754        755        772        771        755        756        773        772        756        757        774        773        757        758        775        774        758        759        776        775        759        760        777        776        760        761        778        777        761        762        779        778        762        763        780        779        763        764        781        780        765        766        783        782        766        767        784        783        767        768        785        784        768        769        786        785        769        770        787        786        770        771        788        787        771        772        789        788        772        773        790        789        773        774        791        790        774        775        792        791        775        776        793        792        776        777        794        793        777        778        795        794        778        779        796        795        779        780        797        796        780        781        798        797        782        783        800        799        783        784        801        800        784        785        802        801        785        786        803        802        786        787        804        803        787        788        805        804        788        789        806        805        789        790        807        806        790        791        808        807        791        792        809        808        792        793        810        809        793        794        811        810        794        795        812        811        795        796        813        812        796        797        814        813        797        798        815        814        799        800        817        816        800        801        818        817        801        802        819        818        802        803        820        819        803        804        821        820        804        805        822        821        805        806        823        822        806        807        824        823        807        808        825        824        808        809        826        825        809        810        827        826        810        811        828        827        811        812        829        828        812        813        830        829        813        814        831        830        814        815        832        831        816        817        834        833        817        818        835        834        818        819        836        835        819        820        837        836        820        821        838        837        821        822        839        838        822        823        840        839        823        824        841        840        824        825        842        841        825        826        843        842        826        827        844        843        827        828        845        844        828        829        846        845        829        830        847        846        830        831        848        847        831        832        849        848        833        834        562        561        834        835        563        562        835        836        564        563        836        837        565        564        837        838        566        565        838        839        567        566        839        840        568        567        840        841        569        568        841        842        570        569        842        843        571        570        843        844        572        571        844        845        573        572        845        846        574        573        846        847        575        574        847        848        576        575        848        849        577        576        884        885        579        578        885        886        580        579        886        887        581        580        887        888        582        581        888        889        583        582        889        890        584        583        890        891        585        584        891        892        586        585        892        893        587        586        893        894        588        587        894        895        589        588        895        896        590        589        896        897        591        590        897        898        592        591        898        899        593        592        899        900        594        593        901        902        885        884        902        903        886        885        903        904        887        886        904        905        888        887        905        906        889        888        906        907        890        889        907        908        891        890        908        909        892        891        909        910        893        892        910        911        894        893        911        912        895        894        912        913        896        895        913        914        897        896        914        915        898        897        915        916        899        898        916        917        900        899        918        919        902        901        919        920        903        902        920        921        904        903        921        922        905        904        922        923        906        905        923        924        907        906        924        925        908        907        925        926        909        908        926        927        910        909        927        928        911        910        928        929        912        911        929        930        913        912        930        931        914        913        931        932        915        914        932        933        916        915        933        934        917        916        935        936        919        918        936        937        920        919        937        938        921        920        938        939        922        921        939        940        923        922        940        941        924        923        941        942        925        924        942        943        926        925        943        944        927        926        944        945        928        927        945        946        929        928        946        947        930        929        947        948        931        930        948        949        932        931        949        950        933        932        950        951        934        933        952        953        936        935        953        954        937        936        954        955        938        937        955        956        939        938        956        957        940        939        957        958        941        940        958        959        942        941        959        960        943        942        960        961        944        943        961        962        945        944        962        963        946        945        963        964        947        946        964        965        948        947        965        966        949        948        966        967        950        949        967        968        951        950        969        970        953        952        970        971        954        953        971        972        955        954        972        973        956        955        973        974        957        956        974        975        958        957        975        976        959        958        976        977        960        959        977        978        961        960        978        979        962        961        979        980        963        962        980        981        964        963        981        982        965        964        982        983        966        965        983        984        967        966        984        985        968        967        986        987        970        969        987        988        971        970        988        989        972        971        989        990        973        972        990        991        974        973        991        992        975        974        992        993        976        975        993        994        977        976        994        995        978        977        995        996        979        978        996        997        980        979        997        998        981        980        998        999        982        981        999       1000        983        982       1000       1001        984        983       1001       1002        985        984       1003       1004        987        986       1004       1005        988        987       1005       1006        989        988       1006       1007        990        989       1007       1008        991        990       1008       1009        992        991       1009       1010        993        992       1010       1011        994        993       1011       1012        995        994       1012       1013        996        995       1013       1014        997        996       1014       1015        998        997       1015       1016        999        998       1016       1017       1000        999       1017       1018       1001       1000       1018       1019       1002       1001       1020       1021       1004       1003       1021       1022       1005       1004       1022       1023       1006       1005       1023       1024       1007       1006       1024       1025       1008       1007       1025       1026       1009       1008       1026       1027       1010       1009       1027       1028       1011       1010       1028       1029       1012       1011       1029       1030       1013       1012       1030       1031       1014       1013       1031       1032       1015       1014       1032       1033       1016       1015       1033       1034       1017       1016       1034       1035       1018       1017       1035       1036       1019       1018       1037       1038       1021       1020       1038       1039       1022       1021       1039       1040       1023       1022       1040       1041       1024       1023       1041       1042       1025       1024       1042       1043       1026       1025       1043       1044       1027       1026       1044       1045       1028       1027       1045       1046       1029       1028       1046       1047       1030       1029       1047       1048       1031       1030       1048       1049       1032       1031       1049       1050       1033       1032       1050       1051       1034       1033       1051       1052       1035       1034       1052       1053       1036       1035       1054       1055       1038       1037       1055       1056       1039       1038       1056       1057       1040       1039       1057       1058       1041       1040       1058       1059       1042       1041       1059       1060       1043       1042       1060       1061       1044       1043       1061       1062       1045       1044       1062       1063       1046       1045       1063       1064       1047       1046       1064       1065       1048       1047       1065       1066       1049       1048       1066       1067       1050       1049       1067       1068       1051       1050       1068       1069       1052       1051       1069       1070       1053       1052       1071       1072       1055       1054       1072       1073       1056       1055       1073       1074       1057       1056       1074       1075       1058       1057       1075       1076       1059       1058       1076       1077       1060       1059       1077       1078       1061       1060       1078       1079       1062       1061       1079       1080       1063       1062       1080       1081       1064       1063       1081       1082       1065       1064       1082       1083       1066       1065       1083       1084       1067       1066       1084       1085       1068       1067       1085       1086       1069       1068       1086       1087       1070       1069       1088       1089       1072       1071       1089       1090       1073       1072       1090       1091       1074       1073       1091       1092       1075       1074       1092       1093       1076       1075       1093       1094       1077       1076       1094       1095       1078       1077       1095       1096       1079       1078       1096       1097       1080       1079       1097       1098       1081       1080       1098       1099       1082       1081       1099       1100       1083       1082       1100       1101       1084       1083       1101       1102       1085       1084       1102       1103       1086       1085       1103       1104       1087       1086       1105       1106       1089       1088       1106       1107       1090       1089       1107       1108       1091       1090       1108       1109       1092       1091       1109       1110       1093       1092       1110       1111       1094       1093       1111       1112       1095       1094       1112       1113       1096       1095       1113       1114       1097       1096       1114       1115       1098       1097       1115       1116       1099       1098       1116       1117       1100       1099       1117       1118       1101       1100       1118       1119       1102       1101       1119       1120       1103       1102       1120       1121       1104       1103       1122       1123       1106       1105       1123       1124       1107       1106       1124       1125       1108       1107       1125       1126       1109       1108       1126       1127       1110       1109       1127       1128       1111       1110       1128       1129       1112       1111       1129       1130       1113       1112       1130       1131       1114       1113       1131       1132       1115       1114       1132       1133       1116       1115       1133       1134       1117       1116       1134       1135       1118       1117       1135       1136       1119       1118       1136       1137       1120       1119       1137       1138       1121       1120        272        273       1123       1122        273        274       1124       1123        274        275       1125       1124        275        276       1126       1125        276        277       1127       1126        277        278       1128       1127        278        279       1129       1128        279        280       1130       1129        280        281       1131       1130        281        282       1132       1131        282        283       1133       1132        283        284       1134       1133        284        285       1135       1134        285        286       1136       1135        286        287       1137       1136        287        288       1138       1137 </DataArray>
<DataArray type="Int32"                                    Name="offsets"                                                      NumberOfComponents=" 1" format="ascii">
         4          8         12         16         20         24         28         32         36         40         44         48         52         56         60         64         68         72         76         80         84         88         92         96        100        104        108        112        116        120        124        128        132        136        140        144        148        152        156        160        164        168        172        176        180        184        188        192        196        200        204        208        212        216        220        224        228        232        236        240        244        248        252        256        260        264        268        272        276        280        284        288        292        296        300        304        308        312        316        320        324        328        332        336        340        344        348        352        356        360        364        368        372        376        380        384        388        392        396        400        404        408        412        416        420        424        428        432        436        440        444        448        452        456        460        464        468        472        476        480        484        488        492        496        500        504        508        512        516        520        524        528        532        536        540        544        548        552        556        560        564        568        572        576        580        584        588        592        596        600        604        608        612        616        620        624        628        632        636        640        644        648        652        656        660        664        668        672        676        680        684        688        692        696        700        704        708        712        716        720        724        728        732        736        740        744        748        752        756        760        764        768        772        776        780        784        788        792        796        800        804        808        812        816        820        824        828        832        836        840        844        848        852        856        860        864        868        872        876        880        884        888        892        896        900        904        908        912        916        920        924        928        932        936        940        944        948        952        956        960        964        968        972        976        980        984        988        992        996       1000       1004       1008       1012       1016       1020       1024       1028       1032       1036       1040       1044       1048       1052       1056       1060       1064       1068       1072       1076       1080       1084       1088       1092       1096       1100       1104       1108       1112       1116       1120       1124       1128       1132       1136       1140       1144       1148       1152       1156       1160       1164       1168       1172       1176       1180       1184       1188       1192       1196       1200       1204       1208       1212       1216       1220       1224       1228       1232       1236       1240       1244       1248       1252       1256       1260       1264       1268       1272       1276       1280       1284       1288       1292       1296       1300       1304       1308       1312       1316       1320       1324       1328       1332       1336       1340       1344       1348       1352       1356       1360       1364       1368       1372       1376       1380       1384       1388       1392       1396       1400       1404       1408       1412       1416       1420       1424       1428       1432       1436       1440       1444       1448       1452       1456       1460       1464       1468       1472       1476       1480       1484       1488       1492       1496       1500       1504       1508       1512       1516       1520       1524       1528       1532       1536       1540       1544       1548       1552       1556       1560       1564       1568       1572       1576       1580       1584       1588       1592       1596       1600       1604       1608       1612       1616       1620       1624       1628       1632       1636       1640       1644       1648       1652       1656       1660       1664       1668       1672       1676       1680       1684       1688       1692       1696       1700       1704       1708       1712       1716       1720       1724       1728       1732       1736       1740       1744       1748       1752       1756       1760       1764       1768       1772       1776       1780       1784       1788       1792       1796       1800       1804       1808       1812       1816       1820       1824       1828       1832       1836       1840       1844       1848       1852       1856       1860       1864       1868       1872       1876       1880       1884       1888       1892       1896       1900       1904       1908       1912       1916       1920       1924       1928       1932       1936       1940       1944       1948       1952       1956       1960       1964       1968       1972       1976       1980       1984       1988       1992       1996       2000       2004       2008       2012       2016       2020       2024       2028       2032       2036       2040       2044       2048       2052       2056       2060       2064       2068       2072       2076       2080       2084       2088       2092       2096       2100       2104       2108       2112       2116       2120       2124       2128       2132       2136       2140       2144       2148       2152       2156       2160       2164       2168       2172       2176       2180       2184       2188       2192       2196       2200       2204       2208       2212       2216       2220       2224       2228       2232       2236       2240       2244       2248       2252       2256       2260       2264       2268       2272       2276       2280       2284       2288       2292       2296       2300       2304       2308       2312       2316       2320       2324       2328       2332       2336       2340       2344       2348       2352       2356       2360       2364       2368       2372       2376       2380       2384       2388       2392       2396       2400       2404       2408       2412       2416       2420       2424       2428       2432       2436       2440       2444       2448       2452       2456       2460       2464       2468       2472       2476       2480       2484       2488       2492       2496       2500       2504       2508       2512       2516       2520       2524       2528       2532       2536       2540       2544       2548       2552       2556       2560       2564       2568       2572       2576       2580       2584       2588       2592       2596       2600       2604       2608       2612       2616       2620       2624       2628       2632       2636       2640       2644       2648       2652       2656       2660       2664       2668       2672       2676       2680       2684       2688       2692       2696       2700       2704       2708       2712       2716       2720       2724       2728       2732       2736       2740       2744       2748       2752       2756       2760       2764       2768       2772       2776       2780       2784       2788       2792       2796       2800       2804       2808       2812       2816       2820       2824       2828       2832       2836       2840       2844       2848       2852       2856       2860       2864       2868       2872       2876       2880       2884       2888       2892       2896       2900       2904       2908       2912       2916       2920       2924       2928       2932       2936       2940       2944       2948       2952       2956       2960       2964       2968       2972       2976       2980       2984       2988       2992       2996       3000       3004       3008       3012       3016       3020       3024       3028       3032       3036       3040       3044       3048       3052       3056       3060       3064       3068       3072       3076       3080       3084       3088       3092       3096       3100       3104       3108       3112       3116       3120       3124       3128       3132       3136       3140       3144       3148       3152       3156       3160       3164       3168       3172       3176       3180       3184       3188       3192       3196       3200       3204       3208       3212       3216       3220       3224       3228       3232       3236       3240       3244       3248       3252       3256       3260       3264       3268       3272       3276       3280       3284       3288       3292       3296       3300       3304       3308       3312       3316       3320       3324       3328       3332       3336       3340       3344       3348       3352       3356       3360       3364       3368       3372       3376       3380       3384       3388       3392       3396       3400       3404       3408       3412       3416       3420       3424       3428       3432       3436       3440       3444       3448       3452       3456       3460       3464       3468       3472       3476       3480       3484       3488       3492       3496       3500       3504       3508       3512       3516       3520       3524       3528       3532       3536       3540       3544       3548       3552       3556       3560       3564       3568       3572       3576       3580       3584       3588       3592       3596       3600       3604       3608       3612       3616       3620       3624       3628       3632       3636       3640       3644       3648       3652       3656       3660       3664       3668       3672       3676       3680       3684       3688       3692       3696       3700       3704       3708       3712       3716       3720       3724       3728       3732       3736       3740       3744       3748       3752       3756       3760       3764       3768       3772       3776       3780       3784       3788       3792       3796       3800       3804       3808       3812       3816       3820       3824       3828       3832       3836       3840       3844       3848       3852       3856       3860       3864       3868       3872       3876       3880       3884       3888       3892       3896       3900       3904       3908       3912       3916       3920       3924       3928       3932       3936       3940       3944       3948       3952       3956       3960       3964       3968       3972       3976       3980       3984       3988       3992       3996       4000       4004       4008       4012       4016       4020       4024       4028       4032       4036       4040       4044       4048       4052       4056       4060       4064       4068       4072       4076       4080       4084       4088       4092       4096 </DataArray>
<DataArray type="UInt8"                                    Name="types"                                                      NumberOfComponents=" 1" format="ascii">
         9          9          9          9          9          9          9          9          9          9          9          9          9          9          9          9          9          9          9          9          9          9          9          9          9          9          9          9          9          9          9          9          9          9          9          9          9          9          9          9          9          9          9          9          9          9          9          9          9          9          9          9          9          9          9          9          9          9          9          9          9          9          9          9          9          9          9          9          9          9          9          9          9          9          9          9          9          9          9          9          9          9          9          9          9          9          9          9          9          9          9          9          9          9          9          9          9          9          9          9          9          9          9          9          9          9          9          9          9          9          9          9          9          9          9          9          9          9          9          9          9          9          9          9          9          9          9          9          9          9          9          9          9          9          9          9          9          9          9          9          9          9          9          9          9          9          9          9          9          9          9          9          9          9          9          9          9          9          9          9          9          9          9          9          9          9          9          9          9          9          9          9          9          9          9          9          9          9          9          9          9          9          9          9          9          9          9          9          9          9          9          9          9          9          9          9          9          9          9          9          9          9          9          9          9          9          9          9          9          9          9          9          9          9          9          9          9          9          9          9          9          9          9          9          9          9          9          9          9          9          9          9          9          9          9          9          9          9          9          9          9          9          9          9          9          9          9          9          9          9          9          9          9          9          9          9          9          9          9          9          9          9          9          9          9          9          9          9          9          9          9          9          9          9          9          9          9          9          9          9          9          9          9          9          9          9          9          9          9          9          9          9          9          9          9          9          9          9          9          9          9          9          9          9          9          9          9          9          9          9          9          9          9          9          9          9          9          9          9          9          9          9          9          9          9          9          9          9          9          9          9          9          9          9          9          9          9          9          9          9          9          9          9          9          9          9          9          9          9          9          9          9          9          9          9          9          9          9          9          9          9          9          9          9          9          9          9          9          9          9          9          9          9          9          9          9          9          9          9          9          9          9          9          9          9          9          9          9          9          9          9          9          9          9          9          9          9          9          9          9          9          9          9          9          9          9          9          9          9          9          9          9          9          9          9          9          9          9          9          9          9          9          9          9          9          9          9          9          9          9          9          9          9          9          9          9          9          9          9          9          9          9          9          9          9          9          9          9          9          9          9          9          9          9          9          9          9          9          9          9          9          9          9          9          9          9          9          9          9          9          9          9          9          9          9          9          9          9          9          9          9          9          9          9          9          9          9          9          9          9          9          9          9          9          9          9          9          9          9          9          9          9          9          9          9          9          9          9          9          9          9          9          9          9          9          9          9          9          9          9          9          9          9          9          9          9          9          9          9          9          9          9          9          9          9          9          9          9          9          9          9          9          9          9          9          9          9          9          9          9          9          9          9          9          9          9          9          9          9          9          9          9          9          9          9          9          9          9          9          9          9          9          9          9          9          9          9          9          9          9          9          9          9          9          9          9          9          9          9          9          9          9          9          9          9          9          9          9          9          9          9          9          9          9          9          9          9          9          9          9          9          9          9          9          9          9          9          9          9          9          9          9          9          9          9          9          9          9          9          9          9          9          9          9          9          9          9          9          9          9          9          9          9          9          9          9          9          9          9          9          9          9          9          9          9          9          9          9          9          9          9          9          9          9          9          9          9          9          9          9          9          9          9          9          9          9          9          9          9          9          9          9          9          9          9          9          9          9          9          9          9          9          9          9          9          9          9          9          9          9          9          9          9          9          9          9          9          9          9          9          9          9          9          9          9          9          9          9          9          9          9          9          9          9          9          9          9          9          9          9          9          9          9          9          9          9          9          9          9          9          9          9          9          9          9          9          9          9          9          9          9          9          9          9          9          9          9          9          9          9          9          9          9          9          9          9          9          9          9          9          9          9          9          9          9          9          9          9          9          9          9          9          9          9          9          9          9          9          9          9          9          9          9          9          9          9          9          9          9          9          9          9          9          9          9          9          9          9          9          9          9          9          9          9          9          9          9          9          9          9          9          9          9          9          9          9          9          9          9          9          9          9          9          9          9          9          9          9          9          9          9          9          9          9          9          9          9          9          9          9          9          9          9          9          9          9          9          9          9          9          9          9          9          9          9          9          9          9          9          9          9          9          9          9          9          9          9          9          9          9          9          9          9          9          9          9          9          9          9          9          9          9          9          9          9          9          9          9          9          9          9          9          9          9          9          9          9          9          9          9          9          9          9          9          9          9          9          9          9          9          9          9          9          9          9          9          9          9          9          9          9          9          9          9          9          9          9          9          9          9          9          9          9          9          9          9          9          9          9          9          9          9          9          9          9          9          9          9          9          9          9          9          9          9          9          9          9          9          9          9          9          9          9          9          9          9          9          9          9          9          9          9          9          9          9          9          9          9          9          9          9          9          9          9          9          9          9          9          9          9          9          9          9          9          9          9          9          9          9          9          9          9          9          9          9          9          9          9          9          9          9          9          9          9 </DataArray>
</Cells>
<CellData>
<DataArray type="Int32"                                    Name="material"                                                      NumberOfComponents=" 1" format="ascii">
         1          1          1          1          1          1          1          1          1          1          1          1          1          1          1          1          1          1          1          1          1          1          1          1          1          1          1          1          1          1          1          1          1          1          1          1          1          1          1          1          1          1          1          1          1          1          1          1          1          1          1          1          1          1          1          1          1          1          1          1          1          1          1          1          1          1          1          1          1          1          1          1          1          1          1          1          1          1          1          1          1          1          1          1          1          1          1          1          1          1          1          1          1          1          1          1          1          1          1          1          1          1          1          1          1          1          1          1          1          1          1          1          1          1          1          1          1          1          1          1          1          1          1          1          1          1          1          1          1          1          1          1          1          1          1          1          1          1          1          1          1          1          1          1          1          1          1          1          1          1          1          1          1          1          1          1          1          1          1          1          1          1          1          1          1          1          1          1          1          1          1          1          1          1          1          1          1          1          1          1          1          1          1          1          1          1          1          1          1          1          1          1          1          1          1          1          1          1          1          1          1          1          1          1          1          1          1          1          1          1          1          1          1          1          1          1          1          1          1          1          1          1          1          1          1          1          1          1          1          1          1          1          1          1          1          1          1          1          1          1          1          1          1          1          1          1          1          1          1          1          1          1          1          1          1          1          1          1          1          1          1          1          1          1          1          1          1          1          1          1          1          1          1          1          1          1          1          1          1          1          1          1          1          1          1          1          1          1          1          1          1          1          1          1          1          1          1          1          1          1          1          1          1          1          1          1          1          1          1          1          1          1          1          1          1          1          1          1          1          1          1          1          1          1          1          1          1          1          1          1          1          1          1          1          1          1          1          1          1          1          1          1          1          1          1          1          1          1          1          1          1          1          1          1          1          1          1          1          1          1          1          1          1          1          1          1          1          1          1          1          1          1          1          1          1          1          1          1          1          1          1          1          1          1          1          1          1          1          1          1          1          1          1          1          1          1          1          1          1          1          1          1          1          1          1          1          1          1          1          1          1          1          1          1          1          1          1          1          1          1          1          1          1          1          1          1          1          1          1          1          1          1          1          1          1          1          1          1          1          1          1          1          1          1          1          1          1          1          1          1          1          1          1          1          1          1          1          1          1          1          1          1          1          1          1          1          1          1          1          1          1          1          1          1          1          1          1          1          1          1          1          1          1          1          1          1          1          1          1          1          1          1          1          1          1          1          1          1          1          1          1          1          1          1          1          1          1          1          1          1          1          1          1          1          1          1          1          1          1          1          1          1          1          1          1          1          1          1          1          1          1          1          1          1          1          1          1          1          1          1          1          1          1          1          1          1          1          1          1          1          1          1          1          1          1          1          1          1          1          1          1          1          1          1          1          1          1          1          1          1          1          1          1          1          1          1          1          1          1          1          1          1          1          1          1          1          1          1          1          1          1          1          1          1          1          1          1          1          1          1          1          1          1          1          1          1          1          1          1          1          1          1          1          1          1          1          1          1          1          1          1          1          1          1          1          1          1          1          1          1          1          1          1          1          1          1          1          1          1          1          1          1          1          1          1          1          1          1          1          1          1          1          1          1          1          1          1          1          1          1          1          1          1          1          1          1          1          1          1          1          1          1          1          1          1          1          1          1          1          1          1          1          1          1          1          1          1          1          1          1          1          1          1          1          1          1          1          1          1          1          1          1          1          1          1          1          1          1          1          1          1          1          1          1          1          1          1          1          1          1          1          1          1          1          1          1          1          1          1          1          1          1          1          1          1          1          1          1          1          1          1          1          1          1          1          1          1          1          1          1          1          1          1          1          1          1          1          1          1          1          1          1          1          1          1          1          1          1          1          1          1          1          1          1          1          1          1          1          1          1          1          1          1          1          1          1          1          1          1          1          1          1          1          1          1          1          1          1          1          1          1          1          1          1          1          1          1          1          1          1          1          1          1          1          1          1          1          1          1          1          1          1          1          1          1          1          1          1          1          1          1          1          1          1          1          1          1          1          1          1          1          1          1          1          1          1          1          1          1          1          1          1          1          1          1          1          1          1          1          1          1          1          1          1          1          1          1          1          1          1          1          1          1          1          1          1          1          1          1          1          1          1          1          1          1          1          1          1          1          1          1          1          1          1          1          1          1          1          1          1          1          1          1          1          1          1          1          1          1          1          1          1          1          1          1          1          1          1          1          1          1          1          1          1          1          1          1          1          1          1          1          1          1          1          1          1          1          1          1          1          1          1          1          1          1          1          1          1          1          1          1          1          1          1          1          1          1          1          1          1          1          1          1          1          1          1          1          1          1          1          1          1          1          1          1          1          1          1          1          1          1          1          1          1          1          1          1          1          1          1          1          1          1          1          1          1          1          1          1          1          1          1          1          1          1          1          1          1          1          1          1          1          1          1          1          1          1          1          1          1          1          1          1          1 </DataArray>
</CellData>
<PointData>
<DataArray type="Float64"                                    Name="u"                                                      NumberOfComponents=" 3" format="ascii">
             -0.000214194               0.000000000               0.999999989              -0.000246335               0.000000000               0.999999989              -0.000261276              -0.000000000               0.999999989              -0.000269917              -0.000000000               0.999999989              -0.000276512               0.000000000               0.999999989              -0.000282898               0.000000000               0.999999989              -0.000289819               0.000000000               0.999999989              -0.000297576               0.000000000               0.999999989              -0.000306529               0.000000000               0.999999989              -0.000316791               0.000000000               0.999999989              -0.000328332               0.000000000               0.999999989              -0.000341015               0.000000000               0.999999989              -0.000354723               0.000000000               0.999999989              -0.000369293               0.000000000               0.999999989              -0.000384467              -0.000000000               0.999999989              -0.000399975               0.000000000               0.999999989              -0.000415503               0.000000000               0.999999989              -0.000213025               0.000081081               0.999999989              -0.000243396               0.000069589               0.999999989              -0.000257283               0.000065549               0.999999989              -0.000265351               0.000065458               0.999999989              -0.000271604               0.000067626               0.999999989              -0.000277786               0.000071100               0.999999989              -0.000284689               0.000075406               0.999999989              -0.000292637               0.000080508               0.999999989              -0.000301799               0.000086171               0.999999989              -0.000312149               0.000092175               0.999999989              -0.000323686               0.000098283               0.999999989              -0.000336355               0.000104356               0.999999989              -0.000349997               0.000110183               0.999999989              -0.000364353               0.000115544               0.999999989              -0.000379165               0.000120156               0.999999989              -0.000394223               0.000123691               0.999999989              -0.000409253               0.000125936               0.999999989              -0.000209546               0.000161310               0.999999989              -0.000234789               0.000138457               0.999999989              -0.000245710               0.000130944               0.999999989              -0.000252210               0.000131251               0.999999989              -0.000257728               0.000135848               0.999999989              -0.000263669               0.000143010               0.999999989              -0.000270624               0.000151957               0.999999989              -0.000278865               0.000162156               0.999999989              -0.000288359               0.000173374               0.999999989              -0.000298925               0.000185230               0.999999989              -0.000310499               0.000197286               0.999999989              -0.000322906               0.000209217               0.999999989              -0.000335929               0.000220812               0.999999989              -0.000349357               0.000231464               0.999999989              -0.000363003               0.000240684               0.999999989              -0.000376715               0.000248206               0.999999989              -0.000390326               0.000253398               0.999999989              -0.000203835               0.000239840               0.999999989              -0.000220989               0.000206103               0.999999989              -0.000227684               0.000195963               0.999999989              -0.000232139               0.000197408               0.999999989              -0.000236835               0.000204958               0.999999989              -0.000242631               0.000216194               0.999999989              -0.000249840               0.000229927               0.999999989              -0.000258531               0.000245413               0.999999989              -0.000268463               0.000262089               0.999999989              -0.000279302               0.000279504               0.999999989              -0.000290851               0.000297120               0.999999989              -0.000302749               0.000314618               0.999999989              -0.000314862               0.000331449               0.999999989              -0.000327027               0.000347049               0.999999989              -0.000339077               0.000361009               0.999999989              -0.000351031               0.000373137               0.999999989              -0.000362902               0.000382954               0.999999989              -0.000196107               0.000315845               0.999999989              -0.000202789               0.000272132               0.999999989              -0.000204751               0.000260413               0.999999989              -0.000207310               0.000263757               0.999999989              -0.000211532               0.000274761               0.999999989              -0.000217609               0.000290307               0.999999989              -0.000225505               0.000308993               0.999999989              -0.000234863               0.000329784               0.999999989              -0.000245344               0.000351784               0.999999989              -0.000256526               0.000374426               0.999999989              -0.000268013               0.000397162               0.999999989              -0.000279588               0.000419432               0.999999989              -0.000291005               0.000440857               0.999999989              -0.000302163               0.000460978               0.999999989              -0.000312981               0.000479523               0.999999989              -0.000323480               0.000496459               0.999999989              -0.000333778               0.000511721               0.999999989              -0.000186341               0.000388653               0.999999989              -0.000181049               0.000336296               0.999999989              -0.000178637               0.000324107               0.999999989              -0.000180064               0.000329885               0.999999989              -0.000184633               0.000344623               0.999999989              -0.000191677               0.000364637               0.999999989              -0.000200642               0.000388164               0.999999989              -0.000210979               0.000413998               0.999999989              -0.000222157               0.000440949               0.999999989              -0.000233710               0.000468288               0.999999989              -0.000245252               0.000495599               0.999999989              -0.000256459               0.000522195               0.999999989              -0.000267112               0.000547796               0.999999989              -0.000277243               0.000572139               0.999999989              -0.000286866               0.000595024               0.999999989              -0.000296035               0.000616609               0.999999989              -0.000304745               0.000637084               0.999999989              -0.000174629               0.000457538               0.999999989              -0.000156900               0.000398472               0.999999989              -0.000151240               0.000386766               0.999999989              -0.000152748               0.000395242               0.999999989              -0.000158558               0.000413716               0.999999989              -0.000167063               0.000437940               0.999999989              -0.000177323               0.000466057               0.999999989              -0.000188741               0.000496604               0.999999989              -0.000200675               0.000527977               0.999999989              -0.000212561               0.000559577               0.999999989              -0.000223891               0.000591054               0.999999989              -0.000234403               0.000621689               0.999999989              -0.000244084               0.000651184               0.999999989              -0.000253002               0.000679548               0.999999989              -0.000261247               0.000706777               0.999999989              -0.000268890               0.000733031               0.999999989              -0.000276063               0.000758386               0.999999989              -0.000161300               0.000521643               0.999999989              -0.000131741               0.000458489               0.999999989              -0.000124449               0.000447866               0.999999989              -0.000127231               0.000458980               0.999999989              -0.000134784               0.000480941               0.999999989              -0.000144917               0.000509205               0.999999989              -0.000156664               0.000541617               0.999999989              -0.000169216               0.000576249               0.999999989              -0.000181736               0.000611672               0.999999989              -0.000193611               0.000647280               0.999999989              -0.000204385               0.000682588               0.999999989              -0.000213959               0.000716831               0.999999989              -0.000222403               0.000750084               0.999999989              -0.000229859               0.000782505               0.999999989              -0.000236623               0.000814069               0.999999989              -0.000242806               0.000844922               0.999999989              -0.000248626               0.000874994               0.999999989              -0.000147085               0.000579809               0.999999989              -0.000106653               0.000516183               0.999999989              -0.000099780               0.000506735               0.999999989              -0.000104493               0.000520185               0.999999989              -0.000114038               0.000545350               0.999999989              -0.000125979               0.000577396               0.999999989              -0.000139234               0.000613719               0.999999989              -0.000152744               0.000652213               0.999999989              -0.000165495               0.000691520               0.999999989              -0.000176936               0.000730838               0.999999989              -0.000186776               0.000769486               0.999999989              -0.000194959               0.000807272               0.999999989              -0.000201847               0.000844324               0.999999989              -0.000207850               0.000880695               0.999999989              -0.000213223               0.000916432               0.999999989              -0.000218270               0.000951367               0.999999989              -0.000223153               0.000985470               0.999999989              -0.000133006               0.000634109               0.999999989              -0.000086859               0.000577786               0.999999989              -0.000077221               0.000564097               0.999999989              -0.000080359               0.000572154               0.999999989              -0.000088512               0.000592060               0.999999989              -0.000099001               0.000619290               0.999999989              -0.000110957               0.000651222               0.999999989              -0.000123459               0.000686084               0.999999989              -0.000135527               0.000722512               0.999999989              -0.000146466               0.000759581               0.999999989              -0.000155858               0.000796673               0.999999989              -0.000163551               0.000833304               0.999999989              -0.000169548               0.000869460               0.999999989              -0.000174407               0.000905203               0.999999989              -0.000178560               0.000940594               0.999999989              -0.000182366               0.000975407               0.999999989              -0.000186089               0.001009534               0.999999989              -0.000117248               0.000683103               0.999999989              -0.000069321               0.000636692               0.999999989              -0.000057006               0.000622199               0.999999989              -0.000057997               0.000626419               0.999999989              -0.000064403               0.000641923               0.999999989              -0.000073176               0.000664794               0.999999989              -0.000083573               0.000692707               0.999999989              -0.000094820               0.000723964               0.999999989              -0.000105872               0.000757366               0.999999989              -0.000116050               0.000792024               0.999999989              -0.000124936               0.000827175               0.999999989              -0.000132099               0.000862333               0.999999989              -0.000137371               0.000897267               0.999999989              -0.000141033               0.000931834               0.999999989              -0.000143649               0.000966276               0.999999989              -0.000145644               0.001000562               0.999999989              -0.000147374               0.001034612               0.999999989              -0.000100109               0.000725883               0.999999989              -0.000053909               0.000691408               0.999999989              -0.000039853               0.000678636               0.999999989              -0.000038609               0.000680970               0.999999989              -0.000042947               0.000693421               0.999999989              -0.000049889               0.000712794               0.999999989              -0.000058497               0.000737221               0.999999989              -0.000068084               0.000765296               0.999999989              -0.000077776               0.000795911               0.999999989              -0.000086909               0.000828192               0.999999989              -0.000095002               0.000861483               0.999999989              -0.000101560               0.000895114               0.999999989              -0.000106182               0.000928795               0.999999989              -0.000108780               0.000962244               0.999999989              -0.000109659               0.000995587               0.999999989              -0.000109221               0.001028918               0.999999989              -0.000107878               0.001062332               0.999999989              -0.000081705               0.000761799               0.999999989              -0.000040486               0.000739941               0.999999989              -0.000026118               0.000730837               0.999999989              -0.000023161               0.000733036               0.999999989              -0.000025554               0.000743759               0.999999989              -0.000030576               0.000760788               0.999999989              -0.000037165               0.000782626               0.999999989              -0.000044822               0.000808183               0.999999989              -0.000052806               0.000836525               0.999999989              -0.000060447               0.000866828               0.999999989              -0.000067400               0.000898505               0.999999989              -0.000073096               0.000930997               0.999999989              -0.000077107               0.000963844               0.999999989              -0.000078751               0.000996744               0.999999989              -0.000078065               0.001029538               0.999999989              -0.000075106               0.001062230               0.999999989              -0.000069873               0.001095049               0.999999989              -0.000062247               0.000790288               0.999999989              -0.000028787               0.000780174               0.999999989              -0.000015886               0.000775802               0.999999989              -0.000012148               0.000779252               0.999999989              -0.000012967               0.000789528               0.999999989              -0.000016238               0.000805385               0.999999989              -0.000020795               0.000825656               0.999999989              -0.000026339               0.000849437               0.999999989              -0.000032302               0.000876136               0.999999989              -0.000038174               0.000905072               0.999999989              -0.000043495               0.000935714               0.999999989              -0.000047887               0.000967643               0.999999989              -0.000050989               0.001000295               0.999999989              -0.000052046               0.001033379               0.999999989              -0.000050524               0.001066549               0.999999989              -0.000045990               0.001099556               0.999999989              -0.000037844               0.001132464               0.999999989              -0.000041975               0.000810925               0.999999989              -0.000018451               0.000810273               0.999999989              -0.000008718               0.000810553               0.999999989              -0.000005391               0.000815928               0.999999989              -0.000005261               0.000826672               0.999999989              -0.000006978               0.000842285               0.999999989              -0.000009864               0.000861907               0.999999989              -0.000013260               0.000884839               0.999999989              -0.000017117               0.000910511               0.999999989              -0.000020957               0.000938604               0.999999989              -0.000024490               0.000968614               0.999999989              -0.000027432               0.001000147               0.999999989              -0.000029515               0.001032866               0.999999989              -0.000030143               0.001066385               0.999999989              -0.000028542               0.001100397               0.999999989              -0.000024100               0.001134538               0.999999989              -0.000015860               0.001168426               0.999999989              -0.000021144               0.000823343               0.999999989              -0.000009017               0.000828852               0.999999989              -0.000003778               0.000832509               0.999999989              -0.000001875               0.000839605               0.999999989              -0.000001472               0.000851140               0.999999989              -0.000002187               0.000866947               0.999999989              -0.000003526               0.000886458               0.999999989              -0.000005154               0.000909101               0.999999989              -0.000006949               0.000934444               0.999999989              -0.000008812               0.000962072               0.999999989              -0.000010557               0.000991673               0.999999989              -0.000012100               0.001022993               0.999999989              -0.000013121               0.001055725               0.999999989              -0.000013349               0.001089710               0.999999989              -0.000012349               0.001124549               0.999999989              -0.000009574               0.001159684               0.999999989              -0.000004427               0.001194599               0.999999989               0.000000000               0.000827470               0.999999989               0.000000000               0.000835111               0.999999989              -0.000000000               0.000839982               0.999999989               0.000000000               0.000847839               0.999999989              -0.000000000               0.000859784               0.999999989              -0.000000000               0.000875711               0.999999989              -0.000000000               0.000895232               0.999999989               0.000000000               0.000917811               0.999999989              -0.000000000               0.000943021               0.999999989               0.000000000               0.000970487               0.999999989               0.000000000               0.000999976               0.999999989               0.000000000               0.001031235               0.999999989              -0.000000000               0.001064119               0.999999989              -0.000000000               0.001098318               0.999999989               0.000000000               0.001133448               0.999999989              -0.000000000               0.001169046               0.999999989              -0.000000000               0.001204397               0.999999989              -0.000214194               0.000000000               0.999999989              -0.000246335               0.000000000               0.999999989              -0.000261276              -0.000000000               0.999999989              -0.000269917              -0.000000000               0.999999989              -0.000276512               0.000000000               0.999999989              -0.000282898               0.000000000               0.999999989              -0.000289819               0.000000000               0.999999989              -0.000297576               0.000000000               0.999999989              -0.000306529               0.000000000               0.999999989              -0.000316791               0.000000000               0.999999989              -0.000328332               0.000000000               0.999999989              -0.000341015               0.000000000               0.999999989              -0.000354723               0.000000000               0.999999989              -0.000369293               0.000000000               0.999999989              -0.000384467              -0.000000000               0.999999989              -0.000399975               0.000000000               0.999999989              -0.000415503               0.000000000               0.999999989              -0.000213025              -0.000081081               0.999999989              -0.000243396              -0.000069589               0.999999989              -0.000257283              -0.000065549               0.999999989              -0.000265351              -0.000065458               0.999999989              -0.000271604              -0.000067626               0.999999989              -0.000277786              -0.000071100               0.999999989              -0.000284689              -0.000075406               0.999999989              -0.000292637              -0.000080508               0.999999989              -0.000301799              -0.000086171               0.999999989              -0.000312149              -0.000092175               0.999999989              -0.000323686              -0.000098283               0.999999989              -0.000336355              -0.000104356               0.999999989              -0.000349997              -0.000110183               0.999999989              -0.000364353              -0.000115544               0.999999989              -0.000379165              -0.000120156               0.999999989              -0.000394223              -0.000123691               0.999999989              -0.000409253              -0.000125936               0.999999989              -0.000209546              -0.000161310               0.999999989              -0.000234789              -0.000138457               0.999999989              -0.000245710              -0.000130944               0.999999989              -0.000252210              -0.000131251               0.999999989              -0.000257728              -0.000135848               0.999999989              -0.000263669              -0.000143010               0.999999989              -0.000270624              -0.000151957               0.999999989              -0.000278865              -0.000162156               0.999999989              -0.000288359              -0.000173374               0.999999989              -0.000298925              -0.000185230               0.999999989              -0.000310499              -0.000197286               0.999999989              -0.000322906              -0.000209217               0.999999989              -0.000335929              -0.000220812               0.999999989              -0.000349357              -0.000231464               0.999999989              -0.000363003              -0.000240684               0.999999989              -0.000376715              -0.000248206               0.999999989              -0.000390326              -0.000253398               0.999999989              -0.000203835              -0.000239840               0.999999989              -0.000220989              -0.000206103               0.999999989              -0.000227684              -0.000195963               0.999999989              -0.000232139              -0.000197408               0.999999989              -0.000236835              -0.000204958               0.999999989              -0.000242631              -0.000216194               0.999999989              -0.000249840              -0.000229927               0.999999989              -0.000258531              -0.000245413               0.999999989              -0.000268463              -0.000262089               0.999999989              -0.000279302              -0.000279504               0.999999989              -0.000290851              -0.000297120               0.999999989              -0.000302749              -0.000314618               0.999999989              -0.000314862              -0.000331449               0.999999989              -0.000327027              -0.000347049               0.999999989              -0.000339077              -0.000361009               0.999999989              -0.000351031              -0.000373137               0.999999989              -0.000362902              -0.000382954               0.999999989              -0.000196107              -0.000315845               0.999999989              -0.000202789              -0.000272132               0.999999989              -0.000204751              -0.000260413               0.999999989              -0.000207310              -0.000263757               0.999999989              -0.000211532              -0.000274761               0.999999989              -0.000217609              -0.000290307               0.999999989              -0.000225505              -0.000308993               0.999999989              -0.000234863              -0.000329784               0.999999989              -0.000245344              -0.000351784               0.999999989              -0.000256526              -0.000374426               0.999999989              -0.000268013              -0.000397162               0.999999989              -0.000279588              -0.000419432               0.999999989              -0.000291005              -0.000440857               0.999999989              -0.000302163              -0.000460978               0.999999989              -0.000312981              -0.000479523               0.999999989              -0.000323480              -0.000496459               0.999999989              -0.000333778              -0.000511721               0.999999989              -0.000186341              -0.000388653               0.999999989              -0.000181049              -0.000336296               0.999999989              -0.000178637              -0.000324107               0.999999989              -0.000180064              -0.000329885               0.999999989              -0.000184633              -0.000344623               0.999999989              -0.000191677              -0.000364637               0.999999989              -0.000200642              -0.000388164               0.999999989              -0.000210979              -0.000413998               0.999999989              -0.000222157              -0.000440949               0.999999989              -0.000233710              -0.000468288               0.999999989              -0.000245252              -0.000495599               0.999999989              -0.000256459              -0.000522195               0.999999989              -0.000267112              -0.000547796               0.999999989              -0.000277243              -0.000572139               0.999999989              -0.000286866              -0.000595024               0.999999989              -0.000296035              -0.000616609               0.999999989              -0.000304745              -0.000637084               0.999999989              -0.000174629              -0.000457538               0.999999989              -0.000156900              -0.000398472               0.999999989              -0.000151240              -0.000386766               0.999999989              -0.000152748              -0.000395242               0.999999989              -0.000158558              -0.000413716               0.999999989              -0.000167063              -0.000437940               0.999999989              -0.000177323              -0.000466057               0.999999989              -0.000188741              -0.000496604               0.999999989              -0.000200675              -0.000527977               0.999999989              -0.000212561              -0.000559577               0.999999989              -0.000223891              -0.000591054               0.999999989              -0.000234403              -0.000621689               0.999999989              -0.000244084              -0.000651184               0.999999989              -0.000253002              -0.000679548               0.999999989              -0.000261247              -0.000706777               0.999999989              -0.000268890              -0.000733031               0.999999989              -0.000276063              -0.000758386               0.999999989              -0.000161300              -0.000521643               0.999999989              -0.000131741              -0.000458489               0.999999989              -0.000124449              -0.000447866               0.999999989              -0.000127231              -0.000458980               0.999999989              -0.000134784              -0.000480941               0.999999989              -0.000144917              -0.000509205               0.999999989              -0.000156664              -0.000541617               0.999999989              -0.000169216              -0.000576249               0.999999989              -0.000181736              -0.000611672               0.999999989              -0.000193611              -0.000647280               0.999999989              -0.000204385              -0.000682588               0.999999989              -0.000213959              -0.000716831               0.999999989              -0.000222403              -0.000750084               0.999999989              -0.000229859              -0.000782505               0.999999989              -0.000236623              -0.000814069               0.999999989              -0.000242806              -0.000844922               0.999999989              -0.000248626              -0.000874994               0.999999989              -0.000147085              -0.000579809               0.999999989              -0.000106653              -0.000516183               0.999999989              -0.000099780              -0.000506735               0.999999989              -0.000104493              -0.000520185               0.999999989              -0.000114038              -0.000545350               0.999999989              -0.000125979              -0.000577396               0.999999989              -0.000139234              -0.000613719               0.999999989              -0.000152744              -0.000652213               0.999999989              -0.000165495              -0.000691520               0.999999989              -0.000176936              -0.000730838               0.999999989              -0.000186776              -0.000769486               0.999999989              -0.000194959              -0.000807272               0.999999989              -0.000201847              -0.000844324               0.999999989              -0.000207850              -0.000880695               0.999999989              -0.000213223              -0.000916432               0.999999989              -0.000218270              -0.000951367               0.999999989              -0.000223153              -0.000985470               0.999999989              -0.000133006              -0.000634109               0.999999989              -0.000086859              -0.000577786               0.999999989              -0.000077221              -0.000564097               0.999999989              -0.000080359              -0.000572154               0.999999989              -0.000088512              -0.000592060               0.999999989              -0.000099001              -0.000619290               0.999999989              -0.000110957              -0.000651222               0.999999989              -0.000123459              -0.000686084               0.999999989              -0.000135527              -0.000722512               0.999999989              -0.000146466              -0.000759581               0.999999989              -0.000155858              -0.000796673               0.999999989              -0.000163551              -0.000833304               0.999999989              -0.000169548              -0.000869460               0.999999989              -0.000174407              -0.000905203               0.999999989              -0.000178560              -0.000940594               0.999999989              -0.000182366              -0.000975407               0.999999989              -0.000186089              -0.001009534               0.999999989              -0.000117248              -0.000683103               0.999999989              -0.000069321              -0.000636692               0.999999989              -0.000057006              -0.000622199               0.999999989              -0.000057997              -0.000626419               0.999999989              -0.000064403              -0.000641923               0.999999989              -0.000073176              -0.000664794               0.999999989              -0.000083573              -0.000692707               0.999999989              -0.000094820              -0.000723964               0.999999989              -0.000105872              -0.000757366               0.999999989              -0.000116050              -0.000792024               0.999999989              -0.000124936              -0.000827175               0.999999989              -0.000132099              -0.000862333               0.999999989              -0.000137371              -0.000897267               0.999999989              -0.000141033              -0.000931834               0.999999989              -0.000143649              -0.000966276               0.999999989              -0.000145644              -0.001000562               0.999999989              -0.000147374              -0.001034612               0.999999989              -0.000100109              -0.000725883               0.999999989              -0.000053909              -0.000691408               0.999999989              -0.000039853              -0.000678636               0.999999989              -0.000038609              -0.000680970               0.999999989              -0.000042947              -0.000693421               0.999999989              -0.000049889              -0.000712794               0.999999989              -0.000058497              -0.000737221               0.999999989              -0.000068084              -0.000765296               0.999999989              -0.000077776              -0.000795911               0.999999989              -0.000086909              -0.000828192               0.999999989              -0.000095002              -0.000861483               0.999999989              -0.000101560              -0.000895114               0.999999989              -0.000106182              -0.000928795               0.999999989              -0.000108780              -0.000962244               0.999999989              -0.000109659              -0.000995587               0.999999989              -0.000109221              -0.001028918               0.999999989              -0.000107878              -0.001062332               0.999999989              -0.000081705              -0.000761799               0.999999989              -0.000040486              -0.000739941               0.999999989              -0.000026118              -0.000730837               0.999999989              -0.000023161              -0.000733036               0.999999989              -0.000025554              -0.000743759               0.999999989              -0.000030576              -0.000760788               0.999999989              -0.000037165              -0.000782626               0.999999989              -0.000044822              -0.000808183               0.999999989              -0.000052806              -0.000836525               0.999999989              -0.000060447              -0.000866828               0.999999989              -0.000067400              -0.000898505               0.999999989              -0.000073096              -0.000930997               0.999999989              -0.000077107              -0.000963844               0.999999989              -0.000078751              -0.000996744               0.999999989              -0.000078065              -0.001029538               0.999999989              -0.000075106              -0.001062230               0.999999989              -0.000069873              -0.001095049               0.999999989              -0.000062247              -0.000790288               0.999999989              -0.000028787              -0.000780174               0.999999989              -0.000015886              -0.000775802               0.999999989              -0.000012148              -0.000779252               0.999999989              -0.000012967              -0.000789528               0.999999989              -0.000016238              -0.000805385               0.999999989              -0.000020795              -0.000825656               0.999999989              -0.000026339              -0.000849437               0.999999989              -0.000032302              -0.000876136               0.999999989              -0.000038174              -0.000905072               0.999999989              -0.000043495              -0.000935714               0.999999989              -0.000047887              -0.000967643               0.999999989              -0.000050989              -0.001000295               0.999999989              -0.000052046              -0.001033379               0.999999989              -0.000050524              -0.001066549               0.999999989              -0.000045990              -0.001099556               0.999999989              -0.000037844              -0.001132464               0.999999989              -0.000041975              -0.000810925               0.999999989              -0.000018451              -0.000810273               0.999999989              -0.000008718              -0.000810553               0.999999989              -0.000005391              -0.000815928               0.999999989              -0.000005261              -0.000826672               0.999999989              -0.000006978              -0.000842285               0.999999989              -0.000009864              -0.000861907               0.999999989              -0.000013260              -0.000884839               0.999999989              -0.000017117              -0.000910511               0.999999989              -0.000020957              -0.000938604               0.999999989              -0.000024490              -0.000968614               0.999999989              -0.000027432              -0.001000147               0.999999989              -0.000029515              -0.001032866               0.999999989              -0.000030143              -0.001066385               0.999999989              -0.000028542              -0.001100397               0.999999989              -0.000024100              -0.001134538               0.999999989              -0.000015860              -0.001168426               0.999999989              -0.000021144              -0.000823343               0.999999989              -0.000009017              -0.000828852               0.999999989              -0.000003778              -0.000832509               0.999999989              -0.000001875              -0.000839605               0.999999989              -0.000001472              -0.000851140               0.999999989              -0.000002187              -0.000866947               0.999999989              -0.000003526              -0.000886458               0.999999989              -0.000005154              -0.000909101               0.999999989              -0.000006949              -0.000934444               0.999999989              -0.000008812              -0.000962072               0.999999989              -0.000010557              -0.000991673               0.999999989              -0.000012100              -0.001022993               0.999999989              -0.000013121              -0.001055725               0.999999989              -0.000013349              -0.001089710               0.999999989              -0.000012349              -0.001124549               0.999999989              -0.000009574              -0.001159684               0.999999989              -0.000004427              -0.001194599               0.999999989               0.000000000              -0.000827470               0.999999989              -0.000000000              -0.000835111               0.999999989              -0.000000000              -0.000839982               0.999999989               0.000000000              -0.000847839               0.999999989              -0.000000000              -0.000859784               0.999999989               0.000000000              -0.000875711               0.999999989               0.000000000              -0.000895232               0.999999989               0.000000000              -0.000917811               0.999999989               0.000000000              -0.000943021               0.999999989              -0.000000000              -0.000970487               0.999999989              -0.000000000              -0.000999976               0.999999989               0.000000000              -0.001031235               0.999999989              -0.000000000              -0.001064119               0.999999989              -0.000000000              -0.001098318               0.999999989               0.000000000              -0.001133448               0.999999989              -0.000000000              -0.001169046               0.999999989               0.000000000              -0.001204397               0.999999989               0.000214194              -0.000000000               0.999999989               0.000246335              -0.000000000               0.999999989               0.000261276               0.000000000               0.999999989               0.000269917               0.000000000               0.999999989               0.000276512              -0.000000000               0.999999989               0.000282898               0.000000000               0.999999989               0.000289819               0.000000000               0.999999989               0.000297576               0.000000000               0.999999989               0.000306529               0.000000000               0.999999989               0.000316791              -0.000000000               0.999999989               0.000328332               0.000000000               0.999999989               0.000341015              -0.000000000               0.999999989               0.000354723               0.000000000               0.999999989               0.000369293              -0.000000000               0.999999989               0.000384467               0.000000000               0.999999989               0.000399975               0.000000000               0.999999989               0.000415503              -0.000000000               0.999999989               0.000213025              -0.000081081               0.999999989               0.000243396              -0.000069589               0.999999989               0.000257283              -0.000065549               0.999999989               0.000265351              -0.000065458               0.999999989               0.000271604              -0.000067626               0.999999989               0.000277786              -0.000071100               0.999999989               0.000284689              -0.000075406               0.999999989               0.000292637              -0.000080508               0.999999989               0.000301799              -0.000086171               0.999999989               0.000312149              -0.000092175               0.999999989               0.000323686              -0.000098283               0.999999989               0.000336355              -0.000104356               0.999999989               0.000349997              -0.000110183               0.999999989               0.000364353              -0.000115544               0.999999989               0.000379165              -0.000120156               0.999999989               0.000394223              -0.000123691               0.999999989               0.000409253              -0.000125936               0.999999989               0.000209546              -0.000161310               0.999999989               0.000234789              -0.000138457               0.999999989               0.000245710              -0.000130944               0.999999989               0.000252210              -0.000131251               0.999999989               0.000257728              -0.000135848               0.999999989               0.000263669              -0.000143010               0.999999989               0.000270624              -0.000151957               0.999999989               0.000278865              -0.000162156               0.999999989               0.000288359              -0.000173374               0.999999989               0.000298925              -0.000185230               0.999999989               0.000310499              -0.000197286               0.999999989               0.000322906              -0.000209217               0.999999989               0.000335929              -0.000220812               0.999999989               0.000349357              -0.000231464               0.999999989               0.000363003              -0.000240684               0.999999989               0.000376715              -0.000248206               0.999999989               0.000390326              -0.000253398               0.999999989               0.000203835              -0.000239840               0.999999989               0.000220989              -0.000206103               0.999999989               0.000227684              -0.000195963               0.999999989               0.000232139              -0.000197408               0.999999989               0.000236835              -0.000204958               0.999999989               0.000242631              -0.000216194               0.999999989               0.000249840              -0.000229927               0.999999989               0.000258531              -0.000245413               0.999999989               0.000268463              -0.000262089               0.999999989               0.000279302              -0.000279504               0.999999989               0.000290851              -0.000297120               0.999999989               0.000302749              -0.000314618               0.999999989               0.000314862              -0.000331449               0.999999989               0.000327027              -0.000347049               0.999999989               0.000339077              -0.000361009               0.999999989               0.000351031              -0.000373137               0.999999989               0.000362902              -0.000382954               0.999999989               0.000196107              -0.000315845               0.999999989               0.000202789              -0.000272132               0.999999989               0.000204751              -0.000260413               0.999999989               0.000207310              -0.000263757               0.999999989               0.000211532              -0.000274761               0.999999989               0.000217609              -0.000290307               0.999999989               0.000225505              -0.000308993               0.999999989               0.000234863              -0.000329784               0.999999989               0.000245344              -0.000351784               0.999999989               0.000256526              -0.000374426               0.999999989               0.000268013              -0.000397162               0.999999989               0.000279588              -0.000419432               0.999999989               0.000291005              -0.000440857               0.999999989               0.000302163              -0.000460978               0.999999989               0.000312981              -0.000479523               0.999999989               0.000323480              -0.000496459               0.999999989               0.000333778              -0.000511721               0.999999989               0.000186341              -0.000388653               0.999999989               0.000181049              -0.000336296               0.999999989               0.000178637              -0.000324107               0.999999989               0.000180064              -0.000329885               0.999999989               0.000184633              -0.000344623               0.999999989               0.000191677              -0.000364637               0.999999989               0.000200642              -0.000388164               0.999999989               0.000210979              -0.000413998               0.999999989               0.000222157              -0.000440949               0.999999989               0.000233710              -0.000468288               0.999999989               0.000245252              -0.000495599               0.999999989               0.000256459              -0.000522195               0.999999989               0.000267112              -0.000547796               0.999999989               0.000277243              -0.000572139               0.999999989               0.000286866              -0.000595024               0.999999989               0.000296035              -0.000616609               0.999999989               0.000304745              -0.000637084               0.999999989               0.000174629              -0.000457538               0.999999989               0.000156900              -0.000398472               0.999999989               0.000151240              -0.000386766               0.999999989               0.000152748              -0.000395242               0.999999989               0.000158558              -0.000413716               0.999999989               0.000167063              -0.000437940               0.999999989               0.000177323              -0.000466057               0.999999989               0.000188741              -0.000496604               0.999999989               0.000200675              -0.000527977               0.999999989               0.000212561              -0.000559577               0.999999989               0.000223891              -0.000591054               0.999999989               0.000234403              -0.000621689               0.999999989               0.000244084              -0.000651184               0.999999989               0.000253002              -0.000679548               0.999999989               0.000261247              -0.000706777               0.999999989               0.000268890              -0.000733031               0.999999989               0.000276063              -0.000758386               0.999999989               0.000161300              -0.000521643               0.999999989               0.000131741              -0.000458489               0.999999989               0.000124449              -0.000447866               0.999999989               0.000127231              -0.000458980               0.999999989               0.000134784              -0.000480941               0.999999989               0.000144917              -0.000509205               0.999999989               0.000156664              -0.000541617               0.999999989               0.000169216              -0.000576249               0.999999989               0.000181736              -0.000611672               0.999999989               0.000193611              -0.000647280               0.999999989               0.000204385              -0.000682588               0.999999989               0.000213959              -0.000716831               0.999999989               0.000222403              -0.000750084               0.999999989               0.000229859              -0.000782505               0.999999989               0.000236623              -0.000814069               0.999999989               0.000242806              -0.000844922               0.999999989               0.000248626              -0.000874994               0.999999989               0.000147085              -0.000579809               0.999999989               0.000106653              -0.000516183               0.999999989               0.000099780              -0.000506735               0.999999989               0.000104493              -0.000520185               0.999999989               0.000114038              -0.000545350               0.999999989               0.000125979              -0.000577396               0.999999989               0.000139234              -0.000613719               0.999999989               0.000152744              -0.000652213               0.999999989               0.000165495              -0.000691520               0.999999989               0.000176936              -0.000730838               0.999999989               0.000186776              -0.000769486               0.999999989               0.000194959              -0.000807272               0.999999989               0.000201847              -0.000844324               0.999999989               0.000207850              -0.000880695               0.999999989               0.000213223              -0.000916432               0.999999989               0.000218270              -0.000951367               0.999999989               0.000223153              -0.000985470               0.999999989               0.000133006              -0.000634109               0.999999989               0.000086859              -0.000577786               0.999999989               0.000077221              -0.000564097               0.999999989               0.000080359              -0.000572154               0.999999989               0.000088512              -0.000592060               0.999999989               0.000099001              -0.000619290               0.999999989               0.000110957              -0.000651222               0.999999989               0.000123459              -0.000686084               0.999999989               0.000135527              -0.000722512               0.999999989               0.000146466              -0.000759581               0.999999989               0.000155858              -0.000796673               0.999999989               0.000163551              -0.000833304               0.999999989               0.000169548              -0.000869460               0.999999989               0.000174407              -0.000905203               0.999999989               0.000178560              -0.000940594               0.999999989               0.000182366              -0.000975407               0.999999989               0.000186089              -0.001009534               0.999999989               0.000117248              -0.000683103               0.999999989               0.000069321              -0.000636692               0.999999989               0.000057006              -0.000622199               0.999999989               0.000057997              -0.000626419               0.999999989               0.000064403              -0.000641923               0.999999989               0.000073176              -0.000664794               0.999999989               0.000083573              -0.000692707               0.999999989               0.000094820              -0.000723964               0.999999989               0.000105872              -0.000757366               0.999999989               0.000116050              -0.000792024               0.999999989               0.000124936              -0.000827175               0.999999989               0.000132099              -0.000862333               0.999999989               0.000137371              -0.000897267               0.999999989               0.000141033              -0.000931834               0.999999989               0.000143649              -0.000966276               0.999999989               0.000145644              -0.001000562               0.999999989               0.000147374              -0.001034612               0.999999989               0.000100109              -0.000725883               0.999999989               0.000053909              -0.000691408               0.999999989               0.000039853              -0.000678636               0.999999989               0.000038609              -0.000680970               0.999999989               0.000042947              -0.000693421               0.999999989               0.000049889              -0.000712794               0.999999989               0.000058497              -0.000737221               0.999999989               0.000068084              -0.000765296               0.999999989               0.000077776              -0.000795911               0.999999989               0.000086909              -0.000828192               0.999999989               0.000095002              -0.000861483               0.999999989               0.000101560              -0.000895114               0.999999989               0.000106182              -0.000928795               0.999999989               0.000108780              -0.000962244               0.999999989               0.000109659              -0.000995587               0.999999989               0.000109221              -0.001028918               0.999999989               0.000107878              -0.001062332               0.999999989               0.000081705              -0.000761799               0.999999989               0.000040486              -0.000739941               0.999999989               0.000026118              -0.000730837               0.999999989               0.000023161              -0.000733036               0.999999989               0.000025554              -0.000743759               0.999999989               0.000030576              -0.000760788               0.999999989               0.000037165              -0.000782626               0.999999989               0.000044822              -0.000808183               0.999999989               0.000052806              -0.000836525               0.999999989               0.000060447              -0.000866828               0.999999989               0.000067400              -0.000898505               0.999999989               0.000073096              -0.000930997               0.999999989               0.000077107              -0.000963844               0.999999989               0.000078751              -0.000996744               0.999999989               0.000078065              -0.001029538               0.999999989               0.000075106              -0.001062230               0.999999989               0.000069873              -0.001095049               0.999999989               0.000062247              -0.000790288               0.999999989               0.000028787              -0.000780174               0.999999989               0.000015886              -0.000775802               0.999999989               0.000012148              -0.000779252               0.999999989               0.000012967              -0.000789528               0.999999989               0.000016238              -0.000805385               0.999999989               0.000020795              -0.000825656               0.999999989               0.000026339              -0.000849437               0.999999989               0.000032302              -0.000876136               0.999999989               0.000038174              -0.000905072               0.999999989               0.000043495              -0.000935714               0.999999989               0.000047887              -0.000967643               0.999999989               0.000050989              -0.001000295               0.999999989               0.000052046              -0.001033379               0.999999989               0.000050524              -0.001066549               0.999999989               0.000045990              -0.001099556               0.999999989               0.000037844              -0.001132464               0.999999989               0.000041975              -0.000810925               0.999999989               0.000018451              -0.000810273               0.999999989               0.000008718              -0.000810553               0.999999989               0.000005391              -0.000815928               0.999999989               0.000005261              -0.000826672               0.999999989               0.000006978              -0.000842285               0.999999989               0.000009864              -0.000861907               0.999999989               0.000013260              -0.000884839               0.999999989               0.000017117              -0.000910511               0.999999989               0.000020957              -0.000938604               0.999999989               0.000024490              -0.000968614               0.999999989               0.000027432              -0.001000147               0.999999989               0.000029515              -0.001032866               0.999999989               0.000030143              -0.001066385               0.999999989               0.000028542              -0.001100397               0.999999989               0.000024100              -0.001134538               0.999999989               0.000015860              -0.001168426               0.999999989               0.000021144              -0.000823343               0.999999989               0.000009017              -0.000828852               0.999999989               0.000003778              -0.000832509               0.999999989               0.000001875              -0.000839605               0.999999989               0.000001472              -0.000851140               0.999999989               0.000002187              -0.000866947               0.999999989               0.000003526              -0.000886458               0.999999989               0.000005154              -0.000909101               0.999999989               0.000006949              -0.000934444               0.999999989               0.000008812              -0.000962072               0.999999989               0.000010557              -0.000991673               0.999999989               0.000012100              -0.001022993               0.999999989               0.000013121              -0.001055725               0.999999989               0.000013349              -0.001089710               0.999999989               0.000012349              -0.001124549               0.999999989               0.000009574              -0.001159684               0.999999989               0.000004427              -0.001194599               0.999999989               0.000000000              -0.000827470               0.999999989              -0.000000000              -0.000835111               0.999999989              -0.000000000              -0.000839982               0.999999989               0.000000000              -0.000847839               0.999999989              -0.000000000              -0.000859784               0.999999989               0.000000000              -0.000875711               0.999999989               0.000000000              -0.000895232               0.999999989               0.000000000              -0.000917811               0.999999989               0.000000000              -0.000943021               0.999999989              -0.000000000              -0.000970487               0.999999989              -0.000000000              -0.000999976               0.999999989               0.000000000              -0.001031235               0.999999989              -0.000000000              -0.001064119               0.999999989              -0.000000000              -0.001098318               0.999999989               0.000000000              -0.001133448               0.999999989              -0.000000000              -0.001169046               0.999999989               0.000000000              -0.001204397               0.999999989               0.000214194              -0.000000000               0.999999989               0.000246335              -0.000000000               0.999999989               0.000261276               0.000000000               0.999999989               0.000269917               0.000000000               0.999999989               0.000276512              -0.000000000               0.999999989               0.000282898               0.000000000               0.999999989               0.000289819               0.000000000               0.999999989               0.000297576               0.000000000               0.999999989               0.000306529               0.000000000               0.999999989               0.000316791              -0.000000000               0.999999989               0.000328332               0.000000000               0.999999989               0.000341015              -0.000000000               0.999999989               0.000354723               0.000000000               0.999999989               0.000369293              -0.000000000               0.999999989               0.000384467               0.000000000               0.999999989               0.000399975               0.000000000               0.999999989               0.000415503              -0.000000000               0.999999989               0.000213025               0.000081081               0.999999989               0.000243396               0.000069589               0.999999989               0.000257283               0.000065549               0.999999989               0.000265351               0.000065458               0.999999989               0.000271604               0.000067626               0.999999989               0.000277786               0.000071100               0.999999989               0.000284689               0.000075406               0.999999989               0.000292637               0.000080508               0.999999989               0.000301799               0.000086171               0.999999989               0.000312149               0.000092175               0.999999989               0.000323686               0.000098283               0.999999989               0.000336355               0.000104356               0.999999989               0.000349997               0.000110183               0.999999989               0.000364353               0.000115544               0.999999989               0.000379165               0.000120156               0.999999989               0.000394223               0.000123691               0.999999989               0.000409253               0.000125936               0.999999989               0.000209546               0.000161310               0.999999989               0.000234789               0.000138457               0.999999989               0.000245710               0.000130944               0.999999989               0.000252210               0.000131251               0.999999989               0.000257728               0.000135848               0.999999989               0.000263669               0.000143010               0.999999989               0.000270624               0.000151957               0.999999989               0.000278865               0.000162156               0.999999989               0.000288359               0.000173374               0.999999989               0.000298925               0.000185230               0.999999989               0.000310499               0.000197286               0.999999989               0.000322906               0.000209217               0.999999989               0.000335929               0.000220812               0.999999989               0.000349357               0.000231464               0.999999989               0.000363003               0.000240684               0.999999989               0.000376715               0.000248206               0.999999989               0.000390326               0.000253398               0.999999989               0.000203835               0.000239840               0.999999989               0.000220989               0.000206103               0.999999989               0.000227684               0.000195963               0.999999989               0.000232139               0.000197408               0.999999989               0.000236835               0.000204958               0.999999989               0.000242631               0.000216194               0.999999989               0.000249840               0.000229927               0.999999989               0.000258531               0.000245413               0.999999989               0.000268463               0.000262089               0.999999989               0.000279302               0.000279504               0.999999989               0.000290851               0.000297120               0.999999989               0.000302749               0.000314618               0.999999989               0.000314862               0.000331449               0.999999989               0.000327027               0.000347049               0.999999989               0.000339077               0.000361009               0.999999989               0.000351031               0.000373137               0.999999989               0.000362902               0.000382954               0.999999989               0.000196107               0.000315845               0.999999989               0.000202789               0.000272132               0.999999989               0.000204751               0.000260413               0.999999989               0.000207310               0.000263757               0.999999989               0.000211532               0.000274761               0.999999989               0.000217609               0.000290307               0.999999989               0.000225505               0.000308993               0.999999989               0.000234863               0.000329784               0.999999989               0.000245344               0.000351784               0.999999989               0.000256526               0.000374426               0.999999989               0.000268013               0.000397162               0.999999989               0.000279588               0.000419432               0.999999989               0.000291005               0.000440857               0.999999989               0.000302163               0.000460978               0.999999989               0.000312981               0.000479523               0.999999989               0.000323480               0.000496459               0.999999989               0.000333778               0.000511721               0.999999989               0.000186341               0.000388653               0.999999989               0.000181049               0.000336296               0.999999989               0.000178637               0.000324107               0.999999989               0.000180064               0.000329885               0.999999989               0.000184633               0.000344623               0.999999989               0.000191677               0.000364637               0.999999989               0.000200642               0.000388164               0.999999989               0.000210979               0.000413998               0.999999989               0.000222157               0.000440949               0.999999989               0.000233710               0.000468288               0.999999989               0.000245252               0.000495599               0.999999989               0.000256459               0.000522195               0.999999989               0.000267112               0.000547796               0.999999989               0.000277243               0.000572139               0.999999989               0.000286866               0.000595024               0.999999989               0.000296035               0.000616609               0.999999989               0.000304745               0.000637084               0.999999989               0.000174629               0.000457538               0.999999989               0.000156900               0.000398472               0.999999989               0.000151240               0.000386766               0.999999989               0.000152748               0.000395242               0.999999989               0.000158558               0.000413716               0.999999989               0.000167063               0.000437940               0.999999989               0.000177323               0.000466057               0.999999989               0.000188741               0.000496604               0.999999989               0.000200675               0.000527977               0.999999989               0.000212561               0.000559577               0.999999989               0.000223891               0.000591054               0.999999989               0.000234403               0.000621689               0.999999989               0.000244084               0.000651184               0.999999989               0.000253002               0.000679548               0.999999989               0.000261247               0.000706777               0.999999989               0.000268890               0.000733031               0.999999989               0.000276063               0.000758386               0.999999989               0.000161300               0.000521643               0.999999989               0.000131741               0.000458489               0.999999989               0.000124449               0.000447866               0.999999989               0.000127231               0.000458980               0.999999989               0.000134784               0.000480941               0.999999989               0.000144917               0.000509205               0.999999989               0.000156664               0.000541617               0.999999989               0.000169216               0.000576249               0.999999989               0.000181736               0.000611672               0.999999989               0.000193611               0.000647280               0.999999989               0.000204385               0.000682588               0.999999989               0.000213959               0.000716831               0.999999989               0.000222403               0.000750084               0.999999989               0.000229859               0.000782505               0.999999989               0.000236623               0.000814069               0.999999989               0.000242806               0.000844922               0.999999989               0.000248626               0.000874994               0.999999989               0.000147085               0.000579809               0.999999989               0.000106653               0.000516183               0.999999989               0.000099780               0.000506735               0.999999989               0.000104493               0.000520185               0.999999989               0.000114038               0.000545350               0.999999989               0.000125979               0.000577396               0.999999989               0.000139234               0.000613719               0.999999989               0.000152744               0.000652213               0.999999989               0.000165495               0.000691520               0.999999989               0.000176936               0.000730838               0.999999989               0.000186776               0.000769486               0.999999989               0.000194959               0.000807272               0.999999989               0.000201847               0.000844324               0.999999989               0.000207850               0.000880695               0.999999989               0.000213223               0.000916432               0.999999989               0.000218270               0.000951367               0.999999989               0.000223153               0.000985470               0.999999989               0.000133006               0.000634109               0.999999989               0.000086859               0.000577786               0.999999989               0.000077221               0.000564097               0.999999989               0.000080359               0.000572154               0.999999989               0.000088512               0.000592060               0.999999989               0.000099001               0.000619290               0.999999989               0.000110957               0.000651222               0.999999989               0.000123459               0.000686084               0.999999989               0.000135527               0.000722512               0.999999989               0.000146466               0.000759581               0.999999989               0.000155858               0.000796673               0.999999989               0.000163551               0.000833304               0.999999989               0.000169548               0.000869460               0.999999989               0.000174407               0.000905203               0.999999989               0.000178560               0.000940594               0.999999989               0.000182366               0.000975407               0.999999989               0.000186089               0.001009534               0.999999989               0.000117248               0.000683103               0.999999989               0.000069321               0.000636692               0.999999989               0.000057006               0.000622199               0.999999989               0.000057997               0.000626419               0.999999989               0.000064403               0.000641923               0.999999989               0.000073176               0.000664794               0.999999989               0.000083573               0.000692707               0.999999989               0.000094820               0.000723964               0.999999989               0.000105872               0.000757366               0.999999989               0.000116050               0.000792024               0.999999989               0.000124936               0.000827175               0.999999989               0.000132099               0.000862333               0.999999989               0.000137371               0.000897267               0.999999989               0.000141033               0.000931834               0.999999989               0.000143649               0.000966276               0.999999989               0.000145644               0.001000562               0.999999989               0.000147374               0.001034612               0.999999989               0.000100109               0.000725883               0.999999989               0.000053909               0.000691408               0.999999989               0.000039853               0.000678636               0.999999989               0.000038609               0.000680970               0.999999989               0.000042947               0.000693421               0.999999989               0.000049889               0.000712794               0.999999989               0.000058497               0.000737221               0.999999989               0.000068084               0.000765296               0.999999989               0.000077776               0.000795911               0.999999989               0.000086909               0.000828192               0.999999989               0.000095002               0.000861483               0.999999989               0.000101560               0.000895114               0.999999989               0.000106182               0.000928795               0.999999989               0.000108780               0.000962244               0.999999989               0.000109659               0.000995587               0.999999989               0.000109221               0.001028918               0.999999989               0.000107878               0.001062332               0.999999989               0.000081705               0.000761799               0.999999989               0.000040486               0.000739941               0.999999989               0.000026118               0.000730837               0.999999989               0.000023161               0.000733036               0.999999989               0.000025554               0.000743759               0.999999989               0.000030576               0.000760788               0.999999989               0.000037165               0.000782626               0.999999989               0.000044822               0.000808183               0.999999989               0.000052806               0.000836525               0.999999989               0.000060447               0.000866828               0.999999989               0.000067400               0.000898505               0.999999989               0.000073096               0.000930997               0.999999989               0.000077107               0.000963844               0.999999989               0.000078751               0.000996744               0.999999989               0.000078065               0.001029538               0.999999989               0.000075106               0.001062230               0.999999989               0.000069873               0.001095049               0.999999989               0.000062247               0.000790288               0.999999989               0.000028787               0.000780174               0.999999989               0.000015886               0.000775802               0.999999989               0.000012148               0.000779252               0.999999989               0.000012967               0.000789528               0.999999989               0.000016238               0.000805385               0.999999989               0.000020795               0.000825656               0.999999989               0.000026339               0.000849437               0.999999989               0.000032302               0.000876136               0.999999989               0.000038174               0.000905072               0.999999989               0.000043495               0.000935714               0.999999989               0.000047887               0.000967643               0.999999989               0.000050989               0.001000295               0.999999989               0.000052046               0.001033379               0.999999989               0.000050524               0.001066549               0.999999989               0.000045990               0.001099556               0.999999989               0.000037844               0.001132464               0.999999989               0.000041975               0.000810925               0.999999989               0.000018451               0.000810273               0.999999989               0.000008718               0.000810553               0.999999989               0.000005391               0.000815928               0.999999989               0.000005261               0.000826672               0.999999989               0.000006978               0.000842285               0.999999989               0.000009864               0.000861907               0.999999989               0.000013260               0.000884839               0.999999989               0.000017117               0.000910511               0.999999989               0.000020957               0.000938604               0.999999989               0.000024490               0.000968614               0.999999989               0.000027432               0.001000147               0.999999989               0.000029515               0.001032866               0.999999989               0.000030143               0.001066385               0.999999989               0.000028542               0.001100397               0.999999989               0.000024100               0.001134538               0.999999989               0.000015860               0.001168426               0.999999989               0.000021144               0.000823343               0.999999989               0.000009017               0.000828852               0.999999989               0.000003778               0.000832509               0.999999989               0.000001875               0.000839605               0.999999989               0.000001472               0.000851140               0.999999989               0.000002187               0.000866947               0.999999989               0.000003526               0.000886458               0.999999989               0.000005154               0.000909101               0.999999989               0.000006949               0.000934444               0.999999989               0.000008812               0.000962072               0.999999989               0.000010557               0.000991673               0.999999989               0.000012100               0.001022993               0.999999989               0.000013121               0.001055725               0.999999989               0.000013349               0.001089710               0.999999989               0.000012349               0.001124549               0.999999989               0.000009574               0.001159684               0.999999989               0.000004427               0.001194599               0.999999989               0.000000000               0.000827470               0.999999989               0.000000000               0.000835111               0.999999989              -0.000000000               0.000839982               0.999999989               0.000000000               0.000847839               0.999999989              -0.000000000               0.000859784               0.999999989              -0.000000000               0.000875711               0.999999989              -0.000000000               0.000895232               0.999999989               0.000000000               0.000917811               0.999999989              -0.000000000               0.000943021               0.999999989               0.000000000               0.000970487               0.999999989               0.000000000               0.000999976               0.999999989               0.000000000               0.001031235               0.999999989              -0.000000000               0.001064119               0.999999989              -0.000000000               0.001098318               0.999999989               0.000000000               0.001133448               0.999999989              -0.000000000               0.001169046               0.999999989              -0.000000000               0.001204397               0.999999989 </DataArray>
<DataArray type="Float64"                                    Name="defo"                                                      NumberOfComponents=" 3" format="ascii">
             -0.000214194               0.000000000               0.999999989              -0.000246335               0.000000000               0.999999989              -0.000261276              -0.000000000               0.999999989              -0.000269917              -0.000000000               0.999999989              -0.000276512               0.000000000               0.999999989              -0.000282898               0.000000000               0.999999989              -0.000289819               0.000000000               0.999999989              -0.000297576               0.000000000               0.999999989              -0.000306529               0.000000000               0.999999989              -0.000316791               0.000000000               0.999999989              -0.000328332               0.000000000               0.999999989              -0.000341015               0.000000000               0.999999989              -0.000354723               0.000000000               0.999999989              -0.000369293               0.000000000               0.999999989              -0.000384467              -0.000000000               0.999999989              -0.000399975               0.000000000               0.999999989              -0.000415503               0.000000000               0.999999989              -0.000213025               0.000081081               0.999999989              -0.000243396               0.000069589               0.999999989              -0.000257283               0.000065549               0.999999989              -0.000265351               0.000065458               0.999999989              -0.000271604               0.000067626               0.999999989              -0.000277786               0.000071100               0.999999989              -0.000284689               0.000075406               0.999999989              -0.000292637               0.000080508               0.999999989              -0.000301799               0.000086171               0.999999989              -0.000312149               0.000092175               0.999999989              -0.000323686               0.000098283               0.999999989              -0.000336355               0.000104356               0.999999989              -0.000349997               0.000110183               0.999999989              -0.000364353               0.000115544               0.999999989              -0.000379165               0.000120156               0.999999989              -0.000394223               0.000123691               0.999999989              -0.000409253               0.000125936               0.999999989              -0.000209546               0.000161310               0.999999989              -0.000234789               0.000138457               0.999999989              -0.000245710               0.000130944               0.999999989              -0.000252210               0.000131251               0.999999989              -0.000257728               0.000135848               0.999999989              -0.000263669               0.000143010               0.999999989              -0.000270624               0.000151957               0.999999989              -0.000278865               0.000162156               0.999999989              -0.000288359               0.000173374               0.999999989              -0.000298925               0.000185230               0.999999989              -0.000310499               0.000197286               0.999999989              -0.000322906               0.000209217               0.999999989              -0.000335929               0.000220812               0.999999989              -0.000349357               0.000231464               0.999999989              -0.000363003               0.000240684               0.999999989              -0.000376715               0.000248206               0.999999989              -0.000390326               0.000253398               0.999999989              -0.000203835               0.000239840               0.999999989              -0.000220989               0.000206103               0.999999989              -0.000227684               0.000195963               0.999999989              -0.000232139               0.000197408               0.999999989              -0.000236835               0.000204958               0.999999989              -0.000242631               0.000216194               0.999999989              -0.000249840               0.000229927               0.999999989              -0.000258531               0.000245413               0.999999989              -0.000268463               0.000262089               0.999999989              -0.000279302               0.000279504               0.999999989              -0.000290851               0.000297120               0.999999989              -0.000302749               0.000314618               0.999999989              -0.000314862               0.000331449               0.999999989              -0.000327027               0.000347049               0.999999989              -0.000339077               0.000361009               0.999999989              -0.000351031               0.000373137               0.999999989              -0.000362902               0.000382954               0.999999989              -0.000196107               0.000315845               0.999999989              -0.000202789               0.000272132               0.999999989              -0.000204751               0.000260413               0.999999989              -0.000207310               0.000263757               0.999999989              -0.000211532               0.000274761               0.999999989              -0.000217609               0.000290307               0.999999989              -0.000225505               0.000308993               0.999999989              -0.000234863               0.000329784               0.999999989              -0.000245344               0.000351784               0.999999989              -0.000256526               0.000374426               0.999999989              -0.000268013               0.000397162               0.999999989              -0.000279588               0.000419432               0.999999989              -0.000291005               0.000440857               0.999999989              -0.000302163               0.000460978               0.999999989              -0.000312981               0.000479523               0.999999989              -0.000323480               0.000496459               0.999999989              -0.000333778               0.000511721               0.999999989              -0.000186341               0.000388653               0.999999989              -0.000181049               0.000336296               0.999999989              -0.000178637               0.000324107               0.999999989              -0.000180064               0.000329885               0.999999989              -0.000184633               0.000344623               0.999999989              -0.000191677               0.000364637               0.999999989              -0.000200642               0.000388164               0.999999989              -0.000210979               0.000413998               0.999999989              -0.000222157               0.000440949               0.999999989              -0.000233710               0.000468288               0.999999989              -0.000245252               0.000495599               0.999999989              -0.000256459               0.000522195               0.999999989              -0.000267112               0.000547796               0.999999989              -0.000277243               0.000572139               0.999999989              -0.000286866               0.000595024               0.999999989              -0.000296035               0.000616609               0.999999989              -0.000304745               0.000637084               0.999999989              -0.000174629               0.000457538               0.999999989              -0.000156900               0.000398472               0.999999989              -0.000151240               0.000386766               0.999999989              -0.000152748               0.000395242               0.999999989              -0.000158558               0.000413716               0.999999989              -0.000167063               0.000437940               0.999999989              -0.000177323               0.000466057               0.999999989              -0.000188741               0.000496604               0.999999989              -0.000200675               0.000527977               0.999999989              -0.000212561               0.000559577               0.999999989              -0.000223891               0.000591054               0.999999989              -0.000234403               0.000621689               0.999999989              -0.000244084               0.000651184               0.999999989              -0.000253002               0.000679548               0.999999989              -0.000261247               0.000706777               0.999999989              -0.000268890               0.000733031               0.999999989              -0.000276063               0.000758386               0.999999989              -0.000161300               0.000521643               0.999999989              -0.000131741               0.000458489               0.999999989              -0.000124449               0.000447866               0.999999989              -0.000127231               0.000458980               0.999999989              -0.000134784               0.000480941               0.999999989              -0.000144917               0.000509205               0.999999989              -0.000156664               0.000541617               0.999999989              -0.000169216               0.000576249               0.999999989              -0.000181736               0.000611672               0.999999989              -0.000193611               0.000647280               0.999999989              -0.000204385               0.000682588               0.999999989              -0.000213959               0.000716831               0.999999989              -0.000222403               0.000750084               0.999999989              -0.000229859               0.000782505               0.999999989              -0.000236623               0.000814069               0.999999989              -0.000242806               0.000844922               0.999999989              -0.000248626               0.000874994               0.999999989              -0.000147085               0.000579809               0.999999989              -0.000106653               0.000516183               0.999999989              -0.000099780               0.000506735               0.999999989              -0.000104493               0.000520185               0.999999989              -0.000114038               0.000545350               0.999999989              -0.000125979               0.000577396               0.999999989              -0.000139234               0.000613719               0.999999989              -0.000152744               0.000652213               0.999999989              -0.000165495               0.000691520               0.999999989              -0.000176936               0.000730838               0.999999989              -0.000186776               0.000769486               0.999999989              -0.000194959               0.000807272               0.999999989              -0.000201847               0.000844324               0.999999989              -0.000207850               0.000880695               0.999999989              -0.000213223               0.000916432               0.999999989              -0.000218270               0.000951367               0.999999989              -0.000223153               0.000985470               0.999999989              -0.000133006               0.000634109               0.999999989              -0.000086859               0.000577786               0.999999989              -0.000077221               0.000564097               0.999999989              -0.000080359               0.000572154               0.999999989              -0.000088512               0.000592060               0.999999989              -0.000099001               0.000619290               0.999999989              -0.000110957               0.000651222               0.999999989              -0.000123459               0.000686084               0.999999989              -0.000135527               0.000722512               0.999999989              -0.000146466               0.000759581               0.999999989              -0.000155858               0.000796673               0.999999989              -0.000163551               0.000833304               0.999999989              -0.000169548               0.000869460               0.999999989              -0.000174407               0.000905203               0.999999989              -0.000178560               0.000940594               0.999999989              -0.000182366               0.000975407               0.999999989              -0.000186089               0.001009534               0.999999989              -0.000117248               0.000683103               0.999999989              -0.000069321               0.000636692               0.999999989              -0.000057006               0.000622199               0.999999989              -0.000057997               0.000626419               0.999999989              -0.000064403               0.000641923               0.999999989              -0.000073176               0.000664794               0.999999989              -0.000083573               0.000692707               0.999999989              -0.000094820               0.000723964               0.999999989              -0.000105872               0.000757366               0.999999989              -0.000116050               0.000792024               0.999999989              -0.000124936               0.000827175               0.999999989              -0.000132099               0.000862333               0.999999989              -0.000137371               0.000897267               0.999999989              -0.000141033               0.000931834               0.999999989              -0.000143649               0.000966276               0.999999989              -0.000145644               0.001000562               0.999999989              -0.000147374               0.001034612               0.999999989              -0.000100109               0.000725883               0.999999989              -0.000053909               0.000691408               0.999999989              -0.000039853               0.000678636               0.999999989              -0.000038609               0.000680970               0.999999989              -0.000042947               0.000693421               0.999999989              -0.000049889               0.000712794               0.999999989              -0.000058497               0.000737221               0.999999989              -0.000068084               0.000765296               0.999999989              -0.000077776               0.000795911               0.999999989              -0.000086909               0.000828192               0.999999989              -0.000095002               0.000861483               0.999999989              -0.000101560               0.000895114               0.999999989              -0.000106182               0.000928795               0.999999989              -0.000108780               0.000962244               0.999999989              -0.000109659               0.000995587               0.999999989              -0.000109221               0.001028918               0.999999989              -0.000107878               0.001062332               0.999999989              -0.000081705               0.000761799               0.999999989              -0.000040486               0.000739941               0.999999989              -0.000026118               0.000730837               0.999999989              -0.000023161               0.000733036               0.999999989              -0.000025554               0.000743759               0.999999989              -0.000030576               0.000760788               0.999999989              -0.000037165               0.000782626               0.999999989              -0.000044822               0.000808183               0.999999989              -0.000052806               0.000836525               0.999999989              -0.000060447               0.000866828               0.999999989              -0.000067400               0.000898505               0.999999989              -0.000073096               0.000930997               0.999999989              -0.000077107               0.000963844               0.999999989              -0.000078751               0.000996744               0.999999989              -0.000078065               0.001029538               0.999999989              -0.000075106               0.001062230               0.999999989              -0.000069873               0.001095049               0.999999989              -0.000062247               0.000790288               0.999999989              -0.000028787               0.000780174               0.999999989              -0.000015886               0.000775802               0.999999989              -0.000012148               0.000779252               0.999999989              -0.000012967               0.000789528               0.999999989              -0.000016238               0.000805385               0.999999989              -0.000020795               0.000825656               0.999999989              -0.000026339               0.000849437               0.999999989              -0.000032302               0.000876136               0.999999989              -0.000038174               0.000905072               0.999999989              -0.000043495               0.000935714               0.999999989              -0.000047887               0.000967643               0.999999989              -0.000050989               0.001000295               0.999999989              -0.000052046               0.001033379               0.999999989              -0.000050524               0.001066549               0.999999989              -0.000045990               0.001099556               0.999999989              -0.000037844               0.001132464               0.999999989              -0.000041975               0.000810925               0.999999989              -0.000018451               0.000810273               0.999999989              -0.000008718               0.000810553               0.999999989              -0.000005391               0.000815928               0.999999989              -0.000005261               0.000826672               0.999999989              -0.000006978               0.000842285               0.999999989              -0.000009864               0.000861907               0.999999989              -0.000013260               0.000884839               0.999999989              -0.000017117               0.000910511               0.999999989              -0.000020957               0.000938604               0.999999989              -0.000024490               0.000968614               0.999999989              -0.000027432               0.001000147               0.999999989              -0.000029515               0.001032866               0.999999989              -0.000030143               0.001066385               0.999999989              -0.000028542               0.001100397               0.999999989              -0.000024100               0.001134538               0.999999989              -0.000015860               0.001168426               0.999999989              -0.000021144               0.000823343               0.999999989              -0.000009017               0.000828852               0.999999989              -0.000003778               0.000832509               0.999999989              -0.000001875               0.000839605               0.999999989              -0.000001472               0.000851140               0.999999989              -0.000002187               0.000866947               0.999999989              -0.000003526               0.000886458               0.999999989              -0.000005154               0.000909101               0.999999989              -0.000006949               0.000934444               0.999999989              -0.000008812               0.000962072               0.999999989              -0.000010557               0.000991673               0.999999989              -0.000012100               0.001022993               0.999999989              -0.000013121               0.001055725               0.999999989              -0.000013349               0.001089710               0.999999989              -0.000012349               0.001124549               0.999999989              -0.000009574               0.001159684               0.999999989              -0.000004427               0.001194599               0.999999989               0.000000000               0.000827470               0.999999989               0.000000000               0.000835111               0.999999989              -0.000000000               0.000839982               0.999999989               0.000000000               0.000847839               0.999999989              -0.000000000               0.000859784               0.999999989              -0.000000000               0.000875711               0.999999989              -0.000000000               0.000895232               0.999999989               0.000000000               0.000917811               0.999999989              -0.000000000               0.000943021               0.999999989               0.000000000               0.000970487               0.999999989               0.000000000               0.000999976               0.999999989               0.000000000               0.001031235               0.999999989              -0.000000000               0.001064119               0.999999989              -0.000000000               0.001098318               0.999999989               0.000000000               0.001133448               0.999999989              -0.000000000               0.001169046               0.999999989              -0.000000000               0.001204397               0.999999989              -0.000214194               0.000000000               0.999999989              -0.000246335               0.000000000               0.999999989              -0.000261276              -0.000000000               0.999999989              -0.000269917              -0.000000000               0.999999989              -0.000276512               0.000000000               0.999999989              -0.000282898               0.000000000               0.999999989              -0.000289819               0.000000000               0.999999989              -0.000297576               0.000000000               0.999999989              -0.000306529               0.000000000               0.999999989              -0.000316791               0.000000000               0.999999989              -0.000328332               0.000000000               0.999999989              -0.000341015               0.000000000               0.999999989              -0.000354723               0.000000000               0.999999989              -0.000369293               0.000000000               0.999999989              -0.000384467              -0.000000000               0.999999989              -0.000399975               0.000000000               0.999999989              -0.000415503               0.000000000               0.999999989              -0.000213025              -0.000081081               0.999999989              -0.000243396              -0.000069589               0.999999989              -0.000257283              -0.000065549               0.999999989              -0.000265351              -0.000065458               0.999999989              -0.000271604              -0.000067626               0.999999989              -0.000277786              -0.000071100               0.999999989              -0.000284689              -0.000075406               0.999999989              -0.000292637              -0.000080508               0.999999989              -0.000301799              -0.000086171               0.999999989              -0.000312149              -0.000092175               0.999999989              -0.000323686              -0.000098283               0.999999989              -0.000336355              -0.000104356               0.999999989              -0.000349997              -0.000110183               0.999999989              -0.000364353              -0.000115544               0.999999989              -0.000379165              -0.000120156               0.999999989              -0.000394223              -0.000123691               0.999999989              -0.000409253              -0.000125936               0.999999989              -0.000209546              -0.000161310               0.999999989              -0.000234789              -0.000138457               0.999999989              -0.000245710              -0.000130944               0.999999989              -0.000252210              -0.000131251               0.999999989              -0.000257728              -0.000135848               0.999999989              -0.000263669              -0.000143010               0.999999989              -0.000270624              -0.000151957               0.999999989              -0.000278865              -0.000162156               0.999999989              -0.000288359              -0.000173374               0.999999989              -0.000298925              -0.000185230               0.999999989              -0.000310499              -0.000197286               0.999999989              -0.000322906              -0.000209217               0.999999989              -0.000335929              -0.000220812               0.999999989              -0.000349357              -0.000231464               0.999999989              -0.000363003              -0.000240684               0.999999989              -0.000376715              -0.000248206               0.999999989              -0.000390326              -0.000253398               0.999999989              -0.000203835              -0.000239840               0.999999989              -0.000220989              -0.000206103               0.999999989              -0.000227684              -0.000195963               0.999999989              -0.000232139              -0.000197408               0.999999989              -0.000236835              -0.000204958               0.999999989              -0.000242631              -0.000216194               0.999999989              -0.000249840              -0.000229927               0.999999989              -0.000258531              -0.000245413               0.999999989              -0.000268463              -0.000262089               0.999999989              -0.000279302              -0.000279504               0.999999989              -0.000290851              -0.000297120               0.999999989              -0.000302749              -0.000314618               0.999999989              -0.000314862              -0.000331449               0.999999989              -0.000327027              -0.000347049               0.999999989              -0.000339077              -0.000361009               0.999999989              -0.000351031              -0.000373137               0.999999989              -0.000362902              -0.000382954               0.999999989              -0.000196107              -0.000315845               0.999999989              -0.000202789              -0.000272132               0.999999989              -0.000204751              -0.000260413               0.999999989              -0.000207310              -0.000263757               0.999999989              -0.000211532              -0.000274761               0.999999989              -0.000217609              -0.000290307               0.999999989              -0.000225505              -0.000308993               0.999999989              -0.000234863              -0.000329784               0.999999989              -0.000245344              -0.000351784               0.999999989              -0.000256526              -0.000374426               0.999999989              -0.000268013              -0.000397162               0.999999989              -0.000279588              -0.000419432               0.999999989              -0.000291005              -0.000440857               0.999999989              -0.000302163              -0.000460978               0.999999989              -0.000312981              -0.000479523               0.999999989              -0.000323480              -0.000496459               0.999999989              -0.000333778              -0.000511721               0.999999989              -0.000186341              -0.000388653               0.999999989              -0.000181049              -0.000336296               0.999999989              -0.000178637              -0.000324107               0.999999989              -0.000180064              -0.000329885               0.999999989              -0.000184633              -0.000344623               0.999999989              -0.000191677              -0.000364637               0.999999989              -0.000200642              -0.000388164               0.999999989              -0.000210979              -0.000413998               0.999999989              -0.000222157              -0.000440949               0.999999989              -0.000233710              -0.000468288               0.999999989              -0.000245252              -0.000495599               0.999999989              -0.000256459              -0.000522195               0.999999989              -0.000267112              -0.000547796               0.999999989              -0.000277243              -0.000572139               0.999999989              -0.000286866              -0.000595024               0.999999989              -0.000296035              -0.000616609               0.999999989              -0.000304745              -0.000637084               0.999999989              -0.000174629              -0.000457538               0.999999989              -0.000156900              -0.000398472               0.999999989              -0.000151240              -0.000386766               0.999999989              -0.000152748              -0.000395242               0.999999989              -0.000158558              -0.000413716               0.999999989              -0.000167063              -0.000437940               0.999999989              -0.000177323              -0.000466057               0.999999989              -0.000188741              -0.000496604               0.999999989              -0.000200675              -0.000527977               0.999999989              -0.000212561              -0.000559577               0.999999989              -0.000223891              -0.000591054               0.999999989              -0.000234403              -0.000621689               0.999999989              -0.000244084              -0.000651184               0.999999989              -0.000253002              -0.000679548               0.999999989              -0.000261247              -0.000706777               0.999999989              -0.000268890              -0.000733031               0.999999989              -0.000276063              -0.000758386               0.999999989              -0.000161300              -0.000521643               0.999999989              -0.000131741              -0.000458489               0.999999989              -0.000124449              -0.000447866               0.999999989              -0.000127231              -0.000458980               0.999999989              -0.000134784              -0.000480941               0.999999989              -0.000144917              -0.000509205               0.999999989              -0.000156664              -0.000541617               0.999999989              -0.000169216              -0.000576249               0.999999989              -0.000181736              -0.000611672               0.999999989              -0.000193611              -0.000647280               0.999999989              -0.000204385              -0.000682588               0.999999989              -0.000213959              -0.000716831               0.999999989              -0.000222403              -0.000750084               0.999999989              -0.000229859              -0.000782505               0.999999989              -0.000236623              -0.000814069               0.999999989              -0.000242806              -0.000844922               0.999999989              -0.000248626              -0.000874994               0.999999989              -0.000147085              -0.000579809               0.999999989              -0.000106653              -0.000516183               0.999999989              -0.000099780              -0.000506735               0.999999989              -0.000104493              -0.000520185               0.999999989              -0.000114038              -0.000545350               0.999999989              -0.000125979              -0.000577396               0.999999989              -0.000139234              -0.000613719               0.999999989              -0.000152744              -0.000652213               0.999999989              -0.000165495              -0.000691520               0.999999989              -0.000176936              -0.000730838               0.999999989              -0.000186776              -0.000769486               0.999999989              -0.000194959              -0.000807272               0.999999989              -0.000201847              -0.000844324               0.999999989              -0.000207850              -0.000880695               0.999999989              -0.000213223              -0.000916432               0.999999989              -0.000218270              -0.000951367               0.999999989              -0.000223153              -0.000985470               0.999999989              -0.000133006              -0.000634109               0.999999989              -0.000086859              -0.000577786               0.999999989              -0.000077221              -0.000564097               0.999999989              -0.000080359              -0.000572154               0.999999989              -0.000088512              -0.000592060               0.999999989              -0.000099001              -0.000619290               0.999999989              -0.000110957              -0.000651222               0.999999989              -0.000123459              -0.000686084               0.999999989              -0.000135527              -0.000722512               0.999999989              -0.000146466              -0.000759581               0.999999989              -0.000155858              -0.000796673               0.999999989              -0.000163551              -0.000833304               0.999999989              -0.000169548              -0.000869460               0.999999989              -0.000174407              -0.000905203               0.999999989              -0.000178560              -0.000940594               0.999999989              -0.000182366              -0.000975407               0.999999989              -0.000186089              -0.001009534               0.999999989              -0.000117248              -0.000683103               0.999999989              -0.000069321              -0.000636692               0.999999989              -0.000057006              -0.000622199               0.999999989              -0.000057997              -0.000626419               0.999999989              -0.000064403              -0.000641923               0.999999989              -0.000073176              -0.000664794               0.999999989              -0.000083573              -0.000692707               0.999999989              -0.000094820              -0.000723964               0.999999989              -0.000105872              -0.000757366               0.999999989              -0.000116050              -0.000792024               0.999999989              -0.000124936              -0.000827175               0.999999989              -0.000132099              -0.000862333               0.999999989              -0.000137371              -0.000897267               0.999999989              -0.000141033              -0.000931834               0.999999989              -0.000143649              -0.000966276               0.999999989              -0.000145644              -0.001000562               0.999999989              -0.000147374              -0.001034612               0.999999989              -0.000100109              -0.000725883               0.999999989              -0.000053909              -0.000691408               0.999999989              -0.000039853              -0.000678636               0.999999989              -0.000038609              -0.000680970               0.999999989              -0.000042947              -0.000693421               0.999999989              -0.000049889              -0.000712794               0.999999989              -0.000058497              -0.000737221               0.999999989              -0.000068084              -0.000765296               0.999999989              -0.000077776              -0.000795911               0.999999989              -0.000086909              -0.000828192               0.999999989              -0.000095002              -0.000861483               0.999999989              -0.000101560              -0.000895114               0.999999989              -0.000106182              -0.000928795               0.999999989              -0.000108780              -0.000962244               0.999999989              -0.000109659              -0.000995587               0.999999989              -0.000109221              -0.001028918               0.999999989              -0.000107878              -0.001062332               0.999999989              -0.000081705              -0.000761799               0.999999989              -0.000040486              -0.000739941               0.999999989              -0.000026118              -0.000730837               0.999999989              -0.000023161              -0.000733036               0.999999989              -0.000025554              -0.000743759               0.999999989              -0.000030576              -0.000760788               0.999999989              -0.000037165              -0.000782626               0.999999989              -0.000044822              -0.000808183               0.999999989              -0.000052806              -0.000836525               0.999999989              -0.000060447              -0.000866828               0.999999989              -0.000067400              -0.000898505               0.999999989              -0.000073096              -0.000930997               0.999999989              -0.000077107              -0.000963844               0.999999989              -0.000078751              -0.000996744               0.999999989              -0.000078065              -0.001029538               0.999999989              -0.000075106              -0.001062230               0.999999989              -0.000069873              -0.001095049               0.999999989              -0.000062247              -0.000790288               0.999999989              -0.000028787              -0.000780174               0.999999989              -0.000015886              -0.000775802               0.999999989              -0.000012148              -0.000779252               0.999999989              -0.000012967              -0.000789528               0.999999989              -0.000016238              -0.000805385               0.999999989              -0.000020795              -0.000825656               0.999999989              -0.000026339              -0.000849437               0.999999989              -0.000032302              -0.000876136               0.999999989              -0.000038174              -0.000905072               0.999999989              -0.000043495              -0.000935714               0.999999989              -0.000047887              -0.000967643               0.999999989              -0.000050989              -0.001000295               0.999999989              -0.000052046              -0.001033379               0.999999989              -0.000050524              -0.001066549               0.999999989              -0.000045990              -0.001099556               0.999999989              -0.000037844              -0.001132464               0.999999989              -0.000041975              -0.000810925               0.999999989              -0.000018451              -0.000810273               0.999999989              -0.000008718              -0.000810553               0.999999989              -0.000005391              -0.000815928               0.999999989              -0.000005261              -0.000826672               0.999999989              -0.000006978              -0.000842285               0.999999989              -0.000009864              -0.000861907               0.999999989              -0.000013260              -0.000884839               0.999999989              -0.000017117              -0.000910511               0.999999989              -0.000020957              -0.000938604               0.999999989              -0.000024490              -0.000968614               0.999999989              -0.000027432              -0.001000147               0.999999989              -0.000029515              -0.001032866               0.999999989              -0.000030143              -0.001066385               0.999999989              -0.000028542              -0.001100397               0.999999989              -0.000024100              -0.001134538               0.999999989              -0.000015860              -0.001168426               0.999999989              -0.000021144              -0.000823343               0.999999989              -0.000009017              -0.000828852               0.999999989              -0.000003778              -0.000832509               0.999999989              -0.000001875              -0.000839605               0.999999989              -0.000001472              -0.000851140               0.999999989              -0.000002187              -0.000866947               0.999999989              -0.000003526              -0.000886458               0.999999989              -0.000005154              -0.000909101               0.999999989              -0.000006949              -0.000934444               0.999999989              -0.000008812              -0.000962072               0.999999989              -0.000010557              -0.000991673               0.999999989              -0.000012100              -0.001022993               0.999999989              -0.000013121              -0.001055725               0.999999989              -0.000013349              -0.001089710               0.999999989              -0.000012349              -0.001124549               0.999999989              -0.000009574              -0.001159684               0.999999989              -0.000004427              -0.001194599               0.999999989               0.000000000              -0.000827470               0.999999989              -0.000000000              -0.000835111               0.999999989              -0.000000000              -0.000839982               0.999999989               0.000000000              -0.000847839               0.999999989              -0.000000000              -0.000859784               0.999999989               0.000000000              -0.000875711               0.999999989               0.000000000              -0.000895232               0.999999989               0.000000000              -0.000917811               0.999999989               0.000000000              -0.000943021               0.999999989              -0.000000000              -0.000970487               0.999999989              -0.000000000              -0.000999976               0.999999989               0.000000000              -0.001031235               0.999999989              -0.000000000              -0.001064119               0.999999989              -0.000000000              -0.001098318               0.999999989               0.000000000              -0.001133448               0.999999989              -0.000000000              -0.001169046               0.999999989               0.000000000              -0.001204397               0.999999989               0.000214194              -0.000000000               0.999999989               0.000246335              -0.000000000               0.999999989               0.000261276               0.000000000               0.999999989               0.000269917               0.000000000               0.999999989               0.000276512              -0.000000000               0.999999989               0.000282898               0.000000000               0.999999989               0.000289819               0.000000000               0.999999989               0.000297576               0.000000000               0.999999989               0.000306529               0.000000000               0.999999989               0.000316791              -0.000000000               0.999999989               0.000328332               0.000000000               0.999999989               0.000341015              -0.000000000               0.999999989               0.000354723               0.000000000               0.999999989               0.000369293              -0.000000000               0.999999989               0.000384467               0.000000000               0.999999989               0.000399975               0.000000000               0.999999989               0.000415503              -0.000000000               0.999999989               0.000213025              -0.000081081               0.999999989               0.000243396              -0.000069589               0.999999989               0.000257283              -0.000065549               0.999999989               0.000265351              -0.000065458               0.999999989               0.000271604              -0.000067626               0.999999989               0.000277786              -0.000071100               0.999999989               0.000284689              -0.000075406               0.999999989               0.000292637              -0.000080508               0.999999989               0.000301799              -0.000086171               0.999999989               0.000312149              -0.000092175               0.999999989               0.000323686              -0.000098283               0.999999989               0.000336355              -0.000104356               0.999999989               0.000349997              -0.000110183               0.999999989               0.000364353              -0.000115544               0.999999989               0.000379165              -0.000120156               0.999999989               0.000394223              -0.000123691               0.999999989               0.000409253              -0.000125936               0.999999989               0.000209546              -0.000161310               0.999999989               0.000234789              -0.000138457               0.999999989               0.000245710              -0.000130944               0.999999989               0.000252210              -0.000131251               0.999999989               0.000257728              -0.000135848               0.999999989               0.000263669              -0.000143010               0.999999989               0.000270624              -0.000151957               0.999999989               0.000278865              -0.000162156               0.999999989               0.000288359              -0.000173374               0.999999989               0.000298925              -0.000185230               0.999999989               0.000310499              -0.000197286               0.999999989               0.000322906              -0.000209217               0.999999989               0.000335929              -0.000220812               0.999999989               0.000349357              -0.000231464               0.999999989               0.000363003              -0.000240684               0.999999989               0.000376715              -0.000248206               0.999999989               0.000390326              -0.000253398               0.999999989               0.000203835              -0.000239840               0.999999989               0.000220989              -0.000206103               0.999999989               0.000227684              -0.000195963               0.999999989               0.000232139              -0.000197408               0.999999989               0.000236835              -0.000204958               0.999999989               0.000242631              -0.000216194               0.999999989               0.000249840              -0.000229927               0.999999989               0.000258531              -0.000245413               0.999999989               0.000268463              -0.000262089               0.999999989               0.000279302              -0.000279504               0.999999989               0.000290851              -0.000297120               0.999999989               0.000302749              -0.000314618               0.999999989               0.000314862              -0.000331449               0.999999989               0.000327027              -0.000347049               0.999999989               0.000339077              -0.000361009               0.999999989               0.000351031              -0.000373137               0.999999989               0.000362902              -0.000382954               0.999999989               0.000196107              -0.000315845               0.999999989               0.000202789              -0.000272132               0.999999989               0.000204751              -0.000260413               0.999999989               0.000207310              -0.000263757               0.999999989               0.000211532              -0.000274761               0.999999989               0.000217609              -0.000290307               0.999999989               0.000225505              -0.000308993               0.999999989               0.000234863              -0.000329784               0.999999989               0.000245344              -0.000351784               0.999999989               0.000256526              -0.000374426               0.999999989               0.000268013              -0.000397162               0.999999989               0.000279588              -0.000419432               0.999999989               0.000291005              -0.000440857               0.999999989               0.000302163              -0.000460978               0.999999989               0.000312981              -0.000479523               0.999999989               0.000323480              -0.000496459               0.999999989               0.000333778              -0.000511721               0.999999989               0.000186341              -0.000388653               0.999999989               0.000181049              -0.000336296               0.999999989               0.000178637              -0.000324107               0.999999989               0.000180064              -0.000329885               0.999999989               0.000184633              -0.000344623               0.999999989               0.000191677              -0.000364637               0.999999989               0.000200642              -0.000388164               0.999999989               0.000210979              -0.000413998               0.999999989               0.000222157              -0.000440949               0.999999989               0.000233710              -0.000468288               0.999999989               0.000245252              -0.000495599               0.999999989               0.000256459              -0.000522195               0.999999989               0.000267112              -0.000547796               0.999999989               0.000277243              -0.000572139               0.999999989               0.000286866              -0.000595024               0.999999989               0.000296035              -0.000616609               0.999999989               0.000304745              -0.000637084               0.999999989               0.000174629              -0.000457538               0.999999989               0.000156900              -0.000398472               0.999999989               0.000151240              -0.000386766               0.999999989               0.000152748              -0.000395242               0.999999989               0.000158558              -0.000413716               0.999999989               0.000167063              -0.000437940               0.999999989               0.000177323              -0.000466057               0.999999989               0.000188741              -0.000496604               0.999999989               0.000200675              -0.000527977               0.999999989               0.000212561              -0.000559577               0.999999989               0.000223891              -0.000591054               0.999999989               0.000234403              -0.000621689               0.999999989               0.000244084              -0.000651184               0.999999989               0.000253002              -0.000679548               0.999999989               0.000261247              -0.000706777               0.999999989               0.000268890              -0.000733031               0.999999989               0.000276063              -0.000758386               0.999999989               0.000161300              -0.000521643               0.999999989               0.000131741              -0.000458489               0.999999989               0.000124449              -0.000447866               0.999999989               0.000127231              -0.000458980               0.999999989               0.000134784              -0.000480941               0.999999989               0.000144917              -0.000509205               0.999999989               0.000156664              -0.000541617               0.999999989               0.000169216              -0.000576249               0.999999989               0.000181736              -0.000611672               0.999999989               0.000193611              -0.000647280               0.999999989               0.000204385              -0.000682588               0.999999989               0.000213959              -0.000716831               0.999999989               0.000222403              -0.000750084               0.999999989               0.000229859              -0.000782505               0.999999989               0.000236623              -0.000814069               0.999999989               0.000242806              -0.000844922               0.999999989               0.000248626              -0.000874994               0.999999989               0.000147085              -0.000579809               0.999999989               0.000106653              -0.000516183               0.999999989               0.000099780              -0.000506735               0.999999989               0.000104493              -0.000520185               0.999999989               0.000114038              -0.000545350               0.999999989               0.000125979              -0.000577396               0.999999989               0.000139234              -0.000613719               0.999999989               0.000152744              -0.000652213               0.999999989               0.000165495              -0.000691520               0.999999989               0.000176936              -0.000730838               0.999999989               0.000186776              -0.000769486               0.999999989               0.000194959              -0.000807272               0.999999989               0.000201847              -0.000844324               0.999999989               0.000207850              -0.000880695               0.999999989               0.000213223              -0.000916432               0.999999989               0.000218270              -0.000951367               0.999999989               0.000223153              -0.000985470               0.999999989               0.000133006              -0.000634109               0.999999989               0.000086859              -0.000577786               0.999999989               0.000077221              -0.000564097               0.999999989               0.000080359              -0.000572154               0.999999989               0.000088512              -0.000592060               0.999999989               0.000099001              -0.000619290               0.999999989               0.000110957              -0.000651222               0.999999989               0.000123459              -0.000686084               0.999999989               0.000135527              -0.000722512               0.999999989               0.000146466              -0.000759581               0.999999989               0.000155858              -0.000796673               0.999999989               0.000163551              -0.000833304               0.999999989               0.000169548              -0.000869460               0.999999989               0.000174407              -0.000905203               0.999999989               0.000178560              -0.000940594               0.999999989               0.000182366              -0.000975407               0.999999989               0.000186089              -0.001009534               0.999999989               0.000117248              -0.000683103               0.999999989               0.000069321              -0.000636692               0.999999989               0.000057006              -0.000622199               0.999999989               0.000057997              -0.000626419               0.999999989               0.000064403              -0.000641923               0.999999989               0.000073176              -0.000664794               0.999999989               0.000083573              -0.000692707               0.999999989               0.000094820              -0.000723964               0.999999989               0.000105872              -0.000757366               0.999999989               0.000116050              -0.000792024               0.999999989               0.000124936              -0.000827175               0.999999989               0.000132099              -0.000862333               0.999999989               0.000137371              -0.000897267               0.999999989               0.000141033              -0.000931834               0.999999989               0.000143649              -0.000966276               0.999999989               0.000145644              -0.001000562               0.999999989               0.000147374              -0.001034612               0.999999989               0.000100109              -0.000725883               0.999999989               0.000053909              -0.000691408               0.999999989               0.000039853              -0.000678636               0.999999989               0.000038609              -0.000680970               0.999999989               0.000042947              -0.000693421               0.999999989               0.000049889              -0.000712794               0.999999989               0.000058497              -0.000737221               0.999999989               0.000068084              -0.000765296               0.999999989               0.000077776              -0.000795911               0.999999989               0.000086909              -0.000828192               0.999999989               0.000095002              -0.000861483               0.999999989               0.000101560              -0.000895114               0.999999989               0.000106182              -0.000928795               0.999999989               0.000108780              -0.000962244               0.999999989               0.000109659              -0.000995587               0.999999989               0.000109221              -0.001028918               0.999999989               0.000107878              -0.001062332               0.999999989               0.000081705              -0.000761799               0.999999989               0.000040486              -0.000739941               0.999999989               0.000026118              -0.000730837               0.999999989               0.000023161              -0.000733036               0.999999989               0.000025554              -0.000743759               0.999999989               0.000030576              -0.000760788               0.999999989               0.000037165              -0.000782626               0.999999989               0.000044822              -0.000808183               0.999999989               0.000052806              -0.000836525               0.999999989               0.000060447              -0.000866828               0.999999989               0.000067400              -0.000898505               0.999999989               0.000073096              -0.000930997               0.999999989               0.000077107              -0.000963844               0.999999989               0.000078751              -0.000996744               0.999999989               0.000078065              -0.001029538               0.999999989               0.000075106              -0.001062230               0.999999989               0.000069873              -0.001095049               0.999999989               0.000062247              -0.000790288               0.999999989               0.000028787              -0.000780174               0.999999989               0.000015886              -0.000775802               0.999999989               0.000012148              -0.000779252               0.999999989               0.000012967              -0.000789528               0.999999989               0.000016238              -0.000805385               0.999999989               0.000020795              -0.000825656               0.999999989               0.000026339              -0.000849437               0.999999989               0.000032302              -0.000876136               0.999999989               0.000038174              -0.000905072               0.999999989               0.000043495              -0.000935714               0.999999989               0.000047887              -0.000967643               0.999999989               0.000050989              -0.001000295               0.999999989               0.000052046              -0.001033379               0.999999989               0.000050524              -0.001066549               0.999999989               0.000045990              -0.001099556               0.999999989               0.000037844              -0.001132464               0.999999989               0.000041975              -0.000810925               0.999999989               0.000018451              -0.000810273               0.999999989               0.000008718              -0.000810553               0.999999989               0.000005391              -0.000815928               0.999999989               0.000005261              -0.000826672               0.999999989               0.000006978              -0.000842285               0.999999989               0.000009864              -0.000861907               0.999999989               0.000013260              -0.000884839               0.999999989               0.000017117              -0.000910511               0.999999989               0.000020957              -0.000938604               0.999999989               0.000024490              -0.000968614               0.999999989               0.000027432              -0.001000147               0.999999989               0.000029515              -0.001032866               0.999999989               0.000030143              -0.001066385               0.999999989               0.000028542              -0.001100397               0.999999989               0.000024100              -0.001134538               0.999999989               0.000015860              -0.001168426               0.999999989               0.000021144              -0.000823343               0.999999989               0.000009017              -0.000828852               0.999999989               0.000003778              -0.000832509               0.999999989               0.000001875              -0.000839605               0.999999989               0.000001472              -0.000851140               0.999999989               0.000002187              -0.000866947               0.999999989               0.000003526              -0.000886458               0.999999989               0.000005154              -0.000909101               0.999999989               0.000006949              -0.000934444               0.999999989               0.000008812              -0.000962072               0.999999989               0.000010557              -0.000991673               0.999999989               0.000012100              -0.001022993               0.999999989               0.000013121              -0.001055725               0.999999989               0.000013349              -0.001089710               0.999999989               0.000012349              -0.001124549               0.999999989               0.000009574              -0.001159684               0.999999989               0.000004427              -0.001194599               0.999999989               0.000000000              -0.000827470               0.999999989              -0.000000000              -0.000835111               0.999999989              -0.000000000              -0.000839982               0.999999989               0.000000000              -0.000847839               0.999999989              -0.000000000              -0.000859784               0.999999989               0.000000000              -0.000875711               0.999999989               0.000000000              -0.000895232               0.999999989               0.000000000              -0.000917811               0.999999989               0.000000000              -0.000943021               0.999999989              -0.000000000              -0.000970487               0.999999989              -0.000000000              -0.000999976               0.999999989               0.000000000              -0.001031235               0.999999989              -0.000000000              -0.001064119               0.999999989              -0.000000000              -0.001098318               0.999999989               0.000000000              -0.001133448               0.999999989              -0.000000000              -0.001169046               0.999999989               0.000000000              -0.001204397               0.999999989               0.000214194              -0.000000000               0.999999989               0.000246335              -0.000000000               0.999999989               0.000261276               0.000000000               0.999999989               0.000269917               0.000000000               0.999999989               0.000276512              -0.000000000               0.999999989               0.000282898               0.000000000               0.999999989               0.000289819               0.000000000               0.999999989               0.000297576               0.000000000               0.999999989               0.000306529               0.000000000               0.999999989               0.000316791              -0.000000000               0.999999989               0.000328332               0.000000000               0.999999989               0.000341015              -0.000000000               0.999999989               0.000354723               0.000000000               0.999999989               0.000369293              -0.000000000               0.999999989               0.000384467               0.000000000               0.999999989               0.000399975               0.000000000               0.999999989               0.000415503              -0.000000000               0.999999989               0.000213025               0.000081081               0.999999989               0.000243396               0.000069589               0.999999989               0.000257283               0.000065549               0.999999989               0.000265351               0.000065458               0.999999989               0.000271604               0.000067626               0.999999989               0.000277786               0.000071100               0.999999989               0.000284689               0.000075406               0.999999989               0.000292637               0.000080508               0.999999989               0.000301799               0.000086171               0.999999989               0.000312149               0.000092175               0.999999989               0.000323686               0.000098283               0.999999989               0.000336355               0.000104356               0.999999989               0.000349997               0.000110183               0.999999989               0.000364353               0.000115544               0.999999989               0.000379165               0.000120156               0.999999989               0.000394223               0.000123691               0.999999989               0.000409253               0.000125936               0.999999989               0.000209546               0.000161310               0.999999989               0.000234789               0.000138457               0.999999989               0.000245710               0.000130944               0.999999989               0.000252210               0.000131251               0.999999989               0.000257728               0.000135848               0.999999989               0.000263669               0.000143010               0.999999989               0.000270624               0.000151957               0.999999989               0.000278865               0.000162156               0.999999989               0.000288359               0.000173374               0.999999989               0.000298925               0.000185230               0.999999989               0.000310499               0.000197286               0.999999989               0.000322906               0.000209217               0.999999989               0.000335929               0.000220812               0.999999989               0.000349357               0.000231464               0.999999989               0.000363003               0.000240684               0.999999989               0.000376715               0.000248206               0.999999989               0.000390326               0.000253398               0.999999989               0.000203835               0.000239840               0.999999989               0.000220989               0.000206103               0.999999989               0.000227684               0.000195963               0.999999989               0.000232139               0.000197408               0.999999989               0.000236835               0.000204958               0.999999989               0.000242631               0.000216194               0.999999989               0.000249840               0.000229927               0.999999989               0.000258531               0.000245413               0.999999989               0.000268463               0.000262089               0.999999989               0.000279302               0.000279504               0.999999989               0.000290851               0.000297120               0.999999989               0.000302749               0.000314618               0.999999989               0.000314862               0.000331449               0.999999989               0.000327027               0.000347049               0.999999989               0.000339077               0.000361009               0.999999989               0.000351031               0.000373137               0.999999989               0.000362902               0.000382954               0.999999989               0.000196107               0.000315845               0.999999989               0.000202789               0.000272132               0.999999989               0.000204751               0.000260413               0.999999989               0.000207310               0.000263757               0.999999989               0.000211532               0.000274761               0.999999989               0.000217609               0.000290307               0.999999989               0.000225505               0.000308993               0.999999989               0.000234863               0.000329784               0.999999989               0.000245344               0.000351784               0.999999989               0.000256526               0.000374426               0.999999989               0.000268013               0.000397162               0.999999989               0.000279588               0.000419432               0.999999989               0.000291005               0.000440857               0.999999989               0.000302163               0.000460978               0.999999989               0.000312981               0.000479523               0.999999989               0.000323480               0.000496459               0.999999989               0.000333778               0.000511721               0.999999989               0.000186341               0.000388653               0.999999989               0.000181049               0.000336296               0.999999989               0.000178637               0.000324107               0.999999989               0.000180064               0.000329885               0.999999989               0.000184633               0.000344623               0.999999989               0.000191677               0.000364637               0.999999989               0.000200642               0.000388164               0.999999989               0.000210979               0.000413998               0.999999989               0.000222157               0.000440949               0.999999989               0.000233710               0.000468288               0.999999989               0.000245252               0.000495599               0.999999989               0.000256459               0.000522195               0.999999989               0.000267112               0.000547796               0.999999989               0.000277243               0.000572139               0.999999989               0.000286866               0.000595024               0.999999989               0.000296035               0.000616609               0.999999989               0.000304745               0.000637084               0.999999989               0.000174629               0.000457538               0.999999989               0.000156900               0.000398472               0.999999989               0.000151240               0.000386766               0.999999989               0.000152748               0.000395242               0.999999989               0.000158558               0.000413716               0.999999989               0.000167063               0.000437940               0.999999989               0.000177323               0.000466057               0.999999989               0.000188741               0.000496604               0.999999989               0.000200675               0.000527977               0.999999989               0.000212561               0.000559577               0.999999989               0.000223891               0.000591054               0.999999989               0.000234403               0.000621689               0.999999989               0.000244084               0.000651184               0.999999989               0.000253002               0.000679548               0.999999989               0.000261247               0.000706777               0.999999989               0.000268890               0.000733031               0.999999989               0.000276063               0.000758386               0.999999989               0.000161300               0.000521643               0.999999989               0.000131741               0.000458489               0.999999989               0.000124449               0.000447866               0.999999989               0.000127231               0.000458980               0.999999989               0.000134784               0.000480941               0.999999989               0.000144917               0.000509205               0.999999989               0.000156664               0.000541617               0.999999989               0.000169216               0.000576249               0.999999989               0.000181736               0.000611672               0.999999989               0.000193611               0.000647280               0.999999989               0.000204385               0.000682588               0.999999989               0.000213959               0.000716831               0.999999989               0.000222403               0.000750084               0.999999989               0.000229859               0.000782505               0.999999989               0.000236623               0.000814069               0.999999989               0.000242806               0.000844922               0.999999989               0.000248626               0.000874994               0.999999989               0.000147085               0.000579809               0.999999989               0.000106653               0.000516183               0.999999989               0.000099780               0.000506735               0.999999989               0.000104493               0.000520185               0.999999989               0.000114038               0.000545350               0.999999989               0.000125979               0.000577396               0.999999989               0.000139234               0.000613719               0.999999989               0.000152744               0.000652213               0.999999989               0.000165495               0.000691520               0.999999989               0.000176936               0.000730838               0.999999989               0.000186776               0.000769486               0.999999989               0.000194959               0.000807272               0.999999989               0.000201847               0.000844324               0.999999989               0.000207850               0.000880695               0.999999989               0.000213223               0.000916432               0.999999989               0.000218270               0.000951367               0.999999989               0.000223153               0.000985470               0.999999989               0.000133006               0.000634109               0.999999989               0.000086859               0.000577786               0.999999989               0.000077221               0.000564097               0.999999989               0.000080359               0.000572154               0.999999989               0.000088512               0.000592060               0.999999989               0.000099001               0.000619290               0.999999989               0.000110957               0.000651222               0.999999989               0.000123459               0.000686084               0.999999989               0.000135527               0.000722512               0.999999989               0.000146466               0.000759581               0.999999989               0.000155858               0.000796673               0.999999989               0.000163551               0.000833304               0.999999989               0.000169548               0.000869460               0.999999989               0.000174407               0.000905203               0.999999989               0.000178560               0.000940594               0.999999989               0.000182366               0.000975407               0.999999989               0.000186089               0.001009534               0.999999989               0.000117248               0.000683103               0.999999989               0.000069321               0.000636692               0.999999989               0.000057006               0.000622199               0.999999989               0.000057997               0.000626419               0.999999989               0.000064403               0.000641923               0.999999989               0.000073176               0.000664794               0.999999989               0.000083573               0.000692707               0.999999989               0.000094820               0.000723964               0.999999989               0.000105872               0.000757366               0.999999989               0.000116050               0.000792024               0.999999989               0.000124936               0.000827175               0.999999989               0.000132099               0.000862333               0.999999989               0.000137371               0.000897267               0.999999989               0.000141033               0.000931834               0.999999989               0.000143649               0.000966276               0.999999989               0.000145644               0.001000562               0.999999989               0.000147374               0.001034612               0.999999989               0.000100109               0.000725883               0.999999989               0.000053909               0.000691408               0.999999989               0.000039853               0.000678636               0.999999989               0.000038609               0.000680970               0.999999989               0.000042947               0.000693421               0.999999989               0.000049889               0.000712794               0.999999989               0.000058497               0.000737221               0.999999989               0.000068084               0.000765296               0.999999989               0.000077776               0.000795911               0.999999989               0.000086909               0.000828192               0.999999989               0.000095002               0.000861483               0.999999989               0.000101560               0.000895114               0.999999989               0.000106182               0.000928795               0.999999989               0.000108780               0.000962244               0.999999989               0.000109659               0.000995587               0.999999989               0.000109221               0.001028918               0.999999989               0.000107878               0.001062332               0.999999989               0.000081705               0.000761799               0.999999989               0.000040486               0.000739941               0.999999989               0.000026118               0.000730837               0.999999989               0.000023161               0.000733036               0.999999989               0.000025554               0.000743759               0.999999989               0.000030576               0.000760788               0.999999989               0.000037165               0.000782626               0.999999989               0.000044822               0.000808183               0.999999989               0.000052806               0.000836525               0.999999989               0.000060447               0.000866828               0.999999989               0.000067400               0.000898505               0.999999989               0.000073096               0.000930997               0.999999989               0.000077107               0.000963844               0.999999989               0.000078751               0.000996744               0.999999989               0.000078065               0.001029538               0.999999989               0.000075106               0.001062230               0.999999989               0.000069873               0.001095049               0.999999989               0.000062247               0.000790288               0.999999989               0.000028787               0.000780174               0.999999989               0.000015886               0.000775802               0.999999989               0.000012148               0.000779252               0.999999989               0.000012967               0.000789528               0.999999989               0.000016238               0.000805385               0.999999989               0.000020795               0.000825656               0.999999989               0.000026339               0.000849437               0.999999989               0.000032302               0.000876136               0.999999989               0.000038174               0.000905072               0.999999989               0.000043495               0.000935714               0.999999989               0.000047887               0.000967643               0.999999989               0.000050989               0.001000295               0.999999989               0.000052046               0.001033379               0.999999989               0.000050524               0.001066549               0.999999989               0.000045990               0.001099556               0.999999989               0.000037844               0.001132464               0.999999989               0.000041975               0.000810925               0.999999989               0.000018451               0.000810273               0.999999989               0.000008718               0.000810553               0.999999989               0.000005391               0.000815928               0.999999989               0.000005261               0.000826672               0.999999989               0.000006978               0.000842285               0.999999989               0.000009864               0.000861907               0.999999989               0.000013260               0.000884839               0.999999989               0.000017117               0.000910511               0.999999989               0.000020957               0.000938604               0.999999989               0.000024490               0.000968614               0.999999989               0.000027432               0.001000147               0.999999989               0.000029515               0.001032866               0.999999989               0.000030143               0.001066385               0.999999989               0.000028542               0.001100397               0.999999989               0.000024100               0.001134538               0.999999989               0.000015860               0.001168426               0.999999989               0.000021144               0.000823343               0.999999989               0.000009017               0.000828852               0.999999989               0.000003778               0.000832509               0.999999989               0.000001875               0.000839605               0.999999989               0.000001472               0.000851140               0.999999989               0.000002187               0.000866947               0.999999989               0.000003526               0.000886458               0.999999989               0.000005154               0.000909101               0.999999989               0.000006949               0.000934444               0.999999989               0.000008812               0.000962072               0.999999989               0.000010557               0.000991673               0.999999989               0.000012100               0.001022993               0.999999989               0.000013121               0.001055725               0.999999989               0.000013349               0.001089710               0.999999989               0.000012349               0.001124549               0.999999989               0.000009574               0.001159684               0.999999989               0.000004427               0.001194599               0.999999989               0.000000000               0.000827470               0.999999989               0.000000000               0.000835111               0.999999989              -0.000000000               0.000839982               0.999999989               0.000000000               0.000847839               0.999999989              -0.000000000               0.000859784               0.999999989              -0.000000000               0.000875711               0.999999989              -0.000000000               0.000895232               0.999999989               0.000000000               0.000917811               0.999999989              -0.000000000               0.000943021               0.999999989               0.000000000               0.000970487               0.999999989               0.000000000               0.000999976               0.999999989               0.000000000               0.001031235               0.999999989              -0.000000000               0.001064119               0.999999989              -0.000000000               0.001098318               0.999999989               0.000000000               0.001133448               0.999999989              -0.000000000               0.001169046               0.999999989              -0.000000000               0.001204397               0.999999989 </DataArray>
<DataArray type="Float64"                                    Name="stress"                                                      NumberOfComponents="10" format="ascii">
              0.001340649               0.015042496              -0.000000000              -0.001377565               0.005473303               0.004095738               0.000000000               0.000000000               0.000000000               0.000000000               0.001416936               0.012153201              -0.000000000              -0.000987796               0.004380292               0.003392495               0.000000000               0.000000000               0.000000000               0.000000000               0.001929712               0.009815140              -0.000000000              -0.000503249               0.003439430               0.002936181               0.000000000               0.000000000               0.000000000               0.000000000               0.001951917               0.008512216               0.000000000              -0.000332057               0.002948063               0.002616006               0.000000000               0.000000000               0.000000000               0.000000000               0.001808035               0.007720821               0.000000000              -0.000287089               0.002669278               0.002382189               0.000000000               0.000000000               0.000000000               0.000000000               0.001609604               0.007201354               0.000000000              -0.000296567               0.002499283               0.002202716               0.000000000               0.000000000               0.000000000               0.000000000               0.001404976               0.006844647               0.000000000              -0.000328714               0.002391098               0.002062384               0.000000000               0.000000000               0.000000000               0.000000000               0.001202296               0.006598442               0.000000000              -0.000373943               0.002324106               0.001950163               0.000000000               0.000000000               0.000000000               0.000000000               0.001001917               0.006421835              -0.000000000              -0.000427009               0.002282927               0.001855917               0.000000000               0.000000000               0.000000000               0.000000000               0.000812486               0.006287474               0.000000000              -0.000481251               0.002256221               0.001774970               0.000000000               0.000000000               0.000000000               0.000000000               0.000637591               0.006175233              -0.000000000              -0.000532806               0.002235992               0.001703186               0.000000000               0.000000000               0.000000000               0.000000000               0.000479843               0.006073082              -0.000000000              -0.000579193               0.002217405               0.001638212               0.000000000               0.000000000               0.000000000               0.000000000               0.000340532               0.005970010              -0.000000000              -0.000618550               0.002196167               0.001577617               0.000000000               0.000000000               0.000000000               0.000000000               0.000223950               0.005857215              -0.000000000              -0.000648169               0.002168442               0.001520273               0.000000000               0.000000000               0.000000000               0.000000000               0.000129773               0.005724173               0.000000000              -0.000666855               0.002130324               0.001463469               0.000000000               0.000000000               0.000000000               0.000000000               0.000057615               0.005561621               0.000000000              -0.000673595               0.002078387               0.001404791               0.000000000               0.000000000               0.000000000               0.000000000               0.000015226               0.005435981              -0.000000000              -0.000673786               0.002036571               0.001362785               0.000000000               0.000000000               0.000000000               0.000000000               0.001408063               0.014762411              -0.001085270              -0.001317275               0.005359846               0.004042571               0.000000000               0.000000000               0.000000000               0.000000000               0.001417488               0.011960544              -0.000631238              -0.000963508               0.004307977               0.003344470               0.000000000               0.000000000               0.000000000               0.000000000               0.001859662               0.009721830              -0.000172282              -0.000517854               0.003413196               0.002895342               0.000000000               0.000000000               0.000000000               0.000000000               0.001854590               0.008472358               0.000030726              -0.000363573               0.002945282               0.002581709               0.000000000               0.000000000               0.000000000               0.000000000               0.001703794               0.007706553               0.000121216              -0.000324396               0.002676957               0.002352561               0.000000000               0.000000000               0.000000000               0.000000000               0.001504547               0.007201707               0.000159527              -0.000336008               0.002512548               0.002176540               0.000000000               0.000000000               0.000000000               0.000000000               0.001298387               0.006855083               0.000175364              -0.000369989               0.002408335               0.002038345               0.000000000               0.000000000               0.000000000               0.000000000               0.001097842               0.006608643               0.000179797              -0.000414389               0.002340989               0.001926600               0.000000000               0.000000000               0.000000000               0.000000000               0.000910394               0.006430069               0.000176824              -0.000462360               0.002297455               0.001835095               0.000000000               0.000000000               0.000000000               0.000000000               0.000736816               0.006293451               0.000169195              -0.000510374               0.002267921               0.001757547               0.000000000               0.000000000               0.000000000               0.000000000               0.000573719               0.006177597               0.000158770              -0.000557054               0.002244863               0.001687809               0.000000000               0.000000000               0.000000000               0.000000000               0.000426115               0.006071769               0.000146614              -0.000599176               0.002223628               0.001624452               0.000000000               0.000000000               0.000000000               0.000000000               0.000300465               0.005969408               0.000130701              -0.000633500               0.002200949               0.001567449               0.000000000               0.000000000               0.000000000               0.000000000               0.000197997               0.005858649               0.000109015              -0.000658081               0.002172224               0.001514143               0.000000000               0.000000000               0.000000000               0.000000000               0.000114539               0.005729731               0.000080309              -0.000673263               0.002134312               0.001461050               0.000000000               0.000000000               0.000000000               0.000000000               0.000050392               0.005578539               0.000043693              -0.000678419               0.002085634               0.001407215               0.000000000               0.000000000               0.000000000               0.000000000               0.000011864               0.005462837               0.000026339              -0.000678404               0.002047062               0.001368658               0.000000000               0.000000000               0.000000000               0.000000000               0.001584139               0.013960101              -0.002042721              -0.001150959               0.005036973               0.003886015               0.000000000               0.000000000               0.000000000               0.000000000               0.001411550               0.011416765              -0.001191572              -0.000897763               0.004104804               0.003207042               0.000000000               0.000000000               0.000000000               0.000000000               0.001659270               0.009453996              -0.000337044              -0.000559522               0.003337808               0.002778286               0.000000000               0.000000000               0.000000000               0.000000000               0.001578438               0.008347682               0.000030121              -0.000451545               0.002933048               0.002481503               0.000000000               0.000000000               0.000000000               0.000000000               0.001406806               0.007654587               0.000190368              -0.000429270               0.002694593               0.002265323               0.000000000               0.000000000               0.000000000               0.000000000               0.001211738               0.007191129               0.000260024              -0.000444488               0.002545182               0.002100693               0.000000000               0.000000000               0.000000000               0.000000000               0.001016284               0.006867323               0.000288403              -0.000477308               0.002448187               0.001970880               0.000000000               0.000000000               0.000000000               0.000000000               0.000833297               0.006628404               0.000297480              -0.000516063               0.002381467               0.001865404               0.000000000               0.000000000               0.000000000               0.000000000               0.000675060               0.006446640               0.000296837              -0.000552681               0.002333086               0.001780404               0.000000000               0.000000000               0.000000000               0.000000000               0.000535315               0.006300820               0.000287107              -0.000586858               0.002295872               0.001709014               0.000000000               0.000000000               0.000000000               0.000000000               0.000409420               0.006175657               0.000271599              -0.000618423               0.002264673               0.001646250               0.000000000               0.000000000               0.000000000               0.000000000               0.000301328               0.006063553               0.000254691              -0.000644945               0.002236146               0.001591201               0.000000000               0.000000000               0.000000000               0.000000000               0.000210839               0.005954990               0.000230020              -0.000665307               0.002206746               0.001541439               0.000000000               0.000000000               0.000000000               0.000000000               0.000137552               0.005842888               0.000192070              -0.000678777               0.002173869               0.001495092               0.000000000               0.000000000               0.000000000               0.000000000               0.000077848               0.005725350               0.000144473              -0.000686474               0.002137256               0.001450782               0.000000000               0.000000000               0.000000000               0.000000000               0.000032289               0.005604996               0.000082146              -0.000688514               0.002097818               0.001409304               0.000000000               0.000000000               0.000000000               0.000000000               0.000005109               0.005521769               0.000049547              -0.000688304               0.002070006               0.001381702               0.000000000               0.000000000               0.000000000               0.000000000               0.001809551               0.012736987              -0.002771713              -0.000913542               0.004550133               0.003636592               0.000000000               0.000000000               0.000000000               0.000000000               0.001378583               0.010600839              -0.001629824              -0.000808135               0.003802956               0.002994821               0.000000000               0.000000000               0.000000000               0.000000000               0.001350630               0.009047655              -0.000492859              -0.000624469               0.003224011               0.002599542               0.000000000               0.000000000               0.000000000               0.000000000               0.001176464               0.008142247              -0.000021368              -0.000576606               0.002906257               0.002329651               0.000000000               0.000000000               0.000000000               0.000000000               0.000987648               0.007552474               0.000180912              -0.000573690               0.002708696               0.002135006               0.000000000               0.000000000               0.000000000               0.000000000               0.000806585               0.007143160               0.000270787              -0.000590424               0.002577838               0.001987413               0.000000000               0.000000000               0.000000000               0.000000000               0.000639002               0.006847474               0.000309145              -0.000616307               0.002487904               0.001871597               0.000000000               0.000000000               0.000000000               0.000000000               0.000492332               0.006623294               0.000322704              -0.000643286               0.002422171               0.001778885               0.000000000               0.000000000               0.000000000               0.000000000               0.000374939               0.006440990               0.000324373              -0.000664520               0.002368482               0.001703962               0.000000000               0.000000000               0.000000000               0.000000000               0.000280689               0.006284432               0.000316816              -0.000680294               0.002321554               0.001641260               0.000000000               0.000000000               0.000000000               0.000000000               0.000206551               0.006145674               0.000303130              -0.000690751               0.002278788               0.001588037               0.000000000               0.000000000               0.000000000               0.000000000               0.000149465               0.006016704               0.000283489              -0.000696037               0.002237560               0.001541524               0.000000000               0.000000000               0.000000000               0.000000000               0.000101642               0.005891352               0.000251778              -0.000698301               0.002196531               0.001498230               0.000000000               0.000000000               0.000000000               0.000000000               0.000066913               0.005774278               0.000206341              -0.000696691               0.002156970               0.001460280               0.000000000               0.000000000               0.000000000               0.000000000               0.000039994               0.005668873               0.000152146              -0.000693609               0.002120809               0.001427199               0.000000000               0.000000000               0.000000000               0.000000000               0.000015767               0.005578892               0.000085086              -0.000691447               0.002090094               0.001398647               0.000000000               0.000000000               0.000000000               0.000000000               0.000000983               0.005530431               0.000049390              -0.000690934               0.002073770               0.001382836               0.000000000               0.000000000               0.000000000               0.000000000               0.002002603               0.011235440              -0.003213336              -0.000653455               0.003962927               0.003309472               0.000000000               0.000000000               0.000000000               0.000000000               0.001292785               0.009612057              -0.001920371              -0.000716712               0.003442891               0.002726178               0.000000000               0.000000000               0.000000000               0.000000000               0.000967805               0.008553608              -0.000642872              -0.000706273               0.003086598               0.002380326               0.000000000               0.000000000               0.000000000               0.000000000               0.000716505               0.007870303              -0.000131693              -0.000715097               0.002861774               0.002146677               0.000000000               0.000000000               0.000000000               0.000000000               0.000531434               0.007390362               0.000083649              -0.000724506               0.002704931               0.001980426               0.000000000               0.000000000               0.000000000               0.000000000               0.000382157               0.007038635               0.000183057              -0.000736519               0.002591695               0.001855176               0.000000000               0.000000000               0.000000000               0.000000000               0.000260005               0.006771820               0.000232317              -0.000748974               0.002506909               0.001757935               0.000000000               0.000000000               0.000000000               0.000000000               0.000163875               0.006557537               0.000253504              -0.000758237               0.002438570               0.001680332               0.000000000               0.000000000               0.000000000               0.000000000               0.000092245               0.006370642               0.000259899              -0.000761737               0.002377438               0.001615702               0.000000000               0.000000000               0.000000000               0.000000000               0.000045931               0.006201658               0.000258379              -0.000757981               0.002319859               0.001561878               0.000000000               0.000000000               0.000000000               0.000000000               0.000018487               0.006047166               0.000247463              -0.000748961               0.002265356               0.001516394               0.000000000               0.000000000               0.000000000               0.000000000               0.000003765               0.005899948               0.000228105              -0.000736080               0.002211990               0.001475910               0.000000000               0.000000000               0.000000000               0.000000000              -0.000003682               0.005763241               0.000199081              -0.000721784               0.002161656               0.001439872               0.000000000               0.000000000               0.000000000               0.000000000              -0.000005151               0.005643148               0.000158279              -0.000707323               0.002116805               0.001409482               0.000000000               0.000000000               0.000000000               0.000000000              -0.000002423               0.005543511               0.000111170              -0.000693846               0.002079100               0.001385255               0.000000000               0.000000000               0.000000000               0.000000000              -0.000001741               0.005468239               0.000059482              -0.000684181               0.002050789               0.001366607               0.000000000               0.000000000               0.000000000               0.000000000              -0.000005556               0.005433022               0.000034302              -0.000681210               0.002038059               0.001356850               0.000000000               0.000000000               0.000000000               0.000000000               0.002077928               0.009598289              -0.003362720              -0.000420566               0.003339585               0.002919020               0.000000000               0.000000000               0.000000000               0.000000000               0.001134615               0.008551069              -0.002070574              -0.000643403               0.003064795               0.002421392               0.000000000               0.000000000               0.000000000               0.000000000               0.000553602               0.008017155              -0.000799412              -0.000794542               0.002937206               0.002142664               0.000000000               0.000000000               0.000000000               0.000000000               0.000267017               0.007548066              -0.000303095              -0.000843375               0.002797122               0.001953747               0.000000000               0.000000000               0.000000000               0.000000000               0.000113730               0.007168545              -0.000089139              -0.000853417               0.002673963               0.001820546               0.000000000               0.000000000               0.000000000               0.000000000               0.000015456               0.006866529               0.000020804              -0.000852518               0.002572993               0.001720475               0.000000000               0.000000000               0.000000000               0.000000000              -0.000055133               0.006621403               0.000086614              -0.000848348               0.002489895               0.001641547               0.000000000               0.000000000               0.000000000               0.000000000              -0.000101218               0.006410796               0.000121056              -0.000839304               0.002416679               0.001577374               0.000000000               0.000000000               0.000000000               0.000000000              -0.000126519               0.006215068               0.000137020              -0.000824326               0.002346444               0.001522118               0.000000000               0.000000000               0.000000000               0.000000000              -0.000130806               0.006035126               0.000146845              -0.000803441               0.002279502               0.001476061               0.000000000               0.000000000               0.000000000               0.000000000              -0.000117992               0.005872569               0.000146563              -0.000778316               0.002216942               0.001438626               0.000000000               0.000000000               0.000000000               0.000000000              -0.000095754               0.005722702               0.000136252              -0.000751244               0.002157963               0.001406719               0.000000000               0.000000000               0.000000000               0.000000000              -0.000073959               0.005585332               0.000119499              -0.000725899               0.002103725               0.001377826               0.000000000               0.000000000               0.000000000               0.000000000              -0.000055727               0.005467349               0.000093658              -0.000704315               0.002057203               0.001352889               0.000000000               0.000000000               0.000000000               0.000000000              -0.000037596               0.005374249               0.000063508              -0.000685878               0.002020024               0.001334147               0.000000000               0.000000000               0.000000000               0.000000000              -0.000019037               0.005307086               0.000034295              -0.000670523               0.001992519               0.001321996               0.000000000               0.000000000               0.000000000               0.000000000              -0.000013974               0.005272675               0.000022778              -0.000664323               0.001978982               0.001314659               0.000000000               0.000000000               0.000000000               0.000000000               0.001995253               0.007947290              -0.003261287              -0.000245195               0.002730801               0.002485606               0.000000000               0.000000000               0.000000000               0.000000000               0.000915603               0.007498688              -0.002114054              -0.000593985               0.002697532               0.002103547               0.000000000               0.000000000               0.000000000               0.000000000               0.000160545               0.007463300              -0.000974541              -0.000872706               0.002778644               0.001905938               0.000000000               0.000000000               0.000000000               0.000000000              -0.000111015               0.007182941              -0.000521408              -0.000939496               0.002707455               0.001767959               0.000000000               0.000000000               0.000000000               0.000000000              -0.000211536               0.006889025              -0.000304564              -0.000940452               0.002609803               0.001669351               0.000000000               0.000000000               0.000000000               0.000000000              -0.000254022               0.006630825              -0.000174521              -0.000924109               0.002518289               0.001594180               0.000000000               0.000000000               0.000000000               0.000000000              -0.000274610               0.006405188              -0.000086612              -0.000903625               0.002436250               0.001532625               0.000000000               0.000000000               0.000000000               0.000000000              -0.000279930               0.006191894              -0.000033761              -0.000878958               0.002356930               0.001477972               0.000000000               0.000000000               0.000000000               0.000000000              -0.000265765               0.005992047              -0.000001476              -0.000848666               0.002280217               0.001431552               0.000000000               0.000000000               0.000000000               0.000000000              -0.000229955               0.005814398               0.000026325              -0.000813031               0.002209124               0.001396093               0.000000000               0.000000000               0.000000000               0.000000000              -0.000182043               0.005653135               0.000043616              -0.000774906               0.002142661               0.001367755               0.000000000               0.000000000               0.000000000               0.000000000              -0.000136337               0.005503118               0.000048308              -0.000739014               0.002080693               0.001341678               0.000000000               0.000000000               0.000000000               0.000000000              -0.000098637               0.005370925               0.000047729              -0.000708353               0.002026408               0.001318055               0.000000000               0.000000000               0.000000000               0.000000000              -0.000069550               0.005262851               0.000041343              -0.000683936               0.001982245               0.001298309               0.000000000               0.000000000               0.000000000               0.000000000              -0.000043418               0.005181154               0.000030333              -0.000663924               0.001948342               0.001284418               0.000000000               0.000000000               0.000000000               0.000000000              -0.000020269               0.005121291               0.000017158              -0.000647761               0.001923000               0.001275240               0.000000000               0.000000000               0.000000000               0.000000000              -0.000014687               0.005086565               0.000012760              -0.000641327               0.001909280               0.001267954               0.000000000               0.000000000               0.000000000               0.000000000               0.001771563               0.006384251              -0.002962659              -0.000133699               0.002172628               0.002038929               0.000000000               0.000000000               0.000000000               0.000000000               0.000658282               0.006510978              -0.002080900              -0.000567017               0.002359309               0.001792292               0.000000000               0.000000000               0.000000000               0.000000000              -0.000168027               0.006900140              -0.001164680              -0.000925526               0.002608532               0.001683006               0.000000000               0.000000000               0.000000000               0.000000000              -0.000382422               0.006776728              -0.000753246              -0.000990497               0.002589052               0.001598555               0.000000000               0.000000000               0.000000000               0.000000000              -0.000421126               0.006561605              -0.000520842              -0.000978121               0.002513220               0.001535099               0.000000000               0.000000000               0.000000000               0.000000000              -0.000415430               0.006347966              -0.000366405              -0.000949280               0.002432394               0.001483114               0.000000000               0.000000000               0.000000000               0.000000000              -0.000397274               0.006139509              -0.000257723              -0.000916414               0.002351954               0.001435540               0.000000000               0.000000000               0.000000000               0.000000000              -0.000364196               0.005932561              -0.000183385              -0.000878142               0.002270214               0.001392073               0.000000000               0.000000000               0.000000000               0.000000000              -0.000312664               0.005743568              -0.000127616              -0.000835193               0.002192901               0.001357708               0.000000000               0.000000000               0.000000000               0.000000000              -0.000247430               0.005572389              -0.000078938              -0.000789333               0.002120555               0.001331222               0.000000000               0.000000000               0.000000000               0.000000000              -0.000180426               0.005409844              -0.000043319              -0.000743889               0.002051226               0.001307338               0.000000000               0.000000000               0.000000000               0.000000000              -0.000124710               0.005263668              -0.000019824              -0.000704723               0.001989446               0.001284723               0.000000000               0.000000000               0.000000000               0.000000000              -0.000081289               0.005142850              -0.000000883              -0.000673338               0.001938712               0.001265374               0.000000000               0.000000000               0.000000000               0.000000000              -0.000051313               0.005044797               0.000010350              -0.000649840               0.001898196               0.001248355               0.000000000               0.000000000               0.000000000               0.000000000              -0.000030265               0.004966451               0.000013610              -0.000632154               0.001866185               0.001234031               0.000000000               0.000000000               0.000000000               0.000000000              -0.000015014               0.004900450               0.000010045              -0.000618185               0.001839529               0.001221344               0.000000000               0.000000000               0.000000000               0.000000000              -0.000013511               0.004858843               0.000009482              -0.000612421               0.001823738               0.001211318               0.000000000               0.000000000               0.000000000               0.000000000               0.001466807               0.005032323              -0.002540105              -0.000078991               0.001703753               0.001624763               0.000000000               0.000000000               0.000000000               0.000000000               0.000423250               0.005621521              -0.002009539              -0.000543972               0.002055145               0.001511173               0.000000000               0.000000000               0.000000000               0.000000000              -0.000391183               0.006362968              -0.001379276              -0.000942063               0.002434989               0.001492926               0.000000000               0.000000000               0.000000000               0.000000000              -0.000539153               0.006400863              -0.000998121              -0.001002288               0.002467696               0.001465407               0.000000000               0.000000000               0.000000000               0.000000000              -0.000531544               0.006273554              -0.000744451              -0.000983521               0.002419004               0.001435483               0.000000000               0.000000000               0.000000000               0.000000000              -0.000493310               0.006110517              -0.000565446              -0.000948803               0.002353086               0.001404283               0.000000000               0.000000000               0.000000000               0.000000000              -0.000444713               0.005930317              -0.000435308              -0.000908055               0.002279437               0.001371383               0.000000000               0.000000000               0.000000000               0.000000000              -0.000377595               0.005746945              -0.000337212              -0.000859964               0.002202284               0.001342320               0.000000000               0.000000000               0.000000000               0.000000000              -0.000296030               0.005574300              -0.000257334              -0.000807797               0.002127347               0.001319550               0.000000000               0.000000000               0.000000000               0.000000000              -0.000214758               0.005406813              -0.000188855              -0.000756384               0.002054381               0.001297997               0.000000000               0.000000000               0.000000000               0.000000000              -0.000142276               0.005245059              -0.000130880              -0.000708984               0.001984664               0.001275680               0.000000000               0.000000000               0.000000000               0.000000000              -0.000087190               0.005104369              -0.000082139              -0.000670741               0.001925020               0.001254279               0.000000000               0.000000000               0.000000000               0.000000000              -0.000056203               0.004985866              -0.000042561              -0.000644308               0.001876708               0.001232400               0.000000000               0.000000000               0.000000000               0.000000000              -0.000041280               0.004885709              -0.000015050              -0.000626192               0.001837284               0.001211092               0.000000000               0.000000000               0.000000000               0.000000000              -0.000037210               0.004795599              -0.000000604              -0.000613402               0.001802984               0.001189582               0.000000000               0.000000000               0.000000000               0.000000000              -0.000040241               0.004706313               0.000002544              -0.000603378               0.001769881               0.001166503               0.000000000               0.000000000               0.000000000               0.000000000              -0.000041841               0.004656691               0.000003170              -0.000597775               0.001751473               0.001153698               0.000000000               0.000000000               0.000000000               0.000000000               0.001055202               0.003756252              -0.002064807              -0.000073833               0.001276682               0.001202848               0.000000000               0.000000000               0.000000000               0.000000000               0.000246764               0.004606535              -0.001915894              -0.000483281               0.001696589               0.001213308               0.000000000               0.000000000               0.000000000               0.000000000              -0.000473717               0.005602240              -0.001614545              -0.000877923               0.002160035               0.001282112               0.000000000               0.000000000               0.000000000               0.000000000              -0.000593275               0.005852027              -0.001280279              -0.000953980               0.002268649               0.001314670               0.000000000               0.000000000               0.000000000               0.000000000              -0.000566986               0.005861093              -0.001010260              -0.000945254               0.002268763               0.001323508               0.000000000               0.000000000               0.000000000               0.000000000              -0.000517583               0.005790958              -0.000806339              -0.000917961               0.002236287               0.001318326               0.000000000               0.000000000               0.000000000               0.000000000              -0.000459537               0.005685228              -0.000655026              -0.000882978               0.002189383               0.001306405               0.000000000               0.000000000               0.000000000               0.000000000              -0.000386041               0.005562159              -0.000533481              -0.000840033               0.002134045               0.001294012               0.000000000               0.000000000               0.000000000               0.000000000              -0.000303332               0.005432052              -0.000428388              -0.000792754               0.002074917               0.001282163               0.000000000               0.000000000               0.000000000               0.000000000              -0.000222109               0.005298035              -0.000335368              -0.000745543               0.002014508               0.001268965               0.000000000               0.000000000               0.000000000               0.000000000              -0.000150963               0.005160153              -0.000252047              -0.000701629               0.001953910               0.001252282               0.000000000               0.000000000               0.000000000               0.000000000              -0.000096708               0.005029884              -0.000175201              -0.000664999               0.001898278               0.001233278               0.000000000               0.000000000               0.000000000               0.000000000              -0.000066896               0.004913945              -0.000108700              -0.000639328               0.001851074               0.001211747               0.000000000               0.000000000               0.000000000               0.000000000              -0.000059879               0.004812065              -0.000057877              -0.000623961               0.001811993               0.001188032               0.000000000               0.000000000               0.000000000               0.000000000              -0.000068248               0.004715512              -0.000023866              -0.000615030               0.001776832               0.001161801               0.000000000               0.000000000               0.000000000               0.000000000              -0.000087340               0.004616410              -0.000005814              -0.000609802               0.001742055               0.001132253               0.000000000               0.000000000               0.000000000               0.000000000              -0.000097133               0.004566781              -0.000000229              -0.000607271               0.001724669               0.001117398               0.000000000               0.000000000               0.000000000               0.000000000               0.000454535               0.002589035              -0.001558880              -0.000153180               0.000914062               0.000760882               0.000000000               0.000000000               0.000000000               0.000000000               0.000035609               0.003600939              -0.001764998              -0.000436765               0.001345889               0.000909124               0.000000000               0.000000000               0.000000000               0.000000000              -0.000482089               0.004750537              -0.001792152              -0.000774600               0.001841696               0.001067096               0.000000000               0.000000000               0.000000000               0.000000000              -0.000574764               0.005199735              -0.001548629              -0.000865502               0.002021728               0.001156226               0.000000000               0.000000000               0.000000000               0.000000000              -0.000543366               0.005364829              -0.001289932              -0.000874364               0.002079713               0.001205349               0.000000000               0.000000000               0.000000000               0.000000000              -0.000487359               0.005411742              -0.001074446              -0.000859226               0.002090304               0.001231079               0.000000000               0.000000000               0.000000000               0.000000000              -0.000430713               0.005398983              -0.000907387              -0.000836389               0.002078439               0.001242051               0.000000000               0.000000000               0.000000000               0.000000000              -0.000366179               0.005351111              -0.000766503              -0.000806204               0.002052420               0.001246216               0.000000000               0.000000000               0.000000000               0.000000000              -0.000292947               0.005283254              -0.000639936              -0.000770260               0.002017820               0.001247560               0.000000000               0.000000000               0.000000000               0.000000000              -0.000217686               0.005198262              -0.000526909              -0.000731413               0.001976541               0.001245128               0.000000000               0.000000000               0.000000000               0.000000000              -0.000147232               0.005096725              -0.000422596              -0.000692301               0.001929658               0.001237357               0.000000000               0.000000000               0.000000000               0.000000000              -0.000088650               0.004989009              -0.000321518              -0.000656868               0.001881942               0.001225074               0.000000000               0.000000000               0.000000000               0.000000000              -0.000052396               0.004879111              -0.000227560              -0.000629536               0.001836199               0.001206664               0.000000000               0.000000000               0.000000000               0.000000000              -0.000045298               0.004777096              -0.000146932              -0.000614122               0.001797057               0.001182934               0.000000000               0.000000000               0.000000000               0.000000000              -0.000064665               0.004686944              -0.000082286              -0.000610116               0.001765671               0.001155555               0.000000000               0.000000000               0.000000000               0.000000000              -0.000107253               0.004599321              -0.000033877              -0.000615134               0.001738136               0.001123003               0.000000000               0.000000000               0.000000000               0.000000000              -0.000141510               0.004550395              -0.000010306              -0.000621864               0.001724071               0.001102207               0.000000000               0.000000000               0.000000000               0.000000000              -0.000298214               0.001599241              -0.001052619              -0.000311736               0.000636986               0.000325251               0.000000000               0.000000000               0.000000000               0.000000000              -0.000257578               0.002649047              -0.001534238              -0.000427723               0.001025580               0.000597857               0.000000000               0.000000000               0.000000000               0.000000000              -0.000462494               0.003809882              -0.001835845              -0.000649670               0.001486504               0.000836834               0.000000000               0.000000000               0.000000000               0.000000000              -0.000478620               0.004403806              -0.001708128              -0.000729957               0.001711239               0.000981282               0.000000000               0.000000000               0.000000000               0.000000000              -0.000433951               0.004712678              -0.001493999              -0.000751815               0.001821482               0.001069666               0.000000000               0.000000000               0.000000000               0.000000000              -0.000375602               0.004881822              -0.001291012              -0.000751077               0.001877617               0.001126539               0.000000000               0.000000000               0.000000000               0.000000000              -0.000325565               0.004974413              -0.001120521              -0.000743887               0.001906083               0.001162196               0.000000000               0.000000000               0.000000000               0.000000000              -0.000275421               0.005017854              -0.000972296              -0.000730513               0.001916106               0.001185592               0.000000000               0.000000000               0.000000000               0.000000000              -0.000218291               0.005025774              -0.000837020              -0.000710079               0.001911934               0.001201855               0.000000000               0.000000000               0.000000000               0.000000000              -0.000157434               0.005005497              -0.000713463              -0.000684723               0.001896723               0.001212000               0.000000000               0.000000000               0.000000000               0.000000000              -0.000096206               0.004958863              -0.000597994              -0.000655934               0.001871582               0.001215649               0.000000000               0.000000000               0.000000000               0.000000000              -0.000038621               0.004893336              -0.000484515              -0.000626149               0.001839812               0.001213663               0.000000000               0.000000000               0.000000000               0.000000000               0.000005796               0.004815112              -0.000372001              -0.000599714               0.001804926               0.001205212               0.000000000               0.000000000               0.000000000               0.000000000               0.000021151               0.004733738              -0.000265331              -0.000583784               0.001772492               0.001188708               0.000000000               0.000000000               0.000000000               0.000000000               0.000000931               0.004657483              -0.000167906              -0.000581835               0.001746424               0.001164589               0.000000000               0.000000000               0.000000000               0.000000000              -0.000058222               0.004583975              -0.000079245              -0.000594829               0.001726253               0.001131424               0.000000000               0.000000000               0.000000000               0.000000000              -0.000117257               0.004535908              -0.000030230              -0.000610958               0.001715607               0.001104648               0.000000000               0.000000000               0.000000000               0.000000000              -0.001133943               0.000834521              -0.000602449              -0.000529543               0.000454684              -0.000074859               0.000000000               0.000000000               0.000000000               0.000000000              -0.000608381               0.001795652              -0.001243399              -0.000452599               0.000749410               0.000296811               0.000000000               0.000000000               0.000000000               0.000000000              -0.000431052               0.002850768              -0.001729420              -0.000517990               0.001122909               0.000604919               0.000000000               0.000000000               0.000000000               0.000000000              -0.000324201               0.003521566              -0.001714665              -0.000561771               0.001361100               0.000799329               0.000000000               0.000000000               0.000000000               0.000000000              -0.000246571               0.003947008              -0.001563628              -0.000585840               0.001510936               0.000925096               0.000000000               0.000000000               0.000000000               0.000000000              -0.000183596               0.004232534              -0.001392719              -0.000597915               0.001610135               0.001012220               0.000000000               0.000000000               0.000000000               0.000000000              -0.000142566               0.004429484              -0.001236574              -0.000607147               0.001678862               0.001071715               0.000000000               0.000000000               0.000000000               0.000000000              -0.000109447               0.004566615              -0.001095879              -0.000611869               0.001726146               0.001114277               0.000000000               0.000000000               0.000000000               0.000000000              -0.000073588               0.004657239              -0.000964334              -0.000609749               0.001755647               0.001145898               0.000000000               0.000000000               0.000000000               0.000000000              -0.000033279               0.004711567              -0.000843145              -0.000601424               0.001770981               0.001169557               0.000000000               0.000000000               0.000000000               0.000000000               0.000010694               0.004736521              -0.000729151              -0.000588054               0.001774842               0.001186789               0.000000000               0.000000000               0.000000000               0.000000000               0.000058173               0.004734766              -0.000618091              -0.000570030               0.001768249               0.001198220               0.000000000               0.000000000               0.000000000               0.000000000               0.000106211               0.004712082              -0.000501724              -0.000549180               0.001753738               0.001204558               0.000000000               0.000000000               0.000000000               0.000000000               0.000140012               0.004675009              -0.000381297              -0.000531870               0.001735611               0.001203741               0.000000000               0.000000000               0.000000000               0.000000000               0.000141664               0.004625585              -0.000261071              -0.000525073               0.001716871               0.001191798               0.000000000               0.000000000               0.000000000               0.000000000               0.000099227               0.004573273              -0.000134169              -0.000534448               0.001702558               0.001168111               0.000000000               0.000000000               0.000000000               0.000000000               0.000043051               0.004535193              -0.000061327              -0.000550754               0.001695300               0.001144547               0.000000000               0.000000000               0.000000000               0.000000000              -0.001955527               0.000298941              -0.000262635              -0.000770690               0.000356541              -0.000414148               0.000000000               0.000000000               0.000000000               0.000000000              -0.000973790               0.001090829              -0.000921857              -0.000501524               0.000530780               0.000029255               0.000000000               0.000000000               0.000000000               0.000000000              -0.000401491               0.001964186              -0.001467584              -0.000396082               0.000786749               0.000390666               0.000000000               0.000000000               0.000000000               0.000000000              -0.000143409               0.002650234              -0.001534435              -0.000385058               0.001011754               0.000626696               0.000000000               0.000000000               0.000000000               0.000000000              -0.000017272               0.003157001              -0.001449340              -0.000401102               0.001186023               0.000784921               0.000000000               0.000000000               0.000000000               0.000000000               0.000055352               0.003537481              -0.001324373              -0.000421428               0.001319624               0.000898196               0.000000000               0.000000000               0.000000000               0.000000000               0.000095592               0.003822812              -0.001198844              -0.000442004               0.001421592               0.000979588               0.000000000               0.000000000               0.000000000               0.000000000               0.000112453               0.004042110              -0.001080729              -0.000463093               0.001501721               0.001038627               0.000000000               0.000000000               0.000000000               0.000000000               0.000128366               0.004214611              -0.000967250              -0.000478689               0.001564419               0.001085731               0.000000000               0.000000000               0.000000000               0.000000000               0.000149249               0.004347230              -0.000860052              -0.000487435               0.001611540               0.001124106               0.000000000               0.000000000               0.000000000               0.000000000               0.000176545               0.004448406              -0.000758196              -0.000489845               0.001646069               0.001156224               0.000000000               0.000000000               0.000000000               0.000000000               0.000212257               0.004517110              -0.000660536              -0.000485041               0.001667369               0.001182327               0.000000000               0.000000000               0.000000000               0.000000000               0.000258907               0.004558926              -0.000557571              -0.000472774               0.001677218               0.001204444               0.000000000               0.000000000               0.000000000               0.000000000               0.000313305               0.004580396              -0.000442658              -0.000455059               0.001678470               0.001223411               0.000000000               0.000000000               0.000000000               0.000000000               0.000354958               0.004575469              -0.000316457              -0.000438823               0.001671415               0.001232592               0.000000000               0.000000000               0.000000000               0.000000000               0.000370428               0.004553520              -0.000170069              -0.000430279               0.001661251               0.001230973               0.000000000               0.000000000               0.000000000               0.000000000               0.000362628               0.004534982              -0.000087367              -0.000430886               0.001655274               0.001224388               0.000000000               0.000000000               0.000000000               0.000000000              -0.002655518              -0.000034507              -0.000060859              -0.000991505               0.000318997              -0.000672508               0.000000000               0.000000000               0.000000000               0.000000000              -0.001299374               0.000573749              -0.000597944              -0.000558983               0.000377574              -0.000181409               0.000000000               0.000000000               0.000000000               0.000000000              -0.000386728               0.001247814              -0.001065611              -0.000301000               0.000516267               0.000215266               0.000000000               0.000000000               0.000000000               0.000000000               0.000018613               0.001906753              -0.001160403              -0.000231365               0.000712699               0.000481334               0.000000000               0.000000000               0.000000000               0.000000000               0.000203666               0.002457131              -0.001125830              -0.000230767               0.000895957               0.000665190               0.000000000               0.000000000               0.000000000               0.000000000               0.000294052               0.002901478              -0.001052313              -0.000252415               0.001051288               0.000798872               0.000000000               0.000000000               0.000000000               0.000000000               0.000337460               0.003252918              -0.000966992              -0.000280067               0.001177651               0.000897583               0.000000000               0.000000000               0.000000000               0.000000000               0.000349440               0.003534202              -0.000882812              -0.000310735               0.001281634               0.000970899               0.000000000               0.000000000               0.000000000               0.000000000               0.000351702               0.003769085              -0.000801615              -0.000339247               0.001369431               0.001030184               0.000000000               0.000000000               0.000000000               0.000000000               0.000358444               0.003965943              -0.000720745              -0.000361326               0.001442410               0.001081084               0.000000000               0.000000000               0.000000000               0.000000000               0.000375325               0.004127442              -0.000643251              -0.000375183               0.001500861               0.001125678               0.000000000               0.000000000               0.000000000               0.000000000               0.000406984               0.004260242              -0.000568678              -0.000379910               0.001546703               0.001166793               0.000000000               0.000000000               0.000000000               0.000000000               0.000453864               0.004366800              -0.000490087              -0.000375650               0.001580802               0.001205152               0.000000000               0.000000000               0.000000000               0.000000000               0.000521215               0.004450183              -0.000398458              -0.000360816               0.001603652               0.001242835               0.000000000               0.000000000               0.000000000               0.000000000               0.000604912               0.004504590              -0.000290906              -0.000336231               0.001613592               0.001277361               0.000000000               0.000000000               0.000000000               0.000000000               0.000697176               0.004524510              -0.000159056              -0.000304122               0.001609529               0.001305407               0.000000000               0.000000000               0.000000000               0.000000000               0.000764527               0.004531932              -0.000086877              -0.000279793               0.001603893               0.001324100               0.000000000               0.000000000               0.000000000               0.000000000              -0.003130305              -0.000204921               0.000011416              -0.001148249               0.000314440              -0.000833808               0.000000000               0.000000000               0.000000000               0.000000000              -0.001528434               0.000262992              -0.000289529              -0.000606036               0.000289674              -0.000316362               0.000000000               0.000000000               0.000000000               0.000000000              -0.000385932               0.000784734              -0.000559296              -0.000242816               0.000342514               0.000099698               0.000000000               0.000000000               0.000000000               0.000000000               0.000123434               0.001407664              -0.000625607              -0.000129670               0.000512440               0.000382769               0.000000000               0.000000000               0.000000000               0.000000000               0.000365056               0.001972641              -0.000618959              -0.000109684               0.000694102               0.000584417               0.000000000               0.000000000               0.000000000               0.000000000               0.000476910               0.002448091              -0.000587983              -0.000127170               0.000858412               0.000731242               0.000000000               0.000000000               0.000000000               0.000000000               0.000521307               0.002836346              -0.000545216              -0.000159053               0.000998457               0.000839404               0.000000000               0.000000000               0.000000000               0.000000000               0.000536019               0.003158142              -0.000500793              -0.000193760               0.001117290               0.000923530               0.000000000               0.000000000               0.000000000               0.000000000               0.000535554               0.003429131              -0.000458401              -0.000227808               0.001218968               0.000991160               0.000000000               0.000000000               0.000000000               0.000000000               0.000535606               0.003660914              -0.000415577              -0.000256761               0.001305879               0.001049118               0.000000000               0.000000000               0.000000000               0.000000000               0.000546352               0.003863902              -0.000374487              -0.000278105               0.001380656               0.001102551               0.000000000               0.000000000               0.000000000               0.000000000               0.000573239               0.004042686              -0.000333818              -0.000290370               0.001444339               0.001153968               0.000000000               0.000000000               0.000000000               0.000000000               0.000622162               0.004202478              -0.000290126              -0.000291998               0.001498145               0.001206146               0.000000000               0.000000000               0.000000000               0.000000000               0.000701318               0.004340087              -0.000239695              -0.000279516               0.001539853               0.001260337               0.000000000               0.000000000               0.000000000               0.000000000               0.000816172               0.004439999              -0.000177372              -0.000248935               0.001562963               0.001314028               0.000000000               0.000000000               0.000000000               0.000000000               0.000972091               0.004494697              -0.000098401              -0.000197303               0.001563985               0.001366682               0.000000000               0.000000000               0.000000000               0.000000000               0.001105096               0.004525677              -0.000056493              -0.000151298               0.001558977               0.001407678               0.000000000               0.000000000               0.000000000               0.000000000              -0.003299682              -0.000255150              -0.000000000              -0.001205486               0.000316777              -0.000888709               0.000000000               0.000000000               0.000000000               0.000000000              -0.001612119               0.000159734               0.000000000              -0.000624511               0.000261413              -0.000363098               0.000000000               0.000000000               0.000000000               0.000000000              -0.000387504               0.000626869               0.000000000              -0.000223672               0.000283512               0.000059839               0.000000000               0.000000000               0.000000000               0.000000000               0.000158864               0.001234616               0.000000000              -0.000094753               0.000443119               0.000348366               0.000000000               0.000000000               0.000000000               0.000000000               0.000425831               0.001799628               0.000000000              -0.000065267               0.000621626               0.000556359               0.000000000               0.000000000               0.000000000               0.000000000               0.000545695               0.002281661               0.000000000              -0.000080572               0.000787403               0.000706832               0.000000000               0.000000000               0.000000000               0.000000000               0.000591581               0.002681714               0.000000000              -0.000113371               0.000931686               0.000818315               0.000000000               0.000000000               0.000000000               0.000000000               0.000606160               0.003015510              -0.000000000              -0.000149629               0.001055036               0.000905408               0.000000000               0.000000000               0.000000000               0.000000000               0.000607517               0.003298099              -0.000000000              -0.000184443               0.001160836               0.000976393               0.000000000               0.000000000               0.000000000               0.000000000               0.000606882               0.003543040               0.000000000              -0.000215299               0.001252768               0.001037469               0.000000000               0.000000000               0.000000000               0.000000000               0.000615243               0.003761781               0.000000000              -0.000239506               0.001333750               0.001094244               0.000000000               0.000000000               0.000000000               0.000000000               0.000638931               0.003959974              -0.000000000              -0.000255397               0.001405110               0.001149713               0.000000000               0.000000000               0.000000000               0.000000000               0.000689465               0.004141034              -0.000000000              -0.000259079               0.001466690               0.001207611               0.000000000               0.000000000               0.000000000               0.000000000               0.000773483               0.004295773               0.000000000              -0.000246915               0.001514215               0.001267300               0.000000000               0.000000000               0.000000000               0.000000000               0.000900666               0.004413753               0.000000000              -0.000213969               0.001542559               0.001328590               0.000000000               0.000000000               0.000000000               0.000000000               0.001082715               0.004483805              -0.000000000              -0.000154457               0.001546072               0.001391615               0.000000000               0.000000000               0.000000000               0.000000000               0.001241251               0.004523059               0.000000000              -0.000099913               0.001540976               0.001441063               0.000000000               0.000000000               0.000000000               0.000000000               0.000000000               0.000000000               0.000000000               0.000000000               0.000000000               0.000000000               0.000000000               0.000000000               0.000000000               0.000000000               0.000000000               0.000000000               0.000000000               0.000000000               0.000000000               0.000000000               0.000000000               0.000000000               0.000000000               0.000000000               0.000000000               0.000000000               0.000000000               0.000000000               0.000000000               0.000000000               0.000000000               0.000000000               0.000000000               0.000000000               0.000000000               0.000000000               0.000000000               0.000000000               0.000000000               0.000000000               0.000000000               0.000000000               0.000000000               0.000000000               0.000000000               0.000000000               0.000000000               0.000000000               0.000000000               0.000000000               0.000000000               0.000000000               0.000000000               0.000000000               0.000000000               0.000000000               0.000000000               0.000000000               0.000000000               0.000000000               0.000000000               0.000000000               0.000000000               0.000000000               0.000000000               0.000000000               0.000000000               0.000000000               0.000000000               0.000000000               0.000000000               0.000000000               0.000000000               0.000000000               0.000000000               0.000000000               0.000000000               0.000000000               0.000000000               0.000000000               0.000000000               0.000000000               0.000000000               0.000000000               0.000000000               0.000000000               0.000000000               0.000000000               0.000000000               0.000000000               0.000000000               0.000000000               0.000000000               0.000000000               0.000000000               0.000000000               0.000000000               0.000000000               0.000000000               0.000000000               0.000000000               0.000000000               0.000000000               0.000000000               0.000000000               0.000000000               0.000000000               0.000000000               0.000000000               0.000000000               0.000000000               0.000000000               0.000000000               0.000000000               0.000000000               0.000000000               0.000000000               0.000000000               0.000000000               0.000000000               0.000000000               0.000000000               0.000000000               0.000000000               0.000000000               0.000000000               0.000000000               0.000000000               0.000000000               0.000000000               0.000000000               0.000000000               0.000000000               0.000000000               0.000000000               0.000000000               0.000000000               0.000000000               0.000000000               0.000000000               0.000000000               0.000000000               0.000000000               0.000000000               0.000000000               0.000000000               0.000000000               0.000000000               0.000000000               0.000000000               0.000000000               0.000000000               0.000000000               0.000000000               0.000000000               0.000000000               0.000000000               0.000000000               0.000000000               0.000000000               0.000000000               0.000000000               0.000000000               0.000000000               0.000000000               0.000000000               0.000000000               0.000000000               0.000000000               0.000000000               0.000000000               0.000000000               0.000000000               0.000000000               0.001408063               0.014762411               0.001085270              -0.001317275               0.005359846               0.004042571               0.000000000               0.000000000               0.000000000               0.000000000               0.001417488               0.011960544               0.000631238              -0.000963508               0.004307977               0.003344470               0.000000000               0.000000000               0.000000000               0.000000000               0.001859662               0.009721830               0.000172282              -0.000517854               0.003413196               0.002895342               0.000000000               0.000000000               0.000000000               0.000000000               0.001854590               0.008472358              -0.000030726              -0.000363573               0.002945282               0.002581709               0.000000000               0.000000000               0.000000000               0.000000000               0.001703794               0.007706553              -0.000121216              -0.000324396               0.002676957               0.002352561               0.000000000               0.000000000               0.000000000               0.000000000               0.001504547               0.007201707              -0.000159527              -0.000336008               0.002512548               0.002176540               0.000000000               0.000000000               0.000000000               0.000000000               0.001298387               0.006855083              -0.000175364              -0.000369989               0.002408335               0.002038345               0.000000000               0.000000000               0.000000000               0.000000000               0.001097842               0.006608643              -0.000179797              -0.000414389               0.002340989               0.001926600               0.000000000               0.000000000               0.000000000               0.000000000               0.000910394               0.006430069              -0.000176824              -0.000462360               0.002297455               0.001835095               0.000000000               0.000000000               0.000000000               0.000000000               0.000736816               0.006293451              -0.000169195              -0.000510374               0.002267921               0.001757547               0.000000000               0.000000000               0.000000000               0.000000000               0.000573719               0.006177597              -0.000158770              -0.000557054               0.002244863               0.001687809               0.000000000               0.000000000               0.000000000               0.000000000               0.000426115               0.006071769              -0.000146614              -0.000599176               0.002223628               0.001624452               0.000000000               0.000000000               0.000000000               0.000000000               0.000300465               0.005969408              -0.000130701              -0.000633500               0.002200949               0.001567449               0.000000000               0.000000000               0.000000000               0.000000000               0.000197997               0.005858649              -0.000109015              -0.000658081               0.002172224               0.001514143               0.000000000               0.000000000               0.000000000               0.000000000               0.000114539               0.005729731              -0.000080309              -0.000673263               0.002134312               0.001461050               0.000000000               0.000000000               0.000000000               0.000000000               0.000050392               0.005578539              -0.000043693              -0.000678419               0.002085634               0.001407215               0.000000000               0.000000000               0.000000000               0.000000000               0.000011864               0.005462837              -0.000026339              -0.000678404               0.002047062               0.001368658               0.000000000               0.000000000               0.000000000               0.000000000               0.001584139               0.013960101               0.002042721              -0.001150959               0.005036973               0.003886015               0.000000000               0.000000000               0.000000000               0.000000000               0.001411550               0.011416765               0.001191572              -0.000897763               0.004104804               0.003207042               0.000000000               0.000000000               0.000000000               0.000000000               0.001659270               0.009453996               0.000337044              -0.000559522               0.003337808               0.002778286               0.000000000               0.000000000               0.000000000               0.000000000               0.001578438               0.008347682              -0.000030121              -0.000451545               0.002933048               0.002481503               0.000000000               0.000000000               0.000000000               0.000000000               0.001406806               0.007654587              -0.000190368              -0.000429270               0.002694593               0.002265323               0.000000000               0.000000000               0.000000000               0.000000000               0.001211738               0.007191129              -0.000260024              -0.000444488               0.002545182               0.002100693               0.000000000               0.000000000               0.000000000               0.000000000               0.001016284               0.006867323              -0.000288403              -0.000477308               0.002448187               0.001970880               0.000000000               0.000000000               0.000000000               0.000000000               0.000833297               0.006628404              -0.000297480              -0.000516063               0.002381467               0.001865404               0.000000000               0.000000000               0.000000000               0.000000000               0.000675060               0.006446640              -0.000296837              -0.000552681               0.002333086               0.001780404               0.000000000               0.000000000               0.000000000               0.000000000               0.000535315               0.006300820              -0.000287107              -0.000586858               0.002295872               0.001709014               0.000000000               0.000000000               0.000000000               0.000000000               0.000409420               0.006175657              -0.000271599              -0.000618423               0.002264673               0.001646250               0.000000000               0.000000000               0.000000000               0.000000000               0.000301328               0.006063553              -0.000254691              -0.000644945               0.002236146               0.001591201               0.000000000               0.000000000               0.000000000               0.000000000               0.000210839               0.005954990              -0.000230020              -0.000665307               0.002206746               0.001541439               0.000000000               0.000000000               0.000000000               0.000000000               0.000137552               0.005842888              -0.000192070              -0.000678777               0.002173869               0.001495092               0.000000000               0.000000000               0.000000000               0.000000000               0.000077848               0.005725350              -0.000144473              -0.000686474               0.002137256               0.001450782               0.000000000               0.000000000               0.000000000               0.000000000               0.000032289               0.005604996              -0.000082146              -0.000688514               0.002097818               0.001409304               0.000000000               0.000000000               0.000000000               0.000000000               0.000005109               0.005521769              -0.000049547              -0.000688304               0.002070006               0.001381702               0.000000000               0.000000000               0.000000000               0.000000000               0.001809551               0.012736987               0.002771713              -0.000913542               0.004550133               0.003636592               0.000000000               0.000000000               0.000000000               0.000000000               0.001378583               0.010600839               0.001629824              -0.000808135               0.003802956               0.002994821               0.000000000               0.000000000               0.000000000               0.000000000               0.001350630               0.009047655               0.000492859              -0.000624469               0.003224011               0.002599542               0.000000000               0.000000000               0.000000000               0.000000000               0.001176464               0.008142247               0.000021368              -0.000576606               0.002906257               0.002329651               0.000000000               0.000000000               0.000000000               0.000000000               0.000987648               0.007552474              -0.000180912              -0.000573690               0.002708696               0.002135006               0.000000000               0.000000000               0.000000000               0.000000000               0.000806585               0.007143160              -0.000270787              -0.000590424               0.002577838               0.001987413               0.000000000               0.000000000               0.000000000               0.000000000               0.000639002               0.006847474              -0.000309145              -0.000616307               0.002487904               0.001871597               0.000000000               0.000000000               0.000000000               0.000000000               0.000492332               0.006623294              -0.000322704              -0.000643286               0.002422171               0.001778885               0.000000000               0.000000000               0.000000000               0.000000000               0.000374939               0.006440990              -0.000324373              -0.000664520               0.002368482               0.001703962               0.000000000               0.000000000               0.000000000               0.000000000               0.000280689               0.006284432              -0.000316816              -0.000680294               0.002321554               0.001641260               0.000000000               0.000000000               0.000000000               0.000000000               0.000206551               0.006145674              -0.000303130              -0.000690751               0.002278788               0.001588037               0.000000000               0.000000000               0.000000000               0.000000000               0.000149465               0.006016704              -0.000283489              -0.000696037               0.002237560               0.001541524               0.000000000               0.000000000               0.000000000               0.000000000               0.000101642               0.005891352              -0.000251778              -0.000698301               0.002196531               0.001498230               0.000000000               0.000000000               0.000000000               0.000000000               0.000066913               0.005774278              -0.000206341              -0.000696691               0.002156970               0.001460280               0.000000000               0.000000000               0.000000000               0.000000000               0.000039994               0.005668873              -0.000152146              -0.000693609               0.002120809               0.001427199               0.000000000               0.000000000               0.000000000               0.000000000               0.000015767               0.005578892              -0.000085086              -0.000691447               0.002090094               0.001398647               0.000000000               0.000000000               0.000000000               0.000000000               0.000000983               0.005530431              -0.000049390              -0.000690934               0.002073770               0.001382836               0.000000000               0.000000000               0.000000000               0.000000000               0.002002603               0.011235440               0.003213336              -0.000653455               0.003962927               0.003309472               0.000000000               0.000000000               0.000000000               0.000000000               0.001292785               0.009612057               0.001920371              -0.000716712               0.003442891               0.002726178               0.000000000               0.000000000               0.000000000               0.000000000               0.000967805               0.008553608               0.000642872              -0.000706273               0.003086598               0.002380326               0.000000000               0.000000000               0.000000000               0.000000000               0.000716505               0.007870303               0.000131693              -0.000715097               0.002861774               0.002146677               0.000000000               0.000000000               0.000000000               0.000000000               0.000531434               0.007390362              -0.000083649              -0.000724506               0.002704931               0.001980426               0.000000000               0.000000000               0.000000000               0.000000000               0.000382157               0.007038635              -0.000183057              -0.000736519               0.002591695               0.001855176               0.000000000               0.000000000               0.000000000               0.000000000               0.000260005               0.006771820              -0.000232317              -0.000748974               0.002506909               0.001757935               0.000000000               0.000000000               0.000000000               0.000000000               0.000163875               0.006557537              -0.000253504              -0.000758237               0.002438570               0.001680332               0.000000000               0.000000000               0.000000000               0.000000000               0.000092245               0.006370642              -0.000259899              -0.000761737               0.002377438               0.001615702               0.000000000               0.000000000               0.000000000               0.000000000               0.000045931               0.006201658              -0.000258379              -0.000757981               0.002319859               0.001561878               0.000000000               0.000000000               0.000000000               0.000000000               0.000018487               0.006047166              -0.000247463              -0.000748961               0.002265356               0.001516394               0.000000000               0.000000000               0.000000000               0.000000000               0.000003765               0.005899948              -0.000228105              -0.000736080               0.002211990               0.001475910               0.000000000               0.000000000               0.000000000               0.000000000              -0.000003682               0.005763241              -0.000199081              -0.000721784               0.002161656               0.001439872               0.000000000               0.000000000               0.000000000               0.000000000              -0.000005151               0.005643148              -0.000158279              -0.000707323               0.002116805               0.001409482               0.000000000               0.000000000               0.000000000               0.000000000              -0.000002423               0.005543511              -0.000111170              -0.000693846               0.002079100               0.001385255               0.000000000               0.000000000               0.000000000               0.000000000              -0.000001741               0.005468239              -0.000059482              -0.000684181               0.002050789               0.001366607               0.000000000               0.000000000               0.000000000               0.000000000              -0.000005556               0.005433022              -0.000034302              -0.000681210               0.002038059               0.001356850               0.000000000               0.000000000               0.000000000               0.000000000               0.002077928               0.009598289               0.003362720              -0.000420566               0.003339585               0.002919020               0.000000000               0.000000000               0.000000000               0.000000000               0.001134615               0.008551069               0.002070574              -0.000643403               0.003064795               0.002421392               0.000000000               0.000000000               0.000000000               0.000000000               0.000553602               0.008017155               0.000799412              -0.000794542               0.002937206               0.002142664               0.000000000               0.000000000               0.000000000               0.000000000               0.000267017               0.007548066               0.000303095              -0.000843375               0.002797122               0.001953747               0.000000000               0.000000000               0.000000000               0.000000000               0.000113730               0.007168545               0.000089139              -0.000853417               0.002673963               0.001820546               0.000000000               0.000000000               0.000000000               0.000000000               0.000015456               0.006866529              -0.000020804              -0.000852518               0.002572993               0.001720475               0.000000000               0.000000000               0.000000000               0.000000000              -0.000055133               0.006621403              -0.000086614              -0.000848348               0.002489895               0.001641547               0.000000000               0.000000000               0.000000000               0.000000000              -0.000101218               0.006410796              -0.000121056              -0.000839304               0.002416679               0.001577374               0.000000000               0.000000000               0.000000000               0.000000000              -0.000126519               0.006215068              -0.000137020              -0.000824326               0.002346444               0.001522118               0.000000000               0.000000000               0.000000000               0.000000000              -0.000130806               0.006035126              -0.000146845              -0.000803441               0.002279502               0.001476061               0.000000000               0.000000000               0.000000000               0.000000000              -0.000117992               0.005872569              -0.000146563              -0.000778316               0.002216942               0.001438626               0.000000000               0.000000000               0.000000000               0.000000000              -0.000095754               0.005722702              -0.000136252              -0.000751244               0.002157963               0.001406719               0.000000000               0.000000000               0.000000000               0.000000000              -0.000073959               0.005585332              -0.000119499              -0.000725899               0.002103725               0.001377826               0.000000000               0.000000000               0.000000000               0.000000000              -0.000055727               0.005467349              -0.000093658              -0.000704315               0.002057203               0.001352889               0.000000000               0.000000000               0.000000000               0.000000000              -0.000037596               0.005374249              -0.000063508              -0.000685878               0.002020024               0.001334147               0.000000000               0.000000000               0.000000000               0.000000000              -0.000019037               0.005307086              -0.000034295              -0.000670523               0.001992519               0.001321996               0.000000000               0.000000000               0.000000000               0.000000000              -0.000013974               0.005272675              -0.000022778              -0.000664323               0.001978982               0.001314659               0.000000000               0.000000000               0.000000000               0.000000000               0.001995253               0.007947290               0.003261287              -0.000245195               0.002730801               0.002485606               0.000000000               0.000000000               0.000000000               0.000000000               0.000915603               0.007498688               0.002114054              -0.000593985               0.002697532               0.002103547               0.000000000               0.000000000               0.000000000               0.000000000               0.000160545               0.007463300               0.000974541              -0.000872706               0.002778644               0.001905938               0.000000000               0.000000000               0.000000000               0.000000000              -0.000111015               0.007182941               0.000521408              -0.000939496               0.002707455               0.001767959               0.000000000               0.000000000               0.000000000               0.000000000              -0.000211536               0.006889025               0.000304564              -0.000940452               0.002609803               0.001669351               0.000000000               0.000000000               0.000000000               0.000000000              -0.000254022               0.006630825               0.000174521              -0.000924109               0.002518289               0.001594180               0.000000000               0.000000000               0.000000000               0.000000000              -0.000274610               0.006405188               0.000086612              -0.000903625               0.002436250               0.001532625               0.000000000               0.000000000               0.000000000               0.000000000              -0.000279930               0.006191894               0.000033761              -0.000878958               0.002356930               0.001477972               0.000000000               0.000000000               0.000000000               0.000000000              -0.000265765               0.005992047               0.000001476              -0.000848666               0.002280217               0.001431552               0.000000000               0.000000000               0.000000000               0.000000000              -0.000229955               0.005814398              -0.000026325              -0.000813031               0.002209124               0.001396093               0.000000000               0.000000000               0.000000000               0.000000000              -0.000182043               0.005653135              -0.000043616              -0.000774906               0.002142661               0.001367755               0.000000000               0.000000000               0.000000000               0.000000000              -0.000136337               0.005503118              -0.000048308              -0.000739014               0.002080693               0.001341678               0.000000000               0.000000000               0.000000000               0.000000000              -0.000098637               0.005370925              -0.000047729              -0.000708353               0.002026408               0.001318055               0.000000000               0.000000000               0.000000000               0.000000000              -0.000069550               0.005262851              -0.000041343              -0.000683936               0.001982245               0.001298309               0.000000000               0.000000000               0.000000000               0.000000000              -0.000043418               0.005181154              -0.000030333              -0.000663924               0.001948342               0.001284418               0.000000000               0.000000000               0.000000000               0.000000000              -0.000020269               0.005121291              -0.000017158              -0.000647761               0.001923000               0.001275240               0.000000000               0.000000000               0.000000000               0.000000000              -0.000014687               0.005086565              -0.000012760              -0.000641327               0.001909280               0.001267954               0.000000000               0.000000000               0.000000000               0.000000000               0.001771563               0.006384251               0.002962659              -0.000133699               0.002172628               0.002038929               0.000000000               0.000000000               0.000000000               0.000000000               0.000658282               0.006510978               0.002080900              -0.000567017               0.002359309               0.001792292               0.000000000               0.000000000               0.000000000               0.000000000              -0.000168027               0.006900140               0.001164680              -0.000925526               0.002608532               0.001683006               0.000000000               0.000000000               0.000000000               0.000000000              -0.000382422               0.006776728               0.000753246              -0.000990497               0.002589052               0.001598555               0.000000000               0.000000000               0.000000000               0.000000000              -0.000421126               0.006561605               0.000520842              -0.000978121               0.002513220               0.001535099               0.000000000               0.000000000               0.000000000               0.000000000              -0.000415430               0.006347966               0.000366405              -0.000949280               0.002432394               0.001483114               0.000000000               0.000000000               0.000000000               0.000000000              -0.000397274               0.006139509               0.000257723              -0.000916414               0.002351954               0.001435540               0.000000000               0.000000000               0.000000000               0.000000000              -0.000364196               0.005932561               0.000183385              -0.000878142               0.002270214               0.001392073               0.000000000               0.000000000               0.000000000               0.000000000              -0.000312664               0.005743568               0.000127616              -0.000835193               0.002192901               0.001357708               0.000000000               0.000000000               0.000000000               0.000000000              -0.000247430               0.005572389               0.000078938              -0.000789333               0.002120555               0.001331222               0.000000000               0.000000000               0.000000000               0.000000000              -0.000180426               0.005409844               0.000043319              -0.000743889               0.002051226               0.001307338               0.000000000               0.000000000               0.000000000               0.000000000              -0.000124710               0.005263668               0.000019824              -0.000704723               0.001989446               0.001284723               0.000000000               0.000000000               0.000000000               0.000000000              -0.000081289               0.005142850               0.000000883              -0.000673338               0.001938712               0.001265374               0.000000000               0.000000000               0.000000000               0.000000000              -0.000051313               0.005044797              -0.000010350              -0.000649840               0.001898196               0.001248355               0.000000000               0.000000000               0.000000000               0.000000000              -0.000030265               0.004966451              -0.000013610              -0.000632154               0.001866185               0.001234031               0.000000000               0.000000000               0.000000000               0.000000000              -0.000015014               0.004900450              -0.000010045              -0.000618185               0.001839529               0.001221344               0.000000000               0.000000000               0.000000000               0.000000000              -0.000013511               0.004858843              -0.000009482              -0.000612421               0.001823738               0.001211318               0.000000000               0.000000000               0.000000000               0.000000000               0.001466807               0.005032323               0.002540105              -0.000078991               0.001703753               0.001624763               0.000000000               0.000000000               0.000000000               0.000000000               0.000423250               0.005621521               0.002009539              -0.000543972               0.002055145               0.001511173               0.000000000               0.000000000               0.000000000               0.000000000              -0.000391183               0.006362968               0.001379276              -0.000942063               0.002434989               0.001492926               0.000000000               0.000000000               0.000000000               0.000000000              -0.000539153               0.006400863               0.000998121              -0.001002288               0.002467696               0.001465407               0.000000000               0.000000000               0.000000000               0.000000000              -0.000531544               0.006273554               0.000744451              -0.000983521               0.002419004               0.001435483               0.000000000               0.000000000               0.000000000               0.000000000              -0.000493310               0.006110517               0.000565446              -0.000948803               0.002353086               0.001404283               0.000000000               0.000000000               0.000000000               0.000000000              -0.000444713               0.005930317               0.000435308              -0.000908055               0.002279437               0.001371383               0.000000000               0.000000000               0.000000000               0.000000000              -0.000377595               0.005746945               0.000337212              -0.000859964               0.002202284               0.001342320               0.000000000               0.000000000               0.000000000               0.000000000              -0.000296030               0.005574300               0.000257334              -0.000807797               0.002127347               0.001319550               0.000000000               0.000000000               0.000000000               0.000000000              -0.000214758               0.005406813               0.000188855              -0.000756384               0.002054381               0.001297997               0.000000000               0.000000000               0.000000000               0.000000000              -0.000142276               0.005245059               0.000130880              -0.000708984               0.001984664               0.001275680               0.000000000               0.000000000               0.000000000               0.000000000              -0.000087190               0.005104369               0.000082139              -0.000670741               0.001925020               0.001254279               0.000000000               0.000000000               0.000000000               0.000000000              -0.000056203               0.004985866               0.000042561              -0.000644308               0.001876708               0.001232400               0.000000000               0.000000000               0.000000000               0.000000000              -0.000041280               0.004885709               0.000015050              -0.000626192               0.001837284               0.001211092               0.000000000               0.000000000               0.000000000               0.000000000              -0.000037210               0.004795599               0.000000604              -0.000613402               0.001802984               0.001189582               0.000000000               0.000000000               0.000000000               0.000000000              -0.000040241               0.004706313              -0.000002544              -0.000603378               0.001769881               0.001166503               0.000000000               0.000000000               0.000000000               0.000000000              -0.000041841               0.004656691              -0.000003170              -0.000597775               0.001751473               0.001153698               0.000000000               0.000000000               0.000000000               0.000000000               0.001055202               0.003756252               0.002064807              -0.000073833               0.001276682               0.001202848               0.000000000               0.000000000               0.000000000               0.000000000               0.000246764               0.004606535               0.001915894              -0.000483281               0.001696589               0.001213308               0.000000000               0.000000000               0.000000000               0.000000000              -0.000473717               0.005602240               0.001614545              -0.000877923               0.002160035               0.001282112               0.000000000               0.000000000               0.000000000               0.000000000              -0.000593275               0.005852027               0.001280279              -0.000953980               0.002268649               0.001314670               0.000000000               0.000000000               0.000000000               0.000000000              -0.000566986               0.005861093               0.001010260              -0.000945254               0.002268763               0.001323508               0.000000000               0.000000000               0.000000000               0.000000000              -0.000517583               0.005790958               0.000806339              -0.000917961               0.002236287               0.001318326               0.000000000               0.000000000               0.000000000               0.000000000              -0.000459537               0.005685228               0.000655026              -0.000882978               0.002189383               0.001306405               0.000000000               0.000000000               0.000000000               0.000000000              -0.000386041               0.005562159               0.000533481              -0.000840033               0.002134045               0.001294012               0.000000000               0.000000000               0.000000000               0.000000000              -0.000303332               0.005432052               0.000428388              -0.000792754               0.002074917               0.001282163               0.000000000               0.000000000               0.000000000               0.000000000              -0.000222109               0.005298035               0.000335368              -0.000745543               0.002014508               0.001268965               0.000000000               0.000000000               0.000000000               0.000000000              -0.000150963               0.005160153               0.000252047              -0.000701629               0.001953910               0.001252282               0.000000000               0.000000000               0.000000000               0.000000000              -0.000096708               0.005029884               0.000175201              -0.000664999               0.001898278               0.001233278               0.000000000               0.000000000               0.000000000               0.000000000              -0.000066896               0.004913945               0.000108700              -0.000639328               0.001851074               0.001211747               0.000000000               0.000000000               0.000000000               0.000000000              -0.000059879               0.004812065               0.000057877              -0.000623961               0.001811993               0.001188032               0.000000000               0.000000000               0.000000000               0.000000000              -0.000068248               0.004715512               0.000023866              -0.000615030               0.001776832               0.001161801               0.000000000               0.000000000               0.000000000               0.000000000              -0.000087340               0.004616410               0.000005814              -0.000609802               0.001742055               0.001132253               0.000000000               0.000000000               0.000000000               0.000000000              -0.000097133               0.004566781               0.000000229              -0.000607271               0.001724669               0.001117398               0.000000000               0.000000000               0.000000000               0.000000000               0.000454535               0.002589035               0.001558880              -0.000153180               0.000914062               0.000760882               0.000000000               0.000000000               0.000000000               0.000000000               0.000035609               0.003600939               0.001764998              -0.000436765               0.001345889               0.000909124               0.000000000               0.000000000               0.000000000               0.000000000              -0.000482089               0.004750537               0.001792152              -0.000774600               0.001841696               0.001067096               0.000000000               0.000000000               0.000000000               0.000000000              -0.000574764               0.005199735               0.001548629              -0.000865502               0.002021728               0.001156226               0.000000000               0.000000000               0.000000000               0.000000000              -0.000543366               0.005364829               0.001289932              -0.000874364               0.002079713               0.001205349               0.000000000               0.000000000               0.000000000               0.000000000              -0.000487359               0.005411742               0.001074446              -0.000859226               0.002090304               0.001231079               0.000000000               0.000000000               0.000000000               0.000000000              -0.000430713               0.005398983               0.000907387              -0.000836389               0.002078439               0.001242051               0.000000000               0.000000000               0.000000000               0.000000000              -0.000366179               0.005351111               0.000766503              -0.000806204               0.002052420               0.001246216               0.000000000               0.000000000               0.000000000               0.000000000              -0.000292947               0.005283254               0.000639936              -0.000770260               0.002017820               0.001247560               0.000000000               0.000000000               0.000000000               0.000000000              -0.000217686               0.005198262               0.000526909              -0.000731413               0.001976541               0.001245128               0.000000000               0.000000000               0.000000000               0.000000000              -0.000147232               0.005096725               0.000422596              -0.000692301               0.001929658               0.001237357               0.000000000               0.000000000               0.000000000               0.000000000              -0.000088650               0.004989009               0.000321518              -0.000656868               0.001881942               0.001225074               0.000000000               0.000000000               0.000000000               0.000000000              -0.000052396               0.004879111               0.000227560              -0.000629536               0.001836199               0.001206664               0.000000000               0.000000000               0.000000000               0.000000000              -0.000045298               0.004777096               0.000146932              -0.000614122               0.001797057               0.001182934               0.000000000               0.000000000               0.000000000               0.000000000              -0.000064665               0.004686944               0.000082286              -0.000610116               0.001765671               0.001155555               0.000000000               0.000000000               0.000000000               0.000000000              -0.000107253               0.004599321               0.000033877              -0.000615134               0.001738136               0.001123003               0.000000000               0.000000000               0.000000000               0.000000000              -0.000141510               0.004550395               0.000010306              -0.000621864               0.001724071               0.001102207               0.000000000               0.000000000               0.000000000               0.000000000              -0.000298214               0.001599241               0.001052619              -0.000311736               0.000636986               0.000325251               0.000000000               0.000000000               0.000000000               0.000000000              -0.000257578               0.002649047               0.001534238              -0.000427723               0.001025580               0.000597857               0.000000000               0.000000000               0.000000000               0.000000000              -0.000462494               0.003809882               0.001835845              -0.000649670               0.001486504               0.000836834               0.000000000               0.000000000               0.000000000               0.000000000              -0.000478620               0.004403806               0.001708128              -0.000729957               0.001711239               0.000981282               0.000000000               0.000000000               0.000000000               0.000000000              -0.000433951               0.004712678               0.001493999              -0.000751815               0.001821482               0.001069666               0.000000000               0.000000000               0.000000000               0.000000000              -0.000375602               0.004881822               0.001291012              -0.000751077               0.001877617               0.001126539               0.000000000               0.000000000               0.000000000               0.000000000              -0.000325565               0.004974413               0.001120521              -0.000743887               0.001906083               0.001162196               0.000000000               0.000000000               0.000000000               0.000000000              -0.000275421               0.005017854               0.000972296              -0.000730513               0.001916106               0.001185592               0.000000000               0.000000000               0.000000000               0.000000000              -0.000218291               0.005025774               0.000837020              -0.000710079               0.001911934               0.001201855               0.000000000               0.000000000               0.000000000               0.000000000              -0.000157434               0.005005497               0.000713463              -0.000684723               0.001896723               0.001212000               0.000000000               0.000000000               0.000000000               0.000000000              -0.000096206               0.004958863               0.000597994              -0.000655934               0.001871582               0.001215649               0.000000000               0.000000000               0.000000000               0.000000000              -0.000038621               0.004893336               0.000484515              -0.000626149               0.001839812               0.001213663               0.000000000               0.000000000               0.000000000               0.000000000               0.000005796               0.004815112               0.000372001              -0.000599714               0.001804926               0.001205212               0.000000000               0.000000000               0.000000000               0.000000000               0.000021151               0.004733738               0.000265331              -0.000583784               0.001772492               0.001188708               0.000000000               0.000000000               0.000000000               0.000000000               0.000000931               0.004657483               0.000167906              -0.000581835               0.001746424               0.001164589               0.000000000               0.000000000               0.000000000               0.000000000              -0.000058222               0.004583975               0.000079245              -0.000594829               0.001726253               0.001131424               0.000000000               0.000000000               0.000000000               0.000000000              -0.000117257               0.004535908               0.000030230              -0.000610958               0.001715607               0.001104648               0.000000000               0.000000000               0.000000000               0.000000000              -0.001133943               0.000834521               0.000602449              -0.000529543               0.000454684              -0.000074859               0.000000000               0.000000000               0.000000000               0.000000000              -0.000608381               0.001795652               0.001243399              -0.000452599               0.000749410               0.000296811               0.000000000               0.000000000               0.000000000               0.000000000              -0.000431052               0.002850768               0.001729420              -0.000517990               0.001122909               0.000604919               0.000000000               0.000000000               0.000000000               0.000000000              -0.000324201               0.003521566               0.001714665              -0.000561771               0.001361100               0.000799329               0.000000000               0.000000000               0.000000000               0.000000000              -0.000246571               0.003947008               0.001563628              -0.000585840               0.001510936               0.000925096               0.000000000               0.000000000               0.000000000               0.000000000              -0.000183596               0.004232534               0.001392719              -0.000597915               0.001610135               0.001012220               0.000000000               0.000000000               0.000000000               0.000000000              -0.000142566               0.004429484               0.001236574              -0.000607147               0.001678862               0.001071715               0.000000000               0.000000000               0.000000000               0.000000000              -0.000109447               0.004566615               0.001095879              -0.000611869               0.001726146               0.001114277               0.000000000               0.000000000               0.000000000               0.000000000              -0.000073588               0.004657239               0.000964334              -0.000609749               0.001755647               0.001145898               0.000000000               0.000000000               0.000000000               0.000000000              -0.000033279               0.004711567               0.000843145              -0.000601424               0.001770981               0.001169557               0.000000000               0.000000000               0.000000000               0.000000000               0.000010694               0.004736521               0.000729151              -0.000588054               0.001774842               0.001186789               0.000000000               0.000000000               0.000000000               0.000000000               0.000058173               0.004734766               0.000618091              -0.000570030               0.001768249               0.001198220               0.000000000               0.000000000               0.000000000               0.000000000               0.000106211               0.004712082               0.000501724              -0.000549180               0.001753738               0.001204558               0.000000000               0.000000000               0.000000000               0.000000000               0.000140012               0.004675009               0.000381297              -0.000531870               0.001735611               0.001203741               0.000000000               0.000000000               0.000000000               0.000000000               0.000141664               0.004625585               0.000261071              -0.000525073               0.001716871               0.001191798               0.000000000               0.000000000               0.000000000               0.000000000               0.000099227               0.004573273               0.000134169              -0.000534448               0.001702558               0.001168111               0.000000000               0.000000000               0.000000000               0.000000000               0.000043051               0.004535193               0.000061327              -0.000550754               0.001695300               0.001144547               0.000000000               0.000000000               0.000000000               0.000000000              -0.001955527               0.000298941               0.000262635              -0.000770690               0.000356541              -0.000414148               0.000000000               0.000000000               0.000000000               0.000000000              -0.000973790               0.001090829               0.000921857              -0.000501524               0.000530780               0.000029255               0.000000000               0.000000000               0.000000000               0.000000000              -0.000401491               0.001964186               0.001467584              -0.000396082               0.000786749               0.000390666               0.000000000               0.000000000               0.000000000               0.000000000              -0.000143409               0.002650234               0.001534435              -0.000385058               0.001011754               0.000626696               0.000000000               0.000000000               0.000000000               0.000000000              -0.000017272               0.003157001               0.001449340              -0.000401102               0.001186023               0.000784921               0.000000000               0.000000000               0.000000000               0.000000000               0.000055352               0.003537481               0.001324373              -0.000421428               0.001319624               0.000898196               0.000000000               0.000000000               0.000000000               0.000000000               0.000095592               0.003822812               0.001198844              -0.000442004               0.001421592               0.000979588               0.000000000               0.000000000               0.000000000               0.000000000               0.000112453               0.004042110               0.001080729              -0.000463093               0.001501721               0.001038627               0.000000000               0.000000000               0.000000000               0.000000000               0.000128366               0.004214611               0.000967250              -0.000478689               0.001564419               0.001085731               0.000000000               0.000000000               0.000000000               0.000000000               0.000149249               0.004347230               0.000860052              -0.000487435               0.001611540               0.001124106               0.000000000               0.000000000               0.000000000               0.000000000               0.000176545               0.004448406               0.000758196              -0.000489845               0.001646069               0.001156224               0.000000000               0.000000000               0.000000000               0.000000000               0.000212257               0.004517110               0.000660536              -0.000485041               0.001667369               0.001182327               0.000000000               0.000000000               0.000000000               0.000000000               0.000258907               0.004558926               0.000557571              -0.000472774               0.001677218               0.001204444               0.000000000               0.000000000               0.000000000               0.000000000               0.000313305               0.004580396               0.000442658              -0.000455059               0.001678470               0.001223411               0.000000000               0.000000000               0.000000000               0.000000000               0.000354958               0.004575469               0.000316457              -0.000438823               0.001671415               0.001232592               0.000000000               0.000000000               0.000000000               0.000000000               0.000370428               0.004553520               0.000170069              -0.000430279               0.001661251               0.001230973               0.000000000               0.000000000               0.000000000               0.000000000               0.000362628               0.004534982               0.000087367              -0.000430886               0.001655274               0.001224388               0.000000000               0.000000000               0.000000000               0.000000000              -0.002655518              -0.000034507               0.000060859              -0.000991505               0.000318997              -0.000672508               0.000000000               0.000000000               0.000000000               0.000000000              -0.001299374               0.000573749               0.000597944              -0.000558983               0.000377574              -0.000181409               0.000000000               0.000000000               0.000000000               0.000000000              -0.000386728               0.001247814               0.001065611              -0.000301000               0.000516267               0.000215266               0.000000000               0.000000000               0.000000000               0.000000000               0.000018613               0.001906753               0.001160403              -0.000231365               0.000712699               0.000481334               0.000000000               0.000000000               0.000000000               0.000000000               0.000203666               0.002457131               0.001125830              -0.000230767               0.000895957               0.000665190               0.000000000               0.000000000               0.000000000               0.000000000               0.000294052               0.002901478               0.001052313              -0.000252415               0.001051288               0.000798872               0.000000000               0.000000000               0.000000000               0.000000000               0.000337460               0.003252918               0.000966992              -0.000280067               0.001177651               0.000897583               0.000000000               0.000000000               0.000000000               0.000000000               0.000349440               0.003534202               0.000882812              -0.000310735               0.001281634               0.000970899               0.000000000               0.000000000               0.000000000               0.000000000               0.000351702               0.003769085               0.000801615              -0.000339247               0.001369431               0.001030184               0.000000000               0.000000000               0.000000000               0.000000000               0.000358444               0.003965943               0.000720745              -0.000361326               0.001442410               0.001081084               0.000000000               0.000000000               0.000000000               0.000000000               0.000375325               0.004127442               0.000643251              -0.000375183               0.001500861               0.001125678               0.000000000               0.000000000               0.000000000               0.000000000               0.000406984               0.004260242               0.000568678              -0.000379910               0.001546703               0.001166793               0.000000000               0.000000000               0.000000000               0.000000000               0.000453864               0.004366800               0.000490087              -0.000375650               0.001580802               0.001205152               0.000000000               0.000000000               0.000000000               0.000000000               0.000521215               0.004450183               0.000398458              -0.000360816               0.001603652               0.001242835               0.000000000               0.000000000               0.000000000               0.000000000               0.000604912               0.004504590               0.000290906              -0.000336231               0.001613592               0.001277361               0.000000000               0.000000000               0.000000000               0.000000000               0.000697176               0.004524510               0.000159056              -0.000304122               0.001609529               0.001305407               0.000000000               0.000000000               0.000000000               0.000000000               0.000764527               0.004531932               0.000086877              -0.000279793               0.001603893               0.001324100               0.000000000               0.000000000               0.000000000               0.000000000              -0.003130305              -0.000204921              -0.000011416              -0.001148249               0.000314440              -0.000833808               0.000000000               0.000000000               0.000000000               0.000000000              -0.001528434               0.000262992               0.000289529              -0.000606036               0.000289674              -0.000316362               0.000000000               0.000000000               0.000000000               0.000000000              -0.000385932               0.000784734               0.000559296              -0.000242816               0.000342514               0.000099698               0.000000000               0.000000000               0.000000000               0.000000000               0.000123434               0.001407664               0.000625607              -0.000129670               0.000512440               0.000382769               0.000000000               0.000000000               0.000000000               0.000000000               0.000365056               0.001972641               0.000618959              -0.000109684               0.000694102               0.000584417               0.000000000               0.000000000               0.000000000               0.000000000               0.000476910               0.002448091               0.000587983              -0.000127170               0.000858412               0.000731242               0.000000000               0.000000000               0.000000000               0.000000000               0.000521307               0.002836346               0.000545216              -0.000159053               0.000998457               0.000839404               0.000000000               0.000000000               0.000000000               0.000000000               0.000536019               0.003158142               0.000500793              -0.000193760               0.001117290               0.000923530               0.000000000               0.000000000               0.000000000               0.000000000               0.000535554               0.003429131               0.000458401              -0.000227808               0.001218968               0.000991160               0.000000000               0.000000000               0.000000000               0.000000000               0.000535606               0.003660914               0.000415577              -0.000256761               0.001305879               0.001049118               0.000000000               0.000000000               0.000000000               0.000000000               0.000546352               0.003863902               0.000374487              -0.000278105               0.001380656               0.001102551               0.000000000               0.000000000               0.000000000               0.000000000               0.000573239               0.004042686               0.000333818              -0.000290370               0.001444339               0.001153968               0.000000000               0.000000000               0.000000000               0.000000000               0.000622162               0.004202478               0.000290126              -0.000291998               0.001498145               0.001206146               0.000000000               0.000000000               0.000000000               0.000000000               0.000701318               0.004340087               0.000239695              -0.000279516               0.001539853               0.001260337               0.000000000               0.000000000               0.000000000               0.000000000               0.000816172               0.004439999               0.000177372              -0.000248935               0.001562963               0.001314028               0.000000000               0.000000000               0.000000000               0.000000000               0.000972091               0.004494697               0.000098401              -0.000197303               0.001563985               0.001366682               0.000000000               0.000000000               0.000000000               0.000000000               0.001105096               0.004525677               0.000056493              -0.000151298               0.001558977               0.001407678               0.000000000               0.000000000               0.000000000               0.000000000              -0.003299682              -0.000255150              -0.000000000              -0.001205486               0.000316777              -0.000888709               0.000000000               0.000000000               0.000000000               0.000000000              -0.001612119               0.000159734              -0.000000000              -0.000624511               0.000261413              -0.000363098               0.000000000               0.000000000               0.000000000               0.000000000              -0.000387504               0.000626869              -0.000000000              -0.000223672               0.000283512               0.000059839               0.000000000               0.000000000               0.000000000               0.000000000               0.000158864               0.001234616               0.000000000              -0.000094753               0.000443119               0.000348366               0.000000000               0.000000000               0.000000000               0.000000000               0.000425831               0.001799628               0.000000000              -0.000065267               0.000621626               0.000556359               0.000000000               0.000000000               0.000000000               0.000000000               0.000545695               0.002281661               0.000000000              -0.000080572               0.000787403               0.000706832               0.000000000               0.000000000               0.000000000               0.000000000               0.000591581               0.002681714              -0.000000000              -0.000113371               0.000931686               0.000818315               0.000000000               0.000000000               0.000000000               0.000000000               0.000606160               0.003015510              -0.000000000              -0.000149629               0.001055036               0.000905408               0.000000000               0.000000000               0.000000000               0.000000000               0.000607517               0.003298099               0.000000000              -0.000184443               0.001160836               0.000976393               0.000000000               0.000000000               0.000000000               0.000000000               0.000606882               0.003543040              -0.000000000              -0.000215299               0.001252768               0.001037469               0.000000000               0.000000000               0.000000000               0.000000000               0.000615243               0.003761781              -0.000000000              -0.000239506               0.001333750               0.001094244               0.000000000               0.000000000               0.000000000               0.000000000               0.000638931               0.003959974              -0.000000000              -0.000255397               0.001405110               0.001149713               0.000000000               0.000000000               0.000000000               0.000000000               0.000689465               0.004141034               0.000000000              -0.000259079               0.001466690               0.001207611               0.000000000               0.000000000               0.000000000               0.000000000               0.000773483               0.004295773              -0.000000000              -0.000246915               0.001514215               0.001267300               0.000000000               0.000000000               0.000000000               0.000000000               0.000900666               0.004413753               0.000000000              -0.000213969               0.001542559               0.001328590               0.000000000               0.000000000               0.000000000               0.000000000               0.001082715               0.004483805               0.000000000              -0.000154457               0.001546072               0.001391615               0.000000000               0.000000000               0.000000000               0.000000000               0.001241251               0.004523059              -0.000000000              -0.000099913               0.001540976               0.001441063               0.000000000               0.000000000               0.000000000               0.000000000               0.001340649               0.015042496              -0.000000000              -0.001377565               0.005473303               0.004095738               0.000000000               0.000000000               0.000000000               0.000000000               0.001416936               0.012153201              -0.000000000              -0.000987796               0.004380292               0.003392495               0.000000000               0.000000000               0.000000000               0.000000000               0.001929712               0.009815140              -0.000000000              -0.000503249               0.003439430               0.002936181               0.000000000               0.000000000               0.000000000               0.000000000               0.001951917               0.008512216              -0.000000000              -0.000332057               0.002948063               0.002616006               0.000000000               0.000000000               0.000000000               0.000000000               0.001808035               0.007720821              -0.000000000              -0.000287089               0.002669278               0.002382189               0.000000000               0.000000000               0.000000000               0.000000000               0.001609604               0.007201354              -0.000000000              -0.000296567               0.002499283               0.002202716               0.000000000               0.000000000               0.000000000               0.000000000               0.001404976               0.006844647               0.000000000              -0.000328714               0.002391098               0.002062384               0.000000000               0.000000000               0.000000000               0.000000000               0.001202296               0.006598442               0.000000000              -0.000373943               0.002324106               0.001950163               0.000000000               0.000000000               0.000000000               0.000000000               0.001001917               0.006421835              -0.000000000              -0.000427009               0.002282927               0.001855917               0.000000000               0.000000000               0.000000000               0.000000000               0.000812486               0.006287474               0.000000000              -0.000481251               0.002256221               0.001774970               0.000000000               0.000000000               0.000000000               0.000000000               0.000637591               0.006175233              -0.000000000              -0.000532806               0.002235992               0.001703186               0.000000000               0.000000000               0.000000000               0.000000000               0.000479843               0.006073082              -0.000000000              -0.000579193               0.002217405               0.001638212               0.000000000               0.000000000               0.000000000               0.000000000               0.000340532               0.005970010              -0.000000000              -0.000618550               0.002196167               0.001577617               0.000000000               0.000000000               0.000000000               0.000000000               0.000223950               0.005857215              -0.000000000              -0.000648169               0.002168442               0.001520273               0.000000000               0.000000000               0.000000000               0.000000000               0.000129773               0.005724173              -0.000000000              -0.000666855               0.002130324               0.001463469               0.000000000               0.000000000               0.000000000               0.000000000               0.000057615               0.005561621               0.000000000              -0.000673595               0.002078387               0.001404791               0.000000000               0.000000000               0.000000000               0.000000000               0.000015226               0.005435981               0.000000000              -0.000673786               0.002036571               0.001362785               0.000000000               0.000000000               0.000000000               0.000000000               0.001408063               0.014762411              -0.001085270              -0.001317275               0.005359846               0.004042571               0.000000000               0.000000000               0.000000000               0.000000000               0.001417488               0.011960544              -0.000631238              -0.000963508               0.004307977               0.003344470               0.000000000               0.000000000               0.000000000               0.000000000               0.001859662               0.009721830              -0.000172282              -0.000517854               0.003413196               0.002895342               0.000000000               0.000000000               0.000000000               0.000000000               0.001854590               0.008472358               0.000030726              -0.000363573               0.002945282               0.002581709               0.000000000               0.000000000               0.000000000               0.000000000               0.001703794               0.007706553               0.000121216              -0.000324396               0.002676957               0.002352561               0.000000000               0.000000000               0.000000000               0.000000000               0.001504547               0.007201707               0.000159527              -0.000336008               0.002512548               0.002176540               0.000000000               0.000000000               0.000000000               0.000000000               0.001298387               0.006855083               0.000175364              -0.000369989               0.002408335               0.002038345               0.000000000               0.000000000               0.000000000               0.000000000               0.001097842               0.006608643               0.000179797              -0.000414389               0.002340989               0.001926600               0.000000000               0.000000000               0.000000000               0.000000000               0.000910394               0.006430069               0.000176824              -0.000462360               0.002297455               0.001835095               0.000000000               0.000000000               0.000000000               0.000000000               0.000736816               0.006293451               0.000169195              -0.000510374               0.002267921               0.001757547               0.000000000               0.000000000               0.000000000               0.000000000               0.000573719               0.006177597               0.000158770              -0.000557054               0.002244863               0.001687809               0.000000000               0.000000000               0.000000000               0.000000000               0.000426115               0.006071769               0.000146614              -0.000599176               0.002223628               0.001624452               0.000000000               0.000000000               0.000000000               0.000000000               0.000300465               0.005969408               0.000130701              -0.000633500               0.002200949               0.001567449               0.000000000               0.000000000               0.000000000               0.000000000               0.000197997               0.005858649               0.000109015              -0.000658081               0.002172224               0.001514143               0.000000000               0.000000000               0.000000000               0.000000000               0.000114539               0.005729731               0.000080309              -0.000673263               0.002134312               0.001461050               0.000000000               0.000000000               0.000000000               0.000000000               0.000050392               0.005578539               0.000043693              -0.000678419               0.002085634               0.001407215               0.000000000               0.000000000               0.000000000               0.000000000               0.000011864               0.005462837               0.000026339              -0.000678404               0.002047062               0.001368658               0.000000000               0.000000000               0.000000000               0.000000000               0.001584139               0.013960101              -0.002042721              -0.001150959               0.005036973               0.003886015               0.000000000               0.000000000               0.000000000               0.000000000               0.001411550               0.011416765              -0.001191572              -0.000897763               0.004104804               0.003207042               0.000000000               0.000000000               0.000000000               0.000000000               0.001659270               0.009453996              -0.000337044              -0.000559522               0.003337808               0.002778286               0.000000000               0.000000000               0.000000000               0.000000000               0.001578438               0.008347682               0.000030121              -0.000451545               0.002933048               0.002481503               0.000000000               0.000000000               0.000000000               0.000000000               0.001406806               0.007654587               0.000190368              -0.000429270               0.002694593               0.002265323               0.000000000               0.000000000               0.000000000               0.000000000               0.001211738               0.007191129               0.000260024              -0.000444488               0.002545182               0.002100693               0.000000000               0.000000000               0.000000000               0.000000000               0.001016284               0.006867323               0.000288403              -0.000477308               0.002448187               0.001970880               0.000000000               0.000000000               0.000000000               0.000000000               0.000833297               0.006628404               0.000297480              -0.000516063               0.002381467               0.001865404               0.000000000               0.000000000               0.000000000               0.000000000               0.000675060               0.006446640               0.000296837              -0.000552681               0.002333086               0.001780404               0.000000000               0.000000000               0.000000000               0.000000000               0.000535315               0.006300820               0.000287107              -0.000586858               0.002295872               0.001709014               0.000000000               0.000000000               0.000000000               0.000000000               0.000409420               0.006175657               0.000271599              -0.000618423               0.002264673               0.001646250               0.000000000               0.000000000               0.000000000               0.000000000               0.000301328               0.006063553               0.000254691              -0.000644945               0.002236146               0.001591201               0.000000000               0.000000000               0.000000000               0.000000000               0.000210839               0.005954990               0.000230020              -0.000665307               0.002206746               0.001541439               0.000000000               0.000000000               0.000000000               0.000000000               0.000137552               0.005842888               0.000192070              -0.000678777               0.002173869               0.001495092               0.000000000               0.000000000               0.000000000               0.000000000               0.000077848               0.005725350               0.000144473              -0.000686474               0.002137256               0.001450782               0.000000000               0.000000000               0.000000000               0.000000000               0.000032289               0.005604996               0.000082146              -0.000688514               0.002097818               0.001409304               0.000000000               0.000000000               0.000000000               0.000000000               0.000005109               0.005521769               0.000049547              -0.000688304               0.002070006               0.001381702               0.000000000               0.000000000               0.000000000               0.000000000               0.001809551               0.012736987              -0.002771713              -0.000913542               0.004550133               0.003636592               0.000000000               0.000000000               0.000000000               0.000000000               0.001378583               0.010600839              -0.001629824              -0.000808135               0.003802956               0.002994821               0.000000000               0.000000000               0.000000000               0.000000000               0.001350630               0.009047655              -0.000492859              -0.000624469               0.003224011               0.002599542               0.000000000               0.000000000               0.000000000               0.000000000               0.001176464               0.008142247              -0.000021368              -0.000576606               0.002906257               0.002329651               0.000000000               0.000000000               0.000000000               0.000000000               0.000987648               0.007552474               0.000180912              -0.000573690               0.002708696               0.002135006               0.000000000               0.000000000               0.000000000               0.000000000               0.000806585               0.007143160               0.000270787              -0.000590424               0.002577838               0.001987413               0.000000000               0.000000000               0.000000000               0.000000000               0.000639002               0.006847474               0.000309145              -0.000616307               0.002487904               0.001871597               0.000000000               0.000000000               0.000000000               0.000000000               0.000492332               0.006623294               0.000322704              -0.000643286               0.002422171               0.001778885               0.000000000               0.000000000               0.000000000               0.000000000               0.000374939               0.006440990               0.000324373              -0.000664520               0.002368482               0.001703962               0.000000000               0.000000000               0.000000000               0.000000000               0.000280689               0.006284432               0.000316816              -0.000680294               0.002321554               0.001641260               0.000000000               0.000000000               0.000000000               0.000000000               0.000206551               0.006145674               0.000303130              -0.000690751               0.002278788               0.001588037               0.000000000               0.000000000               0.000000000               0.000000000               0.000149465               0.006016704               0.000283489              -0.000696037               0.002237560               0.001541524               0.000000000               0.000000000               0.000000000               0.000000000               0.000101642               0.005891352               0.000251778              -0.000698301               0.002196531               0.001498230               0.000000000               0.000000000               0.000000000               0.000000000               0.000066913               0.005774278               0.000206341              -0.000696691               0.002156970               0.001460280               0.000000000               0.000000000               0.000000000               0.000000000               0.000039994               0.005668873               0.000152146              -0.000693609               0.002120809               0.001427199               0.000000000               0.000000000               0.000000000               0.000000000               0.000015767               0.005578892               0.000085086              -0.000691447               0.002090094               0.001398647               0.000000000               0.000000000               0.000000000               0.000000000               0.000000983               0.005530431               0.000049390              -0.000690934               0.002073770               0.001382836               0.000000000               0.000000000               0.000000000               0.000000000               0.002002603               0.011235440              -0.003213336              -0.000653455               0.003962927               0.003309472               0.000000000               0.000000000               0.000000000               0.000000000               0.001292785               0.009612057              -0.001920371              -0.000716712               0.003442891               0.002726178               0.000000000               0.000000000               0.000000000               0.000000000               0.000967805               0.008553608              -0.000642872              -0.000706273               0.003086598               0.002380326               0.000000000               0.000000000               0.000000000               0.000000000               0.000716505               0.007870303              -0.000131693              -0.000715097               0.002861774               0.002146677               0.000000000               0.000000000               0.000000000               0.000000000               0.000531434               0.007390362               0.000083649              -0.000724506               0.002704931               0.001980426               0.000000000               0.000000000               0.000000000               0.000000000               0.000382157               0.007038635               0.000183057              -0.000736519               0.002591695               0.001855176               0.000000000               0.000000000               0.000000000               0.000000000               0.000260005               0.006771820               0.000232317              -0.000748974               0.002506909               0.001757935               0.000000000               0.000000000               0.000000000               0.000000000               0.000163875               0.006557537               0.000253504              -0.000758237               0.002438570               0.001680332               0.000000000               0.000000000               0.000000000               0.000000000               0.000092245               0.006370642               0.000259899              -0.000761737               0.002377438               0.001615702               0.000000000               0.000000000               0.000000000               0.000000000               0.000045931               0.006201658               0.000258379              -0.000757981               0.002319859               0.001561878               0.000000000               0.000000000               0.000000000               0.000000000               0.000018487               0.006047166               0.000247463              -0.000748961               0.002265356               0.001516394               0.000000000               0.000000000               0.000000000               0.000000000               0.000003765               0.005899948               0.000228105              -0.000736080               0.002211990               0.001475910               0.000000000               0.000000000               0.000000000               0.000000000              -0.000003682               0.005763241               0.000199081              -0.000721784               0.002161656               0.001439872               0.000000000               0.000000000               0.000000000               0.000000000              -0.000005151               0.005643148               0.000158279              -0.000707323               0.002116805               0.001409482               0.000000000               0.000000000               0.000000000               0.000000000              -0.000002423               0.005543511               0.000111170              -0.000693846               0.002079100               0.001385255               0.000000000               0.000000000               0.000000000               0.000000000              -0.000001741               0.005468239               0.000059482              -0.000684181               0.002050789               0.001366607               0.000000000               0.000000000               0.000000000               0.000000000              -0.000005556               0.005433022               0.000034302              -0.000681210               0.002038059               0.001356850               0.000000000               0.000000000               0.000000000               0.000000000               0.002077928               0.009598289              -0.003362720              -0.000420566               0.003339585               0.002919020               0.000000000               0.000000000               0.000000000               0.000000000               0.001134615               0.008551069              -0.002070574              -0.000643403               0.003064795               0.002421392               0.000000000               0.000000000               0.000000000               0.000000000               0.000553602               0.008017155              -0.000799412              -0.000794542               0.002937206               0.002142664               0.000000000               0.000000000               0.000000000               0.000000000               0.000267017               0.007548066              -0.000303095              -0.000843375               0.002797122               0.001953747               0.000000000               0.000000000               0.000000000               0.000000000               0.000113730               0.007168545              -0.000089139              -0.000853417               0.002673963               0.001820546               0.000000000               0.000000000               0.000000000               0.000000000               0.000015456               0.006866529               0.000020804              -0.000852518               0.002572993               0.001720475               0.000000000               0.000000000               0.000000000               0.000000000              -0.000055133               0.006621403               0.000086614              -0.000848348               0.002489895               0.001641547               0.000000000               0.000000000               0.000000000               0.000000000              -0.000101218               0.006410796               0.000121056              -0.000839304               0.002416679               0.001577374               0.000000000               0.000000000               0.000000000               0.000000000              -0.000126519               0.006215068               0.000137020              -0.000824326               0.002346444               0.001522118               0.000000000               0.000000000               0.000000000               0.000000000              -0.000130806               0.006035126               0.000146845              -0.000803441               0.002279502               0.001476061               0.000000000               0.000000000               0.000000000               0.000000000              -0.000117992               0.005872569               0.000146563              -0.000778316               0.002216942               0.001438626               0.000000000               0.000000000               0.000000000               0.000000000              -0.000095754               0.005722702               0.000136252              -0.000751244               0.002157963               0.001406719               0.000000000               0.000000000               0.000000000               0.000000000              -0.000073959               0.005585332               0.000119499              -0.000725899               0.002103725               0.001377826               0.000000000               0.000000000               0.000000000               0.000000000              -0.000055727               0.005467349               0.000093658              -0.000704315               0.002057203               0.001352889               0.000000000               0.000000000               0.000000000               0.000000000              -0.000037596               0.005374249               0.000063508              -0.000685878               0.002020024               0.001334147               0.000000000               0.000000000               0.000000000               0.000000000              -0.000019037               0.005307086               0.000034295              -0.000670523               0.001992519               0.001321996               0.000000000               0.000000000               0.000000000               0.000000000              -0.000013974               0.005272675               0.000022778              -0.000664323               0.001978982               0.001314659               0.000000000               0.000000000               0.000000000               0.000000000               0.001995253               0.007947290              -0.003261287              -0.000245195               0.002730801               0.002485606               0.000000000               0.000000000               0.000000000               0.000000000               0.000915603               0.007498688              -0.002114054              -0.000593985               0.002697532               0.002103547               0.000000000               0.000000000               0.000000000               0.000000000               0.000160545               0.007463300              -0.000974541              -0.000872706               0.002778644               0.001905938               0.000000000               0.000000000               0.000000000               0.000000000              -0.000111015               0.007182941              -0.000521408              -0.000939496               0.002707455               0.001767959               0.000000000               0.000000000               0.000000000               0.000000000              -0.000211536               0.006889025              -0.000304564              -0.000940452               0.002609803               0.001669351               0.000000000               0.000000000               0.000000000               0.000000000              -0.000254022               0.006630825              -0.000174521              -0.000924109               0.002518289               0.001594180               0.000000000               0.000000000               0.000000000               0.000000000              -0.000274610               0.006405188              -0.000086612              -0.000903625               0.002436250               0.001532625               0.000000000               0.000000000               0.000000000               0.000000000              -0.000279930               0.006191894              -0.000033761              -0.000878958               0.002356930               0.001477972               0.000000000               0.000000000               0.000000000               0.000000000              -0.000265765               0.005992047              -0.000001476              -0.000848666               0.002280217               0.001431552               0.000000000               0.000000000               0.000000000               0.000000000              -0.000229955               0.005814398               0.000026325              -0.000813031               0.002209124               0.001396093               0.000000000               0.000000000               0.000000000               0.000000000              -0.000182043               0.005653135               0.000043616              -0.000774906               0.002142661               0.001367755               0.000000000               0.000000000               0.000000000               0.000000000              -0.000136337               0.005503118               0.000048308              -0.000739014               0.002080693               0.001341678               0.000000000               0.000000000               0.000000000               0.000000000              -0.000098637               0.005370925               0.000047729              -0.000708353               0.002026408               0.001318055               0.000000000               0.000000000               0.000000000               0.000000000              -0.000069550               0.005262851               0.000041343              -0.000683936               0.001982245               0.001298309               0.000000000               0.000000000               0.000000000               0.000000000              -0.000043418               0.005181154               0.000030333              -0.000663924               0.001948342               0.001284418               0.000000000               0.000000000               0.000000000               0.000000000              -0.000020269               0.005121291               0.000017158              -0.000647761               0.001923000               0.001275240               0.000000000               0.000000000               0.000000000               0.000000000              -0.000014687               0.005086565               0.000012760              -0.000641327               0.001909280               0.001267954               0.000000000               0.000000000               0.000000000               0.000000000               0.001771563               0.006384251              -0.002962659              -0.000133699               0.002172628               0.002038929               0.000000000               0.000000000               0.000000000               0.000000000               0.000658282               0.006510978              -0.002080900              -0.000567017               0.002359309               0.001792292               0.000000000               0.000000000               0.000000000               0.000000000              -0.000168027               0.006900140              -0.001164680              -0.000925526               0.002608532               0.001683006               0.000000000               0.000000000               0.000000000               0.000000000              -0.000382422               0.006776728              -0.000753246              -0.000990497               0.002589052               0.001598555               0.000000000               0.000000000               0.000000000               0.000000000              -0.000421126               0.006561605              -0.000520842              -0.000978121               0.002513220               0.001535099               0.000000000               0.000000000               0.000000000               0.000000000              -0.000415430               0.006347966              -0.000366405              -0.000949280               0.002432394               0.001483114               0.000000000               0.000000000               0.000000000               0.000000000              -0.000397274               0.006139509              -0.000257723              -0.000916414               0.002351954               0.001435540               0.000000000               0.000000000               0.000000000               0.000000000              -0.000364196               0.005932561              -0.000183385              -0.000878142               0.002270214               0.001392073               0.000000000               0.000000000               0.000000000               0.000000000              -0.000312664               0.005743568              -0.000127616              -0.000835193               0.002192901               0.001357708               0.000000000               0.000000000               0.000000000               0.000000000              -0.000247430               0.005572389              -0.000078938              -0.000789333               0.002120555               0.001331222               0.000000000               0.000000000               0.000000000               0.000000000              -0.000180426               0.005409844              -0.000043319              -0.000743889               0.002051226               0.001307338               0.000000000               0.000000000               0.000000000               0.000000000              -0.000124710               0.005263668              -0.000019824              -0.000704723               0.001989446               0.001284723               0.000000000               0.000000000               0.000000000               0.000000000              -0.000081289               0.005142850              -0.000000883              -0.000673338               0.001938712               0.001265374               0.000000000               0.000000000               0.000000000               0.000000000              -0.000051313               0.005044797               0.000010350              -0.000649840               0.001898196               0.001248355               0.000000000               0.000000000               0.000000000               0.000000000              -0.000030265               0.004966451               0.000013610              -0.000632154               0.001866185               0.001234031               0.000000000               0.000000000               0.000000000               0.000000000              -0.000015014               0.004900450               0.000010045              -0.000618185               0.001839529               0.001221344               0.000000000               0.000000000               0.000000000               0.000000000              -0.000013511               0.004858843               0.000009482              -0.000612421               0.001823738               0.001211318               0.000000000               0.000000000               0.000000000               0.000000000               0.001466807               0.005032323              -0.002540105              -0.000078991               0.001703753               0.001624763               0.000000000               0.000000000               0.000000000               0.000000000               0.000423250               0.005621521              -0.002009539              -0.000543972               0.002055145               0.001511173               0.000000000               0.000000000               0.000000000               0.000000000              -0.000391183               0.006362968              -0.001379276              -0.000942063               0.002434989               0.001492926               0.000000000               0.000000000               0.000000000               0.000000000              -0.000539153               0.006400863              -0.000998121              -0.001002288               0.002467696               0.001465407               0.000000000               0.000000000               0.000000000               0.000000000              -0.000531544               0.006273554              -0.000744451              -0.000983521               0.002419004               0.001435483               0.000000000               0.000000000               0.000000000               0.000000000              -0.000493310               0.006110517              -0.000565446              -0.000948803               0.002353086               0.001404283               0.000000000               0.000000000               0.000000000               0.000000000              -0.000444713               0.005930317              -0.000435308              -0.000908055               0.002279437               0.001371383               0.000000000               0.000000000               0.000000000               0.000000000              -0.000377595               0.005746945              -0.000337212              -0.000859964               0.002202284               0.001342320               0.000000000               0.000000000               0.000000000               0.000000000              -0.000296030               0.005574300              -0.000257334              -0.000807797               0.002127347               0.001319550               0.000000000               0.000000000               0.000000000               0.000000000              -0.000214758               0.005406813              -0.000188855              -0.000756384               0.002054381               0.001297997               0.000000000               0.000000000               0.000000000               0.000000000              -0.000142276               0.005245059              -0.000130880              -0.000708984               0.001984664               0.001275680               0.000000000               0.000000000               0.000000000               0.000000000              -0.000087190               0.005104369              -0.000082139              -0.000670741               0.001925020               0.001254279               0.000000000               0.000000000               0.000000000               0.000000000              -0.000056203               0.004985866              -0.000042561              -0.000644308               0.001876708               0.001232400               0.000000000               0.000000000               0.000000000               0.000000000              -0.000041280               0.004885709              -0.000015050              -0.000626192               0.001837284               0.001211092               0.000000000               0.000000000               0.000000000               0.000000000              -0.000037210               0.004795599              -0.000000604              -0.000613402               0.001802984               0.001189582               0.000000000               0.000000000               0.000000000               0.000000000              -0.000040241               0.004706313               0.000002544              -0.000603378               0.001769881               0.001166503               0.000000000               0.000000000               0.000000000               0.000000000              -0.000041841               0.004656691               0.000003170              -0.000597775               0.001751473               0.001153698               0.000000000               0.000000000               0.000000000               0.000000000               0.001055202               0.003756252              -0.002064807              -0.000073833               0.001276682               0.001202848               0.000000000               0.000000000               0.000000000               0.000000000               0.000246764               0.004606535              -0.001915894              -0.000483281               0.001696589               0.001213308               0.000000000               0.000000000               0.000000000               0.000000000              -0.000473717               0.005602240              -0.001614545              -0.000877923               0.002160035               0.001282112               0.000000000               0.000000000               0.000000000               0.000000000              -0.000593275               0.005852027              -0.001280279              -0.000953980               0.002268649               0.001314670               0.000000000               0.000000000               0.000000000               0.000000000              -0.000566986               0.005861093              -0.001010260              -0.000945254               0.002268763               0.001323508               0.000000000               0.000000000               0.000000000               0.000000000              -0.000517583               0.005790958              -0.000806339              -0.000917961               0.002236287               0.001318326               0.000000000               0.000000000               0.000000000               0.000000000              -0.000459537               0.005685228              -0.000655026              -0.000882978               0.002189383               0.001306405               0.000000000               0.000000000               0.000000000               0.000000000              -0.000386041               0.005562159              -0.000533481              -0.000840033               0.002134045               0.001294012               0.000000000               0.000000000               0.000000000               0.000000000              -0.000303332               0.005432052              -0.000428388              -0.000792754               0.002074917               0.001282163               0.000000000               0.000000000               0.000000000               0.000000000              -0.000222109               0.005298035              -0.000335368              -0.000745543               0.002014508               0.001268965               0.000000000               0.000000000               0.000000000               0.000000000              -0.000150963               0.005160153              -0.000252047              -0.000701629               0.001953910               0.001252282               0.000000000               0.000000000               0.000000000               0.000000000              -0.000096708               0.005029884              -0.000175201              -0.000664999               0.001898278               0.001233278               0.000000000               0.000000000               0.000000000               0.000000000              -0.000066896               0.004913945              -0.000108700              -0.000639328               0.001851074               0.001211747               0.000000000               0.000000000               0.000000000               0.000000000              -0.000059879               0.004812065              -0.000057877              -0.000623961               0.001811993               0.001188032               0.000000000               0.000000000               0.000000000               0.000000000              -0.000068248               0.004715512              -0.000023866              -0.000615030               0.001776832               0.001161801               0.000000000               0.000000000               0.000000000               0.000000000              -0.000087340               0.004616410              -0.000005814              -0.000609802               0.001742055               0.001132253               0.000000000               0.000000000               0.000000000               0.000000000              -0.000097133               0.004566781              -0.000000229              -0.000607271               0.001724669               0.001117398               0.000000000               0.000000000               0.000000000               0.000000000               0.000454535               0.002589035              -0.001558880              -0.000153180               0.000914062               0.000760882               0.000000000               0.000000000               0.000000000               0.000000000               0.000035609               0.003600939              -0.001764998              -0.000436765               0.001345889               0.000909124               0.000000000               0.000000000               0.000000000               0.000000000              -0.000482089               0.004750537              -0.001792152              -0.000774600               0.001841696               0.001067096               0.000000000               0.000000000               0.000000000               0.000000000              -0.000574764               0.005199735              -0.001548629              -0.000865502               0.002021728               0.001156226               0.000000000               0.000000000               0.000000000               0.000000000              -0.000543366               0.005364829              -0.001289932              -0.000874364               0.002079713               0.001205349               0.000000000               0.000000000               0.000000000               0.000000000              -0.000487359               0.005411742              -0.001074446              -0.000859226               0.002090304               0.001231079               0.000000000               0.000000000               0.000000000               0.000000000              -0.000430713               0.005398983              -0.000907387              -0.000836389               0.002078439               0.001242051               0.000000000               0.000000000               0.000000000               0.000000000              -0.000366179               0.005351111              -0.000766503              -0.000806204               0.002052420               0.001246216               0.000000000               0.000000000               0.000000000               0.000000000              -0.000292947               0.005283254              -0.000639936              -0.000770260               0.002017820               0.001247560               0.000000000               0.000000000               0.000000000               0.000000000              -0.000217686               0.005198262              -0.000526909              -0.000731413               0.001976541               0.001245128               0.000000000               0.000000000               0.000000000               0.000000000              -0.000147232               0.005096725              -0.000422596              -0.000692301               0.001929658               0.001237357               0.000000000               0.000000000               0.000000000               0.000000000              -0.000088650               0.004989009              -0.000321518              -0.000656868               0.001881942               0.001225074               0.000000000               0.000000000               0.000000000               0.000000000              -0.000052396               0.004879111              -0.000227560              -0.000629536               0.001836199               0.001206664               0.000000000               0.000000000               0.000000000               0.000000000              -0.000045298               0.004777096              -0.000146932              -0.000614122               0.001797057               0.001182934               0.000000000               0.000000000               0.000000000               0.000000000              -0.000064665               0.004686944              -0.000082286              -0.000610116               0.001765671               0.001155555               0.000000000               0.000000000               0.000000000               0.000000000              -0.000107253               0.004599321              -0.000033877              -0.000615134               0.001738136               0.001123003               0.000000000               0.000000000               0.000000000               0.000000000              -0.000141510               0.004550395              -0.000010306              -0.000621864               0.001724071               0.001102207               0.000000000               0.000000000               0.000000000               0.000000000              -0.000298214               0.001599241              -0.001052619              -0.000311736               0.000636986               0.000325251               0.000000000               0.000000000               0.000000000               0.000000000              -0.000257578               0.002649047              -0.001534238              -0.000427723               0.001025580               0.000597857               0.000000000               0.000000000               0.000000000               0.000000000              -0.000462494               0.003809882              -0.001835845              -0.000649670               0.001486504               0.000836834               0.000000000               0.000000000               0.000000000               0.000000000              -0.000478620               0.004403806              -0.001708128              -0.000729957               0.001711239               0.000981282               0.000000000               0.000000000               0.000000000               0.000000000              -0.000433951               0.004712678              -0.001493999              -0.000751815               0.001821482               0.001069666               0.000000000               0.000000000               0.000000000               0.000000000              -0.000375602               0.004881822              -0.001291012              -0.000751077               0.001877617               0.001126539               0.000000000               0.000000000               0.000000000               0.000000000              -0.000325565               0.004974413              -0.001120521              -0.000743887               0.001906083               0.001162196               0.000000000               0.000000000               0.000000000               0.000000000              -0.000275421               0.005017854              -0.000972296              -0.000730513               0.001916106               0.001185592               0.000000000               0.000000000               0.000000000               0.000000000              -0.000218291               0.005025774              -0.000837020              -0.000710079               0.001911934               0.001201855               0.000000000               0.000000000               0.000000000               0.000000000              -0.000157434               0.005005497              -0.000713463              -0.000684723               0.001896723               0.001212000               0.000000000               0.000000000               0.000000000               0.000000000              -0.000096206               0.004958863              -0.000597994              -0.000655934               0.001871582               0.001215649               0.000000000               0.000000000               0.000000000               0.000000000              -0.000038621               0.004893336              -0.000484515              -0.000626149               0.001839812               0.001213663               0.000000000               0.000000000               0.000000000               0.000000000               0.000005796               0.004815112              -0.000372001              -0.000599714               0.001804926               0.001205212               0.000000000               0.000000000               0.000000000               0.000000000               0.000021151               0.004733738              -0.000265331              -0.000583784               0.001772492               0.001188708               0.000000000               0.000000000               0.000000000               0.000000000               0.000000931               0.004657483              -0.000167906              -0.000581835               0.001746424               0.001164589               0.000000000               0.000000000               0.000000000               0.000000000              -0.000058222               0.004583975              -0.000079245              -0.000594829               0.001726253               0.001131424               0.000000000               0.000000000               0.000000000               0.000000000              -0.000117257               0.004535908              -0.000030230              -0.000610958               0.001715607               0.001104648               0.000000000               0.000000000               0.000000000               0.000000000              -0.001133943               0.000834521              -0.000602449              -0.000529543               0.000454684              -0.000074859               0.000000000               0.000000000               0.000000000               0.000000000              -0.000608381               0.001795652              -0.001243399              -0.000452599               0.000749410               0.000296811               0.000000000               0.000000000               0.000000000               0.000000000              -0.000431052               0.002850768              -0.001729420              -0.000517990               0.001122909               0.000604919               0.000000000               0.000000000               0.000000000               0.000000000              -0.000324201               0.003521566              -0.001714665              -0.000561771               0.001361100               0.000799329               0.000000000               0.000000000               0.000000000               0.000000000              -0.000246571               0.003947008              -0.001563628              -0.000585840               0.001510936               0.000925096               0.000000000               0.000000000               0.000000000               0.000000000              -0.000183596               0.004232534              -0.001392719              -0.000597915               0.001610135               0.001012220               0.000000000               0.000000000               0.000000000               0.000000000              -0.000142566               0.004429484              -0.001236574              -0.000607147               0.001678862               0.001071715               0.000000000               0.000000000               0.000000000               0.000000000              -0.000109447               0.004566615              -0.001095879              -0.000611869               0.001726146               0.001114277               0.000000000               0.000000000               0.000000000               0.000000000              -0.000073588               0.004657239              -0.000964334              -0.000609749               0.001755647               0.001145898               0.000000000               0.000000000               0.000000000               0.000000000              -0.000033279               0.004711567              -0.000843145              -0.000601424               0.001770981               0.001169557               0.000000000               0.000000000               0.000000000               0.000000000               0.000010694               0.004736521              -0.000729151              -0.000588054               0.001774842               0.001186789               0.000000000               0.000000000               0.000000000               0.000000000               0.000058173               0.004734766              -0.000618091              -0.000570030               0.001768249               0.001198220               0.000000000               0.000000000               0.000000000               0.000000000               0.000106211               0.004712082              -0.000501724              -0.000549180               0.001753738               0.001204558               0.000000000               0.000000000               0.000000000               0.000000000               0.000140012               0.004675009              -0.000381297              -0.000531870               0.001735611               0.001203741               0.000000000               0.000000000               0.000000000               0.000000000               0.000141664               0.004625585              -0.000261071              -0.000525073               0.001716871               0.001191798               0.000000000               0.000000000               0.000000000               0.000000000               0.000099227               0.004573273              -0.000134169              -0.000534448               0.001702558               0.001168111               0.000000000               0.000000000               0.000000000               0.000000000               0.000043051               0.004535193              -0.000061327              -0.000550754               0.001695300               0.001144547               0.000000000               0.000000000               0.000000000               0.000000000              -0.001955527               0.000298941              -0.000262635              -0.000770690               0.000356541              -0.000414148               0.000000000               0.000000000               0.000000000               0.000000000              -0.000973790               0.001090829              -0.000921857              -0.000501524               0.000530780               0.000029255               0.000000000               0.000000000               0.000000000               0.000000000              -0.000401491               0.001964186              -0.001467584              -0.000396082               0.000786749               0.000390666               0.000000000               0.000000000               0.000000000               0.000000000              -0.000143409               0.002650234              -0.001534435              -0.000385058               0.001011754               0.000626696               0.000000000               0.000000000               0.000000000               0.000000000              -0.000017272               0.003157001              -0.001449340              -0.000401102               0.001186023               0.000784921               0.000000000               0.000000000               0.000000000               0.000000000               0.000055352               0.003537481              -0.001324373              -0.000421428               0.001319624               0.000898196               0.000000000               0.000000000               0.000000000               0.000000000               0.000095592               0.003822812              -0.001198844              -0.000442004               0.001421592               0.000979588               0.000000000               0.000000000               0.000000000               0.000000000               0.000112453               0.004042110              -0.001080729              -0.000463093               0.001501721               0.001038627               0.000000000               0.000000000               0.000000000               0.000000000               0.000128366               0.004214611              -0.000967250              -0.000478689               0.001564419               0.001085731               0.000000000               0.000000000               0.000000000               0.000000000               0.000149249               0.004347230              -0.000860052              -0.000487435               0.001611540               0.001124106               0.000000000               0.000000000               0.000000000               0.000000000               0.000176545               0.004448406              -0.000758196              -0.000489845               0.001646069               0.001156224               0.000000000               0.000000000               0.000000000               0.000000000               0.000212257               0.004517110              -0.000660536              -0.000485041               0.001667369               0.001182327               0.000000000               0.000000000               0.000000000               0.000000000               0.000258907               0.004558926              -0.000557571              -0.000472774               0.001677218               0.001204444               0.000000000               0.000000000               0.000000000               0.000000000               0.000313305               0.004580396              -0.000442658              -0.000455059               0.001678470               0.001223411               0.000000000               0.000000000               0.000000000               0.000000000               0.000354958               0.004575469              -0.000316457              -0.000438823               0.001671415               0.001232592               0.000000000               0.000000000               0.000000000               0.000000000               0.000370428               0.004553520              -0.000170069              -0.000430279               0.001661251               0.001230973               0.000000000               0.000000000               0.000000000               0.000000000               0.000362628               0.004534982              -0.000087367              -0.000430886               0.001655274               0.001224388               0.000000000               0.000000000               0.000000000               0.000000000              -0.002655518              -0.000034507              -0.000060859              -0.000991505               0.000318997              -0.000672508               0.000000000               0.000000000               0.000000000               0.000000000              -0.001299374               0.000573749              -0.000597944              -0.000558983               0.000377574              -0.000181409               0.000000000               0.000000000               0.000000000               0.000000000              -0.000386728               0.001247814              -0.001065611              -0.000301000               0.000516267               0.000215266               0.000000000               0.000000000               0.000000000               0.000000000               0.000018613               0.001906753              -0.001160403              -0.000231365               0.000712699               0.000481334               0.000000000               0.000000000               0.000000000               0.000000000               0.000203666               0.002457131              -0.001125830              -0.000230767               0.000895957               0.000665190               0.000000000               0.000000000               0.000000000               0.000000000               0.000294052               0.002901478              -0.001052313              -0.000252415               0.001051288               0.000798872               0.000000000               0.000000000               0.000000000               0.000000000               0.000337460               0.003252918              -0.000966992              -0.000280067               0.001177651               0.000897583               0.000000000               0.000000000               0.000000000               0.000000000               0.000349440               0.003534202              -0.000882812              -0.000310735               0.001281634               0.000970899               0.000000000               0.000000000               0.000000000               0.000000000               0.000351702               0.003769085              -0.000801615              -0.000339247               0.001369431               0.001030184               0.000000000               0.000000000               0.000000000               0.000000000               0.000358444               0.003965943              -0.000720745              -0.000361326               0.001442410               0.001081084               0.000000000               0.000000000               0.000000000               0.000000000               0.000375325               0.004127442              -0.000643251              -0.000375183               0.001500861               0.001125678               0.000000000               0.000000000               0.000000000               0.000000000               0.000406984               0.004260242              -0.000568678              -0.000379910               0.001546703               0.001166793               0.000000000               0.000000000               0.000000000               0.000000000               0.000453864               0.004366800              -0.000490087              -0.000375650               0.001580802               0.001205152               0.000000000               0.000000000               0.000000000               0.000000000               0.000521215               0.004450183              -0.000398458              -0.000360816               0.001603652               0.001242835               0.000000000               0.000000000               0.000000000               0.000000000               0.000604912               0.004504590              -0.000290906              -0.000336231               0.001613592               0.001277361               0.000000000               0.000000000               0.000000000               0.000000000               0.000697176               0.004524510              -0.000159056              -0.000304122               0.001609529               0.001305407               0.000000000               0.000000000               0.000000000               0.000000000               0.000764527               0.004531932              -0.000086877              -0.000279793               0.001603893               0.001324100               0.000000000               0.000000000               0.000000000               0.000000000              -0.003130305              -0.000204921               0.000011416              -0.001148249               0.000314440              -0.000833808               0.000000000               0.000000000               0.000000000               0.000000000              -0.001528434               0.000262992              -0.000289529              -0.000606036               0.000289674              -0.000316362               0.000000000               0.000000000               0.000000000               0.000000000              -0.000385932               0.000784734              -0.000559296              -0.000242816               0.000342514               0.000099698               0.000000000               0.000000000               0.000000000               0.000000000               0.000123434               0.001407664              -0.000625607              -0.000129670               0.000512440               0.000382769               0.000000000               0.000000000               0.000000000               0.000000000               0.000365056               0.001972641              -0.000618959              -0.000109684               0.000694102               0.000584417               0.000000000               0.000000000               0.000000000               0.000000000               0.000476910               0.002448091              -0.000587983              -0.000127170               0.000858412               0.000731242               0.000000000               0.000000000               0.000000000               0.000000000               0.000521307               0.002836346              -0.000545216              -0.000159053               0.000998457               0.000839404               0.000000000               0.000000000               0.000000000               0.000000000               0.000536019               0.003158142              -0.000500793              -0.000193760               0.001117290               0.000923530               0.000000000               0.000000000               0.000000000               0.000000000               0.000535554               0.003429131              -0.000458401              -0.000227808               0.001218968               0.000991160               0.000000000               0.000000000               0.000000000               0.000000000               0.000535606               0.003660914              -0.000415577              -0.000256761               0.001305879               0.001049118               0.000000000               0.000000000               0.000000000               0.000000000               0.000546352               0.003863902              -0.000374487              -0.000278105               0.001380656               0.001102551               0.000000000               0.000000000               0.000000000               0.000000000               0.000573239               0.004042686              -0.000333818              -0.000290370               0.001444339               0.001153968               0.000000000               0.000000000               0.000000000               0.000000000               0.000622162               0.004202478              -0.000290126              -0.000291998               0.001498145               0.001206146               0.000000000               0.000000000               0.000000000               0.000000000               0.000701318               0.004340087              -0.000239695              -0.000279516               0.001539853               0.001260337               0.000000000               0.000000000               0.000000000               0.000000000               0.000816172               0.004439999              -0.000177372              -0.000248935               0.001562963               0.001314028               0.000000000               0.000000000               0.000000000               0.000000000               0.000972091               0.004494697              -0.000098401              -0.000197303               0.001563985               0.001366682               0.000000000               0.000000000               0.000000000               0.000000000               0.001105096               0.004525677              -0.000056493              -0.000151298               0.001558977               0.001407678               0.000000000               0.000000000               0.000000000               0.000000000               0.000000000               0.000000000               0.000000000               0.000000000               0.000000000               0.000000000               0.000000000               0.000000000               0.000000000               0.000000000               0.000000000               0.000000000               0.000000000               0.000000000               0.000000000               0.000000000               0.000000000               0.000000000               0.000000000               0.000000000               0.000000000               0.000000000               0.000000000               0.000000000               0.000000000               0.000000000               0.000000000               0.000000000               0.000000000               0.000000000               0.000000000               0.000000000               0.000000000               0.000000000               0.000000000               0.000000000               0.000000000               0.000000000               0.000000000               0.000000000               0.000000000               0.000000000               0.000000000               0.000000000               0.000000000               0.000000000               0.000000000               0.000000000               0.000000000               0.000000000               0.000000000               0.000000000               0.000000000               0.000000000               0.000000000               0.000000000               0.000000000               0.000000000               0.000000000               0.000000000               0.000000000               0.000000000               0.000000000               0.000000000               0.000000000               0.000000000               0.000000000               0.000000000               0.000000000               0.000000000               0.000000000               0.000000000               0.000000000               0.000000000               0.000000000               0.000000000               0.000000000               0.000000000               0.000000000               0.000000000               0.000000000               0.000000000               0.000000000               0.000000000               0.000000000               0.000000000               0.000000000               0.000000000               0.000000000               0.000000000               0.000000000               0.000000000               0.000000000               0.000000000               0.000000000               0.000000000               0.000000000               0.000000000               0.000000000               0.000000000               0.000000000               0.000000000               0.000000000               0.000000000               0.000000000               0.000000000               0.000000000               0.000000000               0.000000000               0.000000000               0.000000000               0.000000000               0.000000000               0.000000000               0.000000000               0.000000000               0.000000000               0.000000000               0.000000000               0.000000000               0.000000000               0.000000000               0.000000000               0.000000000               0.000000000               0.000000000               0.000000000               0.000000000               0.000000000               0.000000000               0.000000000               0.000000000               0.000000000               0.000000000               0.000000000               0.000000000               0.000000000               0.000000000               0.000000000               0.000000000               0.000000000               0.000000000               0.000000000               0.000000000               0.000000000               0.000000000               0.000000000               0.000000000               0.000000000               0.000000000               0.000000000               0.000000000               0.000000000               0.000000000               0.000000000               0.000000000               0.000000000               0.000000000               0.000000000               0.000000000               0.000000000               0.000000000               0.000000000               0.000000000               0.000000000               0.000000000               0.000000000               0.000000000               0.000000000               0.000000000               0.000000000               0.000000000               0.000000000               0.000000000               0.000000000               0.000000000               0.000000000               0.000000000               0.000000000               0.000000000               0.000000000               0.000000000               0.000000000               0.000000000               0.000000000               0.000000000               0.000000000               0.000000000               0.000000000               0.000000000               0.000000000               0.000000000               0.000000000               0.000000000               0.000000000               0.000000000               0.000000000               0.000000000               0.000000000               0.000000000               0.000000000               0.000000000               0.000000000               0.000000000               0.000000000               0.000000000               0.000000000               0.000000000               0.000000000               0.000000000               0.000000000               0.000000000               0.000000000               0.000000000               0.000000000               0.000000000               0.000000000               0.000000000               0.000000000               0.000000000               0.000000000               0.000000000               0.000000000               0.000000000               0.000000000               0.000000000               0.000000000               0.000000000               0.000000000               0.000000000               0.000000000               0.000000000               0.000000000               0.000000000               0.000000000               0.000000000               0.000000000               0.000000000               0.000000000               0.000000000               0.000000000               0.000000000               0.000000000               0.000000000               0.000000000               0.000000000               0.000000000               0.000000000               0.000000000               0.000000000               0.000000000               0.000000000               0.000000000               0.000000000               0.000000000               0.000000000               0.000000000               0.000000000               0.000000000               0.000000000               0.000000000               0.000000000               0.000000000               0.000000000               0.000000000               0.000000000               0.000000000               0.000000000               0.000000000               0.000000000               0.000000000               0.000000000               0.000000000               0.000000000               0.000000000               0.000000000               0.000000000               0.000000000               0.000000000               0.000000000               0.000000000               0.000000000               0.000000000               0.000000000               0.000000000               0.000000000               0.000000000               0.000000000               0.000000000               0.000000000               0.000000000               0.000000000               0.000000000               0.000000000               0.000000000               0.000000000               0.000000000               0.000000000               0.000000000               0.000000000               0.000000000               0.000000000               0.000000000               0.000000000               0.000000000               0.000000000               0.000000000               0.000000000               0.000000000               0.000000000               0.000000000               0.000000000               0.000000000               0.000000000               0.000000000               0.000000000               0.000000000               0.000000000               0.000000000               0.000000000               0.000000000               0.000000000               0.000000000               0.000000000               0.000000000               0.000000000               0.000000000               0.000000000               0.000000000               0.000000000               0.000000000               0.000000000               0.000000000               0.000000000               0.000000000               0.000000000               0.000000000               0.000000000               0.000000000               0.000000000               0.001408063               0.014762411               0.001085270              -0.001317275               0.005359846               0.004042571               0.000000000               0.000000000               0.000000000               0.000000000               0.001417488               0.011960544               0.000631238              -0.000963508               0.004307977               0.003344470               0.000000000               0.000000000               0.000000000               0.000000000               0.001859662               0.009721830               0.000172282              -0.000517854               0.003413196               0.002895342               0.000000000               0.000000000               0.000000000               0.000000000               0.001854590               0.008472358              -0.000030726              -0.000363573               0.002945282               0.002581709               0.000000000               0.000000000               0.000000000               0.000000000               0.001703794               0.007706553              -0.000121216              -0.000324396               0.002676957               0.002352561               0.000000000               0.000000000               0.000000000               0.000000000               0.001504547               0.007201707              -0.000159527              -0.000336008               0.002512548               0.002176540               0.000000000               0.000000000               0.000000000               0.000000000               0.001298387               0.006855083              -0.000175364              -0.000369989               0.002408335               0.002038345               0.000000000               0.000000000               0.000000000               0.000000000               0.001097842               0.006608643              -0.000179797              -0.000414389               0.002340989               0.001926600               0.000000000               0.000000000               0.000000000               0.000000000               0.000910394               0.006430069              -0.000176824              -0.000462360               0.002297455               0.001835095               0.000000000               0.000000000               0.000000000               0.000000000               0.000736816               0.006293451              -0.000169195              -0.000510374               0.002267921               0.001757547               0.000000000               0.000000000               0.000000000               0.000000000               0.000573719               0.006177597              -0.000158770              -0.000557054               0.002244863               0.001687809               0.000000000               0.000000000               0.000000000               0.000000000               0.000426115               0.006071769              -0.000146614              -0.000599176               0.002223628               0.001624452               0.000000000               0.000000000               0.000000000               0.000000000               0.000300465               0.005969408              -0.000130701              -0.000633500               0.002200949               0.001567449               0.000000000               0.000000000               0.000000000               0.000000000               0.000197997               0.005858649              -0.000109015              -0.000658081               0.002172224               0.001514143               0.000000000               0.000000000               0.000000000               0.000000000               0.000114539               0.005729731              -0.000080309              -0.000673263               0.002134312               0.001461050               0.000000000               0.000000000               0.000000000               0.000000000               0.000050392               0.005578539              -0.000043693              -0.000678419               0.002085634               0.001407215               0.000000000               0.000000000               0.000000000               0.000000000               0.000011864               0.005462837              -0.000026339              -0.000678404               0.002047062               0.001368658               0.000000000               0.000000000               0.000000000               0.000000000               0.001584139               0.013960101               0.002042721              -0.001150959               0.005036973               0.003886015               0.000000000               0.000000000               0.000000000               0.000000000               0.001411550               0.011416765               0.001191572              -0.000897763               0.004104804               0.003207042               0.000000000               0.000000000               0.000000000               0.000000000               0.001659270               0.009453996               0.000337044              -0.000559522               0.003337808               0.002778286               0.000000000               0.000000000               0.000000000               0.000000000               0.001578438               0.008347682              -0.000030121              -0.000451545               0.002933048               0.002481503               0.000000000               0.000000000               0.000000000               0.000000000               0.001406806               0.007654587              -0.000190368              -0.000429270               0.002694593               0.002265323               0.000000000               0.000000000               0.000000000               0.000000000               0.001211738               0.007191129              -0.000260024              -0.000444488               0.002545182               0.002100693               0.000000000               0.000000000               0.000000000               0.000000000               0.001016284               0.006867323              -0.000288403              -0.000477308               0.002448187               0.001970880               0.000000000               0.000000000               0.000000000               0.000000000               0.000833297               0.006628404              -0.000297480              -0.000516063               0.002381467               0.001865404               0.000000000               0.000000000               0.000000000               0.000000000               0.000675060               0.006446640              -0.000296837              -0.000552681               0.002333086               0.001780404               0.000000000               0.000000000               0.000000000               0.000000000               0.000535315               0.006300820              -0.000287107              -0.000586858               0.002295872               0.001709014               0.000000000               0.000000000               0.000000000               0.000000000               0.000409420               0.006175657              -0.000271599              -0.000618423               0.002264673               0.001646250               0.000000000               0.000000000               0.000000000               0.000000000               0.000301328               0.006063553              -0.000254691              -0.000644945               0.002236146               0.001591201               0.000000000               0.000000000               0.000000000               0.000000000               0.000210839               0.005954990              -0.000230020              -0.000665307               0.002206746               0.001541439               0.000000000               0.000000000               0.000000000               0.000000000               0.000137552               0.005842888              -0.000192070              -0.000678777               0.002173869               0.001495092               0.000000000               0.000000000               0.000000000               0.000000000               0.000077848               0.005725350              -0.000144473              -0.000686474               0.002137256               0.001450782               0.000000000               0.000000000               0.000000000               0.000000000               0.000032289               0.005604996              -0.000082146              -0.000688514               0.002097818               0.001409304               0.000000000               0.000000000               0.000000000               0.000000000               0.000005109               0.005521769              -0.000049547              -0.000688304               0.002070006               0.001381702               0.000000000               0.000000000               0.000000000               0.000000000               0.001809551               0.012736987               0.002771713              -0.000913542               0.004550133               0.003636592               0.000000000               0.000000000               0.000000000               0.000000000               0.001378583               0.010600839               0.001629824              -0.000808135               0.003802956               0.002994821               0.000000000               0.000000000               0.000000000               0.000000000               0.001350630               0.009047655               0.000492859              -0.000624469               0.003224011               0.002599542               0.000000000               0.000000000               0.000000000               0.000000000               0.001176464               0.008142247               0.000021368              -0.000576606               0.002906257               0.002329651               0.000000000               0.000000000               0.000000000               0.000000000               0.000987648               0.007552474              -0.000180912              -0.000573690               0.002708696               0.002135006               0.000000000               0.000000000               0.000000000               0.000000000               0.000806585               0.007143160              -0.000270787              -0.000590424               0.002577838               0.001987413               0.000000000               0.000000000               0.000000000               0.000000000               0.000639002               0.006847474              -0.000309145              -0.000616307               0.002487904               0.001871597               0.000000000               0.000000000               0.000000000               0.000000000               0.000492332               0.006623294              -0.000322704              -0.000643286               0.002422171               0.001778885               0.000000000               0.000000000               0.000000000               0.000000000               0.000374939               0.006440990              -0.000324373              -0.000664520               0.002368482               0.001703962               0.000000000               0.000000000               0.000000000               0.000000000               0.000280689               0.006284432              -0.000316816              -0.000680294               0.002321554               0.001641260               0.000000000               0.000000000               0.000000000               0.000000000               0.000206551               0.006145674              -0.000303130              -0.000690751               0.002278788               0.001588037               0.000000000               0.000000000               0.000000000               0.000000000               0.000149465               0.006016704              -0.000283489              -0.000696037               0.002237560               0.001541524               0.000000000               0.000000000               0.000000000               0.000000000               0.000101642               0.005891352              -0.000251778              -0.000698301               0.002196531               0.001498230               0.000000000               0.000000000               0.000000000               0.000000000               0.000066913               0.005774278              -0.000206341              -0.000696691               0.002156970               0.001460280               0.000000000               0.000000000               0.000000000               0.000000000               0.000039994               0.005668873              -0.000152146              -0.000693609               0.002120809               0.001427199               0.000000000               0.000000000               0.000000000               0.000000000               0.000015767               0.005578892              -0.000085086              -0.000691447               0.002090094               0.001398647               0.000000000               0.000000000               0.000000000               0.000000000               0.000000983               0.005530431              -0.000049390              -0.000690934               0.002073770               0.001382836               0.000000000               0.000000000               0.000000000               0.000000000               0.002002603               0.011235440               0.003213336              -0.000653455               0.003962927               0.003309472               0.000000000               0.000000000               0.000000000               0.000000000               0.001292785               0.009612057               0.001920371              -0.000716712               0.003442891               0.002726178               0.000000000               0.000000000               0.000000000               0.000000000               0.000967805               0.008553608               0.000642872              -0.000706273               0.003086598               0.002380326               0.000000000               0.000000000               0.000000000               0.000000000               0.000716505               0.007870303               0.000131693              -0.000715097               0.002861774               0.002146677               0.000000000               0.000000000               0.000000000               0.000000000               0.000531434               0.007390362              -0.000083649              -0.000724506               0.002704931               0.001980426               0.000000000               0.000000000               0.000000000               0.000000000               0.000382157               0.007038635              -0.000183057              -0.000736519               0.002591695               0.001855176               0.000000000               0.000000000               0.000000000               0.000000000               0.000260005               0.006771820              -0.000232317              -0.000748974               0.002506909               0.001757935               0.000000000               0.000000000               0.000000000               0.000000000               0.000163875               0.006557537              -0.000253504              -0.000758237               0.002438570               0.001680332               0.000000000               0.000000000               0.000000000               0.000000000               0.000092245               0.006370642              -0.000259899              -0.000761737               0.002377438               0.001615702               0.000000000               0.000000000               0.000000000               0.000000000               0.000045931               0.006201658              -0.000258379              -0.000757981               0.002319859               0.001561878               0.000000000               0.000000000               0.000000000               0.000000000               0.000018487               0.006047166              -0.000247463              -0.000748961               0.002265356               0.001516394               0.000000000               0.000000000               0.000000000               0.000000000               0.000003765               0.005899948              -0.000228105              -0.000736080               0.002211990               0.001475910               0.000000000               0.000000000               0.000000000               0.000000000              -0.000003682               0.005763241              -0.000199081              -0.000721784               0.002161656               0.001439872               0.000000000               0.000000000               0.000000000               0.000000000              -0.000005151               0.005643148              -0.000158279              -0.000707323               0.002116805               0.001409482               0.000000000               0.000000000               0.000000000               0.000000000              -0.000002423               0.005543511              -0.000111170              -0.000693846               0.002079100               0.001385255               0.000000000               0.000000000               0.000000000               0.000000000              -0.000001741               0.005468239              -0.000059482              -0.000684181               0.002050789               0.001366607               0.000000000               0.000000000               0.000000000               0.000000000              -0.000005556               0.005433022              -0.000034302              -0.000681210               0.002038059               0.001356850               0.000000000               0.000000000               0.000000000               0.000000000               0.002077928               0.009598289               0.003362720              -0.000420566               0.003339585               0.002919020               0.000000000               0.000000000               0.000000000               0.000000000               0.001134615               0.008551069               0.002070574              -0.000643403               0.003064795               0.002421392               0.000000000               0.000000000               0.000000000               0.000000000               0.000553602               0.008017155               0.000799412              -0.000794542               0.002937206               0.002142664               0.000000000               0.000000000               0.000000000               0.000000000               0.000267017               0.007548066               0.000303095              -0.000843375               0.002797122               0.001953747               0.000000000               0.000000000               0.000000000               0.000000000               0.000113730               0.007168545               0.000089139              -0.000853417               0.002673963               0.001820546               0.000000000               0.000000000               0.000000000               0.000000000               0.000015456               0.006866529              -0.000020804              -0.000852518               0.002572993               0.001720475               0.000000000               0.000000000               0.000000000               0.000000000              -0.000055133               0.006621403              -0.000086614              -0.000848348               0.002489895               0.001641547               0.000000000               0.000000000               0.000000000               0.000000000              -0.000101218               0.006410796              -0.000121056              -0.000839304               0.002416679               0.001577374               0.000000000               0.000000000               0.000000000               0.000000000              -0.000126519               0.006215068              -0.000137020              -0.000824326               0.002346444               0.001522118               0.000000000               0.000000000               0.000000000               0.000000000              -0.000130806               0.006035126              -0.000146845              -0.000803441               0.002279502               0.001476061               0.000000000               0.000000000               0.000000000               0.000000000              -0.000117992               0.005872569              -0.000146563              -0.000778316               0.002216942               0.001438626               0.000000000               0.000000000               0.000000000               0.000000000              -0.000095754               0.005722702              -0.000136252              -0.000751244               0.002157963               0.001406719               0.000000000               0.000000000               0.000000000               0.000000000              -0.000073959               0.005585332              -0.000119499              -0.000725899               0.002103725               0.001377826               0.000000000               0.000000000               0.000000000               0.000000000              -0.000055727               0.005467349              -0.000093658              -0.000704315               0.002057203               0.001352889               0.000000000               0.000000000               0.000000000               0.000000000              -0.000037596               0.005374249              -0.000063508              -0.000685878               0.002020024               0.001334147               0.000000000               0.000000000               0.000000000               0.000000000              -0.000019037               0.005307086              -0.000034295              -0.000670523               0.001992519               0.001321996               0.000000000               0.000000000               0.000000000               0.000000000              -0.000013974               0.005272675              -0.000022778              -0.000664323               0.001978982               0.001314659               0.000000000               0.000000000               0.000000000               0.000000000               0.001995253               0.007947290               0.003261287              -0.000245195               0.002730801               0.002485606               0.000000000               0.000000000               0.000000000               0.000000000               0.000915603               0.007498688               0.002114054              -0.000593985               0.002697532               0.002103547               0.000000000               0.000000000               0.000000000               0.000000000               0.000160545               0.007463300               0.000974541              -0.000872706               0.002778644               0.001905938               0.000000000               0.000000000               0.000000000               0.000000000              -0.000111015               0.007182941               0.000521408              -0.000939496               0.002707455               0.001767959               0.000000000               0.000000000               0.000000000               0.000000000              -0.000211536               0.006889025               0.000304564              -0.000940452               0.002609803               0.001669351               0.000000000               0.000000000               0.000000000               0.000000000              -0.000254022               0.006630825               0.000174521              -0.000924109               0.002518289               0.001594180               0.000000000               0.000000000               0.000000000               0.000000000              -0.000274610               0.006405188               0.000086612              -0.000903625               0.002436250               0.001532625               0.000000000               0.000000000               0.000000000               0.000000000              -0.000279930               0.006191894               0.000033761              -0.000878958               0.002356930               0.001477972               0.000000000               0.000000000               0.000000000               0.000000000              -0.000265765               0.005992047               0.000001476              -0.000848666               0.002280217               0.001431552               0.000000000               0.000000000               0.000000000               0.000000000              -0.000229955               0.005814398              -0.000026325              -0.000813031               0.002209124               0.001396093               0.000000000               0.000000000               0.000000000               0.000000000              -0.000182043               0.005653135              -0.000043616              -0.000774906               0.002142661               0.001367755               0.000000000               0.000000000               0.000000000               0.000000000              -0.000136337               0.005503118              -0.000048308              -0.000739014               0.002080693               0.001341678               0.000000000               0.000000000               0.000000000               0.000000000              -0.000098637               0.005370925              -0.000047729              -0.000708353               0.002026408               0.001318055               0.000000000               0.000000000               0.000000000               0.000000000              -0.000069550               0.005262851              -0.000041343              -0.000683936               0.001982245               0.001298309               0.000000000               0.000000000               0.000000000               0.000000000              -0.000043418               0.005181154              -0.000030333              -0.000663924               0.001948342               0.001284418               0.000000000               0.000000000               0.000000000               0.000000000              -0.000020269               0.005121291              -0.000017158              -0.000647761               0.001923000               0.001275240               0.000000000               0.000000000               0.000000000               0.000000000              -0.000014687               0.005086565              -0.000012760              -0.000641327               0.001909280               0.001267954               0.000000000               0.000000000               0.000000000               0.000000000               0.001771563               0.006384251               0.002962659              -0.000133699               0.002172628               0.002038929               0.000000000               0.000000000               0.000000000               0.000000000               0.000658282               0.006510978               0.002080900              -0.000567017               0.002359309               0.001792292               0.000000000               0.000000000               0.000000000               0.000000000              -0.000168027               0.006900140               0.001164680              -0.000925526               0.002608532               0.001683006               0.000000000               0.000000000               0.000000000               0.000000000              -0.000382422               0.006776728               0.000753246              -0.000990497               0.002589052               0.001598555               0.000000000               0.000000000               0.000000000               0.000000000              -0.000421126               0.006561605               0.000520842              -0.000978121               0.002513220               0.001535099               0.000000000               0.000000000               0.000000000               0.000000000              -0.000415430               0.006347966               0.000366405              -0.000949280               0.002432394               0.001483114               0.000000000               0.000000000               0.000000000               0.000000000              -0.000397274               0.006139509               0.000257723              -0.000916414               0.002351954               0.001435540               0.000000000               0.000000000               0.000000000               0.000000000              -0.000364196               0.005932561               0.000183385              -0.000878142               0.002270214               0.001392073               0.000000000               0.000000000               0.000000000               0.000000000              -0.000312664               0.005743568               0.000127616              -0.000835193               0.002192901               0.001357708               0.000000000               0.000000000               0.000000000               0.000000000              -0.000247430               0.005572389               0.000078938              -0.000789333               0.002120555               0.001331222               0.000000000               0.000000000               0.000000000               0.000000000              -0.000180426               0.005409844               0.000043319              -0.000743889               0.002051226               0.001307338               0.000000000               0.000000000               0.000000000               0.000000000              -0.000124710               0.005263668               0.000019824              -0.000704723               0.001989446               0.001284723               0.000000000               0.000000000               0.000000000               0.000000000              -0.000081289               0.005142850               0.000000883              -0.000673338               0.001938712               0.001265374               0.000000000               0.000000000               0.000000000               0.000000000              -0.000051313               0.005044797              -0.000010350              -0.000649840               0.001898196               0.001248355               0.000000000               0.000000000               0.000000000               0.000000000              -0.000030265               0.004966451              -0.000013610              -0.000632154               0.001866185               0.001234031               0.000000000               0.000000000               0.000000000               0.000000000              -0.000015014               0.004900450              -0.000010045              -0.000618185               0.001839529               0.001221344               0.000000000               0.000000000               0.000000000               0.000000000              -0.000013511               0.004858843              -0.000009482              -0.000612421               0.001823738               0.001211318               0.000000000               0.000000000               0.000000000               0.000000000               0.001466807               0.005032323               0.002540105              -0.000078991               0.001703753               0.001624763               0.000000000               0.000000000               0.000000000               0.000000000               0.000423250               0.005621521               0.002009539              -0.000543972               0.002055145               0.001511173               0.000000000               0.000000000               0.000000000               0.000000000              -0.000391183               0.006362968               0.001379276              -0.000942063               0.002434989               0.001492926               0.000000000               0.000000000               0.000000000               0.000000000              -0.000539153               0.006400863               0.000998121              -0.001002288               0.002467696               0.001465407               0.000000000               0.000000000               0.000000000               0.000000000              -0.000531544               0.006273554               0.000744451              -0.000983521               0.002419004               0.001435483               0.000000000               0.000000000               0.000000000               0.000000000              -0.000493310               0.006110517               0.000565446              -0.000948803               0.002353086               0.001404283               0.000000000               0.000000000               0.000000000               0.000000000              -0.000444713               0.005930317               0.000435308              -0.000908055               0.002279437               0.001371383               0.000000000               0.000000000               0.000000000               0.000000000              -0.000377595               0.005746945               0.000337212              -0.000859964               0.002202284               0.001342320               0.000000000               0.000000000               0.000000000               0.000000000              -0.000296030               0.005574300               0.000257334              -0.000807797               0.002127347               0.001319550               0.000000000               0.000000000               0.000000000               0.000000000              -0.000214758               0.005406813               0.000188855              -0.000756384               0.002054381               0.001297997               0.000000000               0.000000000               0.000000000               0.000000000              -0.000142276               0.005245059               0.000130880              -0.000708984               0.001984664               0.001275680               0.000000000               0.000000000               0.000000000               0.000000000              -0.000087190               0.005104369               0.000082139              -0.000670741               0.001925020               0.001254279               0.000000000               0.000000000               0.000000000               0.000000000              -0.000056203               0.004985866               0.000042561              -0.000644308               0.001876708               0.001232400               0.000000000               0.000000000               0.000000000               0.000000000              -0.000041280               0.004885709               0.000015050              -0.000626192               0.001837284               0.001211092               0.000000000               0.000000000               0.000000000               0.000000000              -0.000037210               0.004795599               0.000000604              -0.000613402               0.001802984               0.001189582               0.000000000               0.000000000               0.000000000               0.000000000              -0.000040241               0.004706313              -0.000002544              -0.000603378               0.001769881               0.001166503               0.000000000               0.000000000               0.000000000               0.000000000              -0.000041841               0.004656691              -0.000003170              -0.000597775               0.001751473               0.001153698               0.000000000               0.000000000               0.000000000               0.000000000               0.001055202               0.003756252               0.002064807              -0.000073833               0.001276682               0.001202848               0.000000000               0.000000000               0.000000000               0.000000000               0.000246764               0.004606535               0.001915894              -0.000483281               0.001696589               0.001213308               0.000000000               0.000000000               0.000000000               0.000000000              -0.000473717               0.005602240               0.001614545              -0.000877923               0.002160035               0.001282112               0.000000000               0.000000000               0.000000000               0.000000000              -0.000593275               0.005852027               0.001280279              -0.000953980               0.002268649               0.001314670               0.000000000               0.000000000               0.000000000               0.000000000              -0.000566986               0.005861093               0.001010260              -0.000945254               0.002268763               0.001323508               0.000000000               0.000000000               0.000000000               0.000000000              -0.000517583               0.005790958               0.000806339              -0.000917961               0.002236287               0.001318326               0.000000000               0.000000000               0.000000000               0.000000000              -0.000459537               0.005685228               0.000655026              -0.000882978               0.002189383               0.001306405               0.000000000               0.000000000               0.000000000               0.000000000              -0.000386041               0.005562159               0.000533481              -0.000840033               0.002134045               0.001294012               0.000000000               0.000000000               0.000000000               0.000000000              -0.000303332               0.005432052               0.000428388              -0.000792754               0.002074917               0.001282163               0.000000000               0.000000000               0.000000000               0.000000000              -0.000222109               0.005298035               0.000335368              -0.000745543               0.002014508               0.001268965               0.000000000               0.000000000               0.000000000               0.000000000              -0.000150963               0.005160153               0.000252047              -0.000701629               0.001953910               0.001252282               0.000000000               0.000000000               0.000000000               0.000000000              -0.000096708               0.005029884               0.000175201              -0.000664999               0.001898278               0.001233278               0.000000000               0.000000000               0.000000000               0.000000000              -0.000066896               0.004913945               0.000108700              -0.000639328               0.001851074               0.001211747               0.000000000               0.000000000               0.000000000               0.000000000              -0.000059879               0.004812065               0.000057877              -0.000623961               0.001811993               0.001188032               0.000000000               0.000000000               0.000000000               0.000000000              -0.000068248               0.004715512               0.000023866              -0.000615030               0.001776832               0.001161801               0.000000000               0.000000000               0.000000000               0.000000000              -0.000087340               0.004616410               0.000005814              -0.000609802               0.001742055               0.001132253               0.000000000               0.000000000               0.000000000               0.000000000              -0.000097133               0.004566781               0.000000229              -0.000607271               0.001724669               0.001117398               0.000000000               0.000000000               0.000000000               0.000000000               0.000454535               0.002589035               0.001558880              -0.000153180               0.000914062               0.000760882               0.000000000               0.000000000               0.000000000               0.000000000               0.000035609               0.003600939               0.001764998              -0.000436765               0.001345889               0.000909124               0.000000000               0.000000000               0.000000000               0.000000000              -0.000482089               0.004750537               0.001792152              -0.000774600               0.001841696               0.001067096               0.000000000               0.000000000               0.000000000               0.000000000              -0.000574764               0.005199735               0.001548629              -0.000865502               0.002021728               0.001156226               0.000000000               0.000000000               0.000000000               0.000000000              -0.000543366               0.005364829               0.001289932              -0.000874364               0.002079713               0.001205349               0.000000000               0.000000000               0.000000000               0.000000000              -0.000487359               0.005411742               0.001074446              -0.000859226               0.002090304               0.001231079               0.000000000               0.000000000               0.000000000               0.000000000              -0.000430713               0.005398983               0.000907387              -0.000836389               0.002078439               0.001242051               0.000000000               0.000000000               0.000000000               0.000000000              -0.000366179               0.005351111               0.000766503              -0.000806204               0.002052420               0.001246216               0.000000000               0.000000000               0.000000000               0.000000000              -0.000292947               0.005283254               0.000639936              -0.000770260               0.002017820               0.001247560               0.000000000               0.000000000               0.000000000               0.000000000              -0.000217686               0.005198262               0.000526909              -0.000731413               0.001976541               0.001245128               0.000000000               0.000000000               0.000000000               0.000000000              -0.000147232               0.005096725               0.000422596              -0.000692301               0.001929658               0.001237357               0.000000000               0.000000000               0.000000000               0.000000000              -0.000088650               0.004989009               0.000321518              -0.000656868               0.001881942               0.001225074               0.000000000               0.000000000               0.000000000               0.000000000              -0.000052396               0.004879111               0.000227560              -0.000629536               0.001836199               0.001206664               0.000000000               0.000000000               0.000000000               0.000000000              -0.000045298               0.004777096               0.000146932              -0.000614122               0.001797057               0.001182934               0.000000000               0.000000000               0.000000000               0.000000000              -0.000064665               0.004686944               0.000082286              -0.000610116               0.001765671               0.001155555               0.000000000               0.000000000               0.000000000               0.000000000              -0.000107253               0.004599321               0.000033877              -0.000615134               0.001738136               0.001123003               0.000000000               0.000000000               0.000000000               0.000000000              -0.000141510               0.004550395               0.000010306              -0.000621864               0.001724071               0.001102207               0.000000000               0.000000000               0.000000000               0.000000000              -0.000298214               0.001599241               0.001052619              -0.000311736               0.000636986               0.000325251               0.000000000               0.000000000               0.000000000               0.000000000              -0.000257578               0.002649047               0.001534238              -0.000427723               0.001025580               0.000597857               0.000000000               0.000000000               0.000000000               0.000000000              -0.000462494               0.003809882               0.001835845              -0.000649670               0.001486504               0.000836834               0.000000000               0.000000000               0.000000000               0.000000000              -0.000478620               0.004403806               0.001708128              -0.000729957               0.001711239               0.000981282               0.000000000               0.000000000               0.000000000               0.000000000              -0.000433951               0.004712678               0.001493999              -0.000751815               0.001821482               0.001069666               0.000000000               0.000000000               0.000000000               0.000000000              -0.000375602               0.004881822               0.001291012              -0.000751077               0.001877617               0.001126539               0.000000000               0.000000000               0.000000000               0.000000000              -0.000325565               0.004974413               0.001120521              -0.000743887               0.001906083               0.001162196               0.000000000               0.000000000               0.000000000               0.000000000              -0.000275421               0.005017854               0.000972296              -0.000730513               0.001916106               0.001185592               0.000000000               0.000000000               0.000000000               0.000000000              -0.000218291               0.005025774               0.000837020              -0.000710079               0.001911934               0.001201855               0.000000000               0.000000000               0.000000000               0.000000000              -0.000157434               0.005005497               0.000713463              -0.000684723               0.001896723               0.001212000               0.000000000               0.000000000               0.000000000               0.000000000              -0.000096206               0.004958863               0.000597994              -0.000655934               0.001871582               0.001215649               0.000000000               0.000000000               0.000000000               0.000000000              -0.000038621               0.004893336               0.000484515              -0.000626149               0.001839812               0.001213663               0.000000000               0.000000000               0.000000000               0.000000000               0.000005796               0.004815112               0.000372001              -0.000599714               0.001804926               0.001205212               0.000000000               0.000000000               0.000000000               0.000000000               0.000021151               0.004733738               0.000265331              -0.000583784               0.001772492               0.001188708               0.000000000               0.000000000               0.000000000               0.000000000               0.000000931               0.004657483               0.000167906              -0.000581835               0.001746424               0.001164589               0.000000000               0.000000000               0.000000000               0.000000000              -0.000058222               0.004583975               0.000079245              -0.000594829               0.001726253               0.001131424               0.000000000               0.000000000               0.000000000               0.000000000              -0.000117257               0.004535908               0.000030230              -0.000610958               0.001715607               0.001104648               0.000000000               0.000000000               0.000000000               0.000000000              -0.001133943               0.000834521               0.000602449              -0.000529543               0.000454684              -0.000074859               0.000000000               0.000000000               0.000000000               0.000000000              -0.000608381               0.001795652               0.001243399              -0.000452599               0.000749410               0.000296811               0.000000000               0.000000000               0.000000000               0.000000000              -0.000431052               0.002850768               0.001729420              -0.000517990               0.001122909               0.000604919               0.000000000               0.000000000               0.000000000               0.000000000              -0.000324201               0.003521566               0.001714665              -0.000561771               0.001361100               0.000799329               0.000000000               0.000000000               0.000000000               0.000000000              -0.000246571               0.003947008               0.001563628              -0.000585840               0.001510936               0.000925096               0.000000000               0.000000000               0.000000000               0.000000000              -0.000183596               0.004232534               0.001392719              -0.000597915               0.001610135               0.001012220               0.000000000               0.000000000               0.000000000               0.000000000              -0.000142566               0.004429484               0.001236574              -0.000607147               0.001678862               0.001071715               0.000000000               0.000000000               0.000000000               0.000000000              -0.000109447               0.004566615               0.001095879              -0.000611869               0.001726146               0.001114277               0.000000000               0.000000000               0.000000000               0.000000000              -0.000073588               0.004657239               0.000964334              -0.000609749               0.001755647               0.001145898               0.000000000               0.000000000               0.000000000               0.000000000              -0.000033279               0.004711567               0.000843145              -0.000601424               0.001770981               0.001169557               0.000000000               0.000000000               0.000000000               0.000000000               0.000010694               0.004736521               0.000729151              -0.000588054               0.001774842               0.001186789               0.000000000               0.000000000               0.000000000               0.000000000               0.000058173               0.004734766               0.000618091              -0.000570030               0.001768249               0.001198220               0.000000000               0.000000000               0.000000000               0.000000000               0.000106211               0.004712082               0.000501724              -0.000549180               0.001753738               0.001204558               0.000000000               0.000000000               0.000000000               0.000000000               0.000140012               0.004675009               0.000381297              -0.000531870               0.001735611               0.001203741               0.000000000               0.000000000               0.000000000               0.000000000               0.000141664               0.004625585               0.000261071              -0.000525073               0.001716871               0.001191798               0.000000000               0.000000000               0.000000000               0.000000000               0.000099227               0.004573273               0.000134169              -0.000534448               0.001702558               0.001168111               0.000000000               0.000000000               0.000000000               0.000000000               0.000043051               0.004535193               0.000061327              -0.000550754               0.001695300               0.001144547               0.000000000               0.000000000               0.000000000               0.000000000              -0.001955527               0.000298941               0.000262635              -0.000770690               0.000356541              -0.000414148               0.000000000               0.000000000               0.000000000               0.000000000              -0.000973790               0.001090829               0.000921857              -0.000501524               0.000530780               0.000029255               0.000000000               0.000000000               0.000000000               0.000000000              -0.000401491               0.001964186               0.001467584              -0.000396082               0.000786749               0.000390666               0.000000000               0.000000000               0.000000000               0.000000000              -0.000143409               0.002650234               0.001534435              -0.000385058               0.001011754               0.000626696               0.000000000               0.000000000               0.000000000               0.000000000              -0.000017272               0.003157001               0.001449340              -0.000401102               0.001186023               0.000784921               0.000000000               0.000000000               0.000000000               0.000000000               0.000055352               0.003537481               0.001324373              -0.000421428               0.001319624               0.000898196               0.000000000               0.000000000               0.000000000               0.000000000               0.000095592               0.003822812               0.001198844              -0.000442004               0.001421592               0.000979588               0.000000000               0.000000000               0.000000000               0.000000000               0.000112453               0.004042110               0.001080729              -0.000463093               0.001501721               0.001038627               0.000000000               0.000000000               0.000000000               0.000000000               0.000128366               0.004214611               0.000967250              -0.000478689               0.001564419               0.001085731               0.000000000               0.000000000               0.000000000               0.000000000               0.000149249               0.004347230               0.000860052              -0.000487435               0.001611540               0.001124106               0.000000000               0.000000000               0.000000000               0.000000000               0.000176545               0.004448406               0.000758196              -0.000489845               0.001646069               0.001156224               0.000000000               0.000000000               0.000000000               0.000000000               0.000212257               0.004517110               0.000660536              -0.000485041               0.001667369               0.001182327               0.000000000               0.000000000               0.000000000               0.000000000               0.000258907               0.004558926               0.000557571              -0.000472774               0.001677218               0.001204444               0.000000000               0.000000000               0.000000000               0.000000000               0.000313305               0.004580396               0.000442658              -0.000455059               0.001678470               0.001223411               0.000000000               0.000000000               0.000000000               0.000000000               0.000354958               0.004575469               0.000316457              -0.000438823               0.001671415               0.001232592               0.000000000               0.000000000               0.000000000               0.000000000               0.000370428               0.004553520               0.000170069              -0.000430279               0.001661251               0.001230973               0.000000000               0.000000000               0.000000000               0.000000000               0.000362628               0.004534982               0.000087367              -0.000430886               0.001655274               0.001224388               0.000000000               0.000000000               0.000000000               0.000000000              -0.002655518              -0.000034507               0.000060859              -0.000991505               0.000318997              -0.000672508               0.000000000               0.000000000               0.000000000               0.000000000              -0.001299374               0.000573749               0.000597944              -0.000558983               0.000377574              -0.000181409               0.000000000               0.000000000               0.000000000               0.000000000              -0.000386728               0.001247814               0.001065611              -0.000301000               0.000516267               0.000215266               0.000000000               0.000000000               0.000000000               0.000000000               0.000018613               0.001906753               0.001160403              -0.000231365               0.000712699               0.000481334               0.000000000               0.000000000               0.000000000               0.000000000               0.000203666               0.002457131               0.001125830              -0.000230767               0.000895957               0.000665190               0.000000000               0.000000000               0.000000000               0.000000000               0.000294052               0.002901478               0.001052313              -0.000252415               0.001051288               0.000798872               0.000000000               0.000000000               0.000000000               0.000000000               0.000337460               0.003252918               0.000966992              -0.000280067               0.001177651               0.000897583               0.000000000               0.000000000               0.000000000               0.000000000               0.000349440               0.003534202               0.000882812              -0.000310735               0.001281634               0.000970899               0.000000000               0.000000000               0.000000000               0.000000000               0.000351702               0.003769085               0.000801615              -0.000339247               0.001369431               0.001030184               0.000000000               0.000000000               0.000000000               0.000000000               0.000358444               0.003965943               0.000720745              -0.000361326               0.001442410               0.001081084               0.000000000               0.000000000               0.000000000               0.000000000               0.000375325               0.004127442               0.000643251              -0.000375183               0.001500861               0.001125678               0.000000000               0.000000000               0.000000000               0.000000000               0.000406984               0.004260242               0.000568678              -0.000379910               0.001546703               0.001166793               0.000000000               0.000000000               0.000000000               0.000000000               0.000453864               0.004366800               0.000490087              -0.000375650               0.001580802               0.001205152               0.000000000               0.000000000               0.000000000               0.000000000               0.000521215               0.004450183               0.000398458              -0.000360816               0.001603652               0.001242835               0.000000000               0.000000000               0.000000000               0.000000000               0.000604912               0.004504590               0.000290906              -0.000336231               0.001613592               0.001277361               0.000000000               0.000000000               0.000000000               0.000000000               0.000697176               0.004524510               0.000159056              -0.000304122               0.001609529               0.001305407               0.000000000               0.000000000               0.000000000               0.000000000               0.000764527               0.004531932               0.000086877              -0.000279793               0.001603893               0.001324100               0.000000000               0.000000000               0.000000000               0.000000000              -0.003130305              -0.000204921              -0.000011416              -0.001148249               0.000314440              -0.000833808               0.000000000               0.000000000               0.000000000               0.000000000              -0.001528434               0.000262992               0.000289529              -0.000606036               0.000289674              -0.000316362               0.000000000               0.000000000               0.000000000               0.000000000              -0.000385932               0.000784734               0.000559296              -0.000242816               0.000342514               0.000099698               0.000000000               0.000000000               0.000000000               0.000000000               0.000123434               0.001407664               0.000625607              -0.000129670               0.000512440               0.000382769               0.000000000               0.000000000               0.000000000               0.000000000               0.000365056               0.001972641               0.000618959              -0.000109684               0.000694102               0.000584417               0.000000000               0.000000000               0.000000000               0.000000000               0.000476910               0.002448091               0.000587983              -0.000127170               0.000858412               0.000731242               0.000000000               0.000000000               0.000000000               0.000000000               0.000521307               0.002836346               0.000545216              -0.000159053               0.000998457               0.000839404               0.000000000               0.000000000               0.000000000               0.000000000               0.000536019               0.003158142               0.000500793              -0.000193760               0.001117290               0.000923530               0.000000000               0.000000000               0.000000000               0.000000000               0.000535554               0.003429131               0.000458401              -0.000227808               0.001218968               0.000991160               0.000000000               0.000000000               0.000000000               0.000000000               0.000535606               0.003660914               0.000415577              -0.000256761               0.001305879               0.001049118               0.000000000               0.000000000               0.000000000               0.000000000               0.000546352               0.003863902               0.000374487              -0.000278105               0.001380656               0.001102551               0.000000000               0.000000000               0.000000000               0.000000000               0.000573239               0.004042686               0.000333818              -0.000290370               0.001444339               0.001153968               0.000000000               0.000000000               0.000000000               0.000000000               0.000622162               0.004202478               0.000290126              -0.000291998               0.001498145               0.001206146               0.000000000               0.000000000               0.000000000               0.000000000               0.000701318               0.004340087               0.000239695              -0.000279516               0.001539853               0.001260337               0.000000000               0.000000000               0.000000000               0.000000000               0.000816172               0.004439999               0.000177372              -0.000248935               0.001562963               0.001314028               0.000000000               0.000000000               0.000000000               0.000000000               0.000972091               0.004494697               0.000098401              -0.000197303               0.001563985               0.001366682               0.000000000               0.000000000               0.000000000               0.000000000               0.001105096               0.004525677               0.000056493              -0.000151298               0.001558977               0.001407678               0.000000000               0.000000000               0.000000000               0.000000000               0.000000000               0.000000000               0.000000000               0.000000000               0.000000000               0.000000000               0.000000000               0.000000000               0.000000000               0.000000000               0.000000000               0.000000000               0.000000000               0.000000000               0.000000000               0.000000000               0.000000000               0.000000000               0.000000000               0.000000000               0.000000000               0.000000000               0.000000000               0.000000000               0.000000000               0.000000000               0.000000000               0.000000000               0.000000000               0.000000000               0.000000000               0.000000000               0.000000000               0.000000000               0.000000000               0.000000000               0.000000000               0.000000000               0.000000000               0.000000000               0.000000000               0.000000000               0.000000000               0.000000000               0.000000000               0.000000000               0.000000000               0.000000000               0.000000000               0.000000000               0.000000000               0.000000000               0.000000000               0.000000000               0.000000000               0.000000000               0.000000000               0.000000000               0.000000000               0.000000000               0.000000000               0.000000000               0.000000000               0.000000000               0.000000000               0.000000000               0.000000000               0.000000000               0.000000000               0.000000000               0.000000000               0.000000000               0.000000000               0.000000000               0.000000000               0.000000000               0.000000000               0.000000000               0.000000000               0.000000000               0.000000000               0.000000000               0.000000000               0.000000000               0.000000000               0.000000000               0.000000000               0.000000000               0.000000000               0.000000000               0.000000000               0.000000000               0.000000000               0.000000000               0.000000000               0.000000000               0.000000000               0.000000000               0.000000000               0.000000000               0.000000000               0.000000000               0.000000000               0.000000000               0.000000000               0.000000000               0.000000000               0.000000000               0.000000000               0.000000000               0.000000000               0.000000000               0.000000000               0.000000000               0.000000000               0.000000000               0.000000000               0.000000000               0.000000000               0.000000000               0.000000000               0.000000000               0.000000000               0.000000000               0.000000000               0.000000000               0.000000000               0.000000000               0.000000000               0.000000000               0.000000000               0.000000000               0.000000000               0.000000000               0.000000000               0.000000000               0.000000000               0.000000000               0.000000000               0.000000000               0.000000000               0.000000000               0.000000000               0.000000000               0.000000000               0.000000000               0.000000000               0.000000000               0.000000000               0.000000000               0.000000000               0.000000000               0.000000000               0.000000000               0.000000000               0.000000000               0.000000000               0.000000000               0.000000000               0.000000000               0.000000000               0.000000000               0.000000000               0.000000000               0.000000000               0.000000000               0.000000000               0.000000000               0.000000000               0.000000000 </DataArray>
</PointData>
</Piece>
</UnstructuredGrid> </VTKFile>
