<?xml version="1.0"?>
<VTKFile type="UnstructuredGrid" version="0.1">
<UnstructuredGrid>
<Piece NumberOfPoints="      1156" NumberOfCells="      1024">
<Points>
<DataArray type="Float64"                                    Name="coordinates"                                                      NumberOfComponents=" 3" format="ascii">
              0.133000000               0.000000000               0.000000000               0.155937500               0.000000000               0.000000000               0.178875000               0.000000000               0.000000000               0.201812500               0.000000000               0.000000000               0.224750000               0.000000000               0.000000000               0.247687500               0.000000000               0.000000000               0.270625000               0.000000000               0.000000000               0.293562500               0.000000000               0.000000000               0.316500000               0.000000000               0.000000000               0.339437500               0.000000000               0.000000000               0.362375000               0.000000000               0.000000000               0.385312500               0.000000000               0.000000000               0.408250000               0.000000000               0.000000000               0.431187500               0.000000000               0.000000000               0.454125000               0.000000000               0.000000000               0.477062500               0.000000000               0.000000000               0.500000000               0.000000000               0.000000000               0.132359569               0.013036280               0.000000000               0.155337096               0.016127762               0.000000000               0.178314623               0.019219245               0.000000000               0.201292150               0.022310727               0.000000000               0.224269676               0.025402210               0.000000000               0.247247203               0.028493692               0.000000000               0.270224730               0.031585175               0.000000000               0.293202257               0.034676657               0.000000000               0.316179784               0.037768140               0.000000000               0.339157311               0.040859622               0.000000000               0.362134838               0.043951105               0.000000000               0.385112365               0.047042587               0.000000000               0.408089892               0.050134070               0.000000000               0.431067419               0.053225552               0.000000000               0.454044946               0.056317035               0.000000000               0.477022473               0.059408517               0.000000000               0.500000000               0.062500000               0.000000000               0.130444442               0.025947013               0.000000000               0.153541665               0.032137825               0.000000000               0.176638887               0.038328636               0.000000000               0.199736109               0.044519448               0.000000000               0.222833332               0.050710260               0.000000000               0.245930554               0.056901071               0.000000000               0.269027776               0.063091883               0.000000000               0.292124999               0.069282695               0.000000000               0.315222221               0.075473506               0.000000000               0.338319444               0.081664318               0.000000000               0.361416666               0.087855130               0.000000000               0.384513888               0.094045942               0.000000000               0.407611111               0.100236753               0.000000000               0.430708333               0.106427565               0.000000000               0.453805555               0.112618377               0.000000000               0.476902778               0.118809188               0.000000000               0.500000000               0.125000000               0.000000000               0.127273065               0.038607862               0.000000000               0.150568498               0.047913621               0.000000000               0.173863932               0.057219379               0.000000000               0.197159365               0.066525138               0.000000000               0.220454798               0.075830897               0.000000000               0.243750232               0.085136655               0.000000000               0.267045665               0.094442414               0.000000000               0.290341099               0.103748172               0.000000000               0.313636532               0.113053931               0.000000000               0.336931966               0.122359690               0.000000000               0.360227399               0.131665448               0.000000000               0.383522833               0.140971207               0.000000000               0.406818266               0.150276966               0.000000000               0.430113700               0.159582724               0.000000000               0.453409133               0.168888483               0.000000000               0.476704567               0.178194241               0.000000000               0.500000000               0.187500000               0.000000000               0.122875978               0.050896897               0.000000000               0.146446229               0.063340840               0.000000000               0.170016481               0.075784784               0.000000000               0.193586732               0.088228728               0.000000000               0.217156983               0.100672672               0.000000000               0.240727235               0.113116616               0.000000000               0.264297486               0.125560560               0.000000000               0.287867738               0.138004504               0.000000000               0.311437989               0.150448448               0.000000000               0.335008240               0.162892392               0.000000000               0.358578492               0.175336336               0.000000000               0.382148743               0.187780280               0.000000000               0.405718994               0.200224224               0.000000000               0.429289246               0.212668168               0.000000000               0.452859497               0.225112112               0.000000000               0.476429749               0.237556056               0.000000000               0.500000000               0.250000000               0.000000000               0.117295528               0.062695766               0.000000000               0.141214558               0.078308531               0.000000000               0.165133587               0.093921295               0.000000000               0.189052617               0.109534060               0.000000000               0.212971646               0.125146824               0.000000000               0.236890676               0.140759589               0.000000000               0.260809705               0.156372354               0.000000000               0.284728735               0.171985118               0.000000000               0.308647764               0.187597883               0.000000000               0.332566794               0.203210648               0.000000000               0.356485823               0.218823412               0.000000000               0.380404853               0.234436177               0.000000000               0.404323882               0.250048941               0.000000000               0.428242912               0.265661706               0.000000000               0.452161941               0.281274471               0.000000000               0.476080971               0.296887235               0.000000000               0.500000000               0.312500000               0.000000000               0.110585458               0.073890841               0.000000000               0.134923867               0.092710163               0.000000000               0.159262276               0.111529486               0.000000000               0.183600685               0.130348808               0.000000000               0.207939094               0.149168131               0.000000000               0.232277503               0.167987453               0.000000000               0.256615912               0.186806776               0.000000000               0.280954320               0.205626098               0.000000000               0.305292729               0.224445420               0.000000000               0.329631138               0.243264743               0.000000000               0.353969547               0.262084065               0.000000000               0.378307956               0.280903388               0.000000000               0.402646365               0.299722710               0.000000000               0.426984773               0.318542033               0.000000000               0.451323182               0.337361355               0.000000000               0.475661591               0.356180678               0.000000000               0.500000000               0.375000000               0.000000000               0.102810390               0.084374307               0.000000000               0.127634741               0.106444663               0.000000000               0.152459092               0.128515018               0.000000000               0.177283442               0.150585374               0.000000000               0.202107793               0.172655730               0.000000000               0.226932143               0.194726086               0.000000000               0.251756494               0.216796442               0.000000000               0.276580845               0.238866798               0.000000000               0.301405195               0.260937153               0.000000000               0.326229546               0.283007509               0.000000000               0.351053896               0.305077865               0.000000000               0.375878247               0.327148221               0.000000000               0.400702598               0.349218577               0.000000000               0.425526948               0.371288933               0.000000000               0.450351299               0.393359288               0.000000000               0.475175649               0.415429644               0.000000000               0.500000000               0.437500000               0.000000000               0.094045202               0.094045202               0.000000000               0.119417377               0.119417377               0.000000000               0.144789552               0.144789552               0.000000000               0.170161727               0.170161727               0.000000000               0.195533901               0.195533901               0.000000000               0.220906076               0.220906076               0.000000000               0.246278251               0.246278251               0.000000000               0.271650426               0.271650426               0.000000000               0.297022601               0.297022601               0.000000000               0.322394776               0.322394776               0.000000000               0.347766951               0.347766951               0.000000000               0.373139126               0.373139126               0.000000000               0.398511300               0.398511300               0.000000000               0.423883475               0.423883475               0.000000000               0.449255650               0.449255650               0.000000000               0.474627825               0.474627825               0.000000000               0.500000000               0.500000000               0.000000000               0.084374307               0.102810390               0.000000000               0.106444663               0.127634741               0.000000000               0.128515018               0.152459092               0.000000000               0.150585374               0.177283442               0.000000000               0.172655730               0.202107793               0.000000000               0.194726086               0.226932143               0.000000000               0.216796442               0.251756494               0.000000000               0.238866798               0.276580845               0.000000000               0.260937153               0.301405195               0.000000000               0.283007509               0.326229546               0.000000000               0.305077865               0.351053896               0.000000000               0.327148221               0.375878247               0.000000000               0.349218577               0.400702598               0.000000000               0.371288933               0.425526948               0.000000000               0.393359288               0.450351299               0.000000000               0.415429644               0.475175649               0.000000000               0.437500000               0.500000000               0.000000000               0.073890841               0.110585458               0.000000000               0.092710163               0.134923867               0.000000000               0.111529486               0.159262276               0.000000000               0.130348808               0.183600685               0.000000000               0.149168131               0.207939094               0.000000000               0.167987453               0.232277503               0.000000000               0.186806776               0.256615912               0.000000000               0.205626098               0.280954320               0.000000000               0.224445420               0.305292729               0.000000000               0.243264743               0.329631138               0.000000000               0.262084065               0.353969547               0.000000000               0.280903388               0.378307956               0.000000000               0.299722710               0.402646365               0.000000000               0.318542033               0.426984773               0.000000000               0.337361355               0.451323182               0.000000000               0.356180678               0.475661591               0.000000000               0.375000000               0.500000000               0.000000000               0.062695766               0.117295528               0.000000000               0.078308531               0.141214558               0.000000000               0.093921295               0.165133587               0.000000000               0.109534060               0.189052617               0.000000000               0.125146824               0.212971646               0.000000000               0.140759589               0.236890676               0.000000000               0.156372354               0.260809705               0.000000000               0.171985118               0.284728735               0.000000000               0.187597883               0.308647764               0.000000000               0.203210648               0.332566794               0.000000000               0.218823412               0.356485823               0.000000000               0.234436177               0.380404853               0.000000000               0.250048941               0.404323882               0.000000000               0.265661706               0.428242912               0.000000000               0.281274471               0.452161941               0.000000000               0.296887235               0.476080971               0.000000000               0.312500000               0.500000000               0.000000000               0.050896897               0.122875978               0.000000000               0.063340840               0.146446229               0.000000000               0.075784784               0.170016481               0.000000000               0.088228728               0.193586732               0.000000000               0.100672672               0.217156983               0.000000000               0.113116616               0.240727235               0.000000000               0.125560560               0.264297486               0.000000000               0.138004504               0.287867738               0.000000000               0.150448448               0.311437989               0.000000000               0.162892392               0.335008240               0.000000000               0.175336336               0.358578492               0.000000000               0.187780280               0.382148743               0.000000000               0.200224224               0.405718994               0.000000000               0.212668168               0.429289246               0.000000000               0.225112112               0.452859497               0.000000000               0.237556056               0.476429749               0.000000000               0.250000000               0.500000000               0.000000000               0.038607862               0.127273065               0.000000000               0.047913621               0.150568498               0.000000000               0.057219379               0.173863932               0.000000000               0.066525138               0.197159365               0.000000000               0.075830897               0.220454798               0.000000000               0.085136655               0.243750232               0.000000000               0.094442414               0.267045665               0.000000000               0.103748172               0.290341099               0.000000000               0.113053931               0.313636532               0.000000000               0.122359690               0.336931966               0.000000000               0.131665448               0.360227399               0.000000000               0.140971207               0.383522833               0.000000000               0.150276966               0.406818266               0.000000000               0.159582724               0.430113700               0.000000000               0.168888483               0.453409133               0.000000000               0.178194241               0.476704567               0.000000000               0.187500000               0.500000000               0.000000000               0.025947013               0.130444442               0.000000000               0.032137825               0.153541665               0.000000000               0.038328636               0.176638887               0.000000000               0.044519448               0.199736109               0.000000000               0.050710260               0.222833332               0.000000000               0.056901071               0.245930554               0.000000000               0.063091883               0.269027776               0.000000000               0.069282695               0.292124999               0.000000000               0.075473506               0.315222221               0.000000000               0.081664318               0.338319444               0.000000000               0.087855130               0.361416666               0.000000000               0.094045942               0.384513888               0.000000000               0.100236753               0.407611111               0.000000000               0.106427565               0.430708333               0.000000000               0.112618377               0.453805555               0.000000000               0.118809188               0.476902778               0.000000000               0.125000000               0.500000000               0.000000000               0.013036280               0.132359569               0.000000000               0.016127762               0.155337096               0.000000000               0.019219245               0.178314623               0.000000000               0.022310727               0.201292150               0.000000000               0.025402210               0.224269676               0.000000000               0.028493692               0.247247203               0.000000000               0.031585175               0.270224730               0.000000000               0.034676657               0.293202257               0.000000000               0.037768140               0.316179784               0.000000000               0.040859622               0.339157311               0.000000000               0.043951105               0.362134838               0.000000000               0.047042587               0.385112365               0.000000000               0.050134070               0.408089892               0.000000000               0.053225552               0.431067419               0.000000000               0.056317035               0.454044946               0.000000000               0.059408517               0.477022473               0.000000000               0.062500000               0.500000000               0.000000000               0.000000000               0.133000000               0.000000000               0.000000000               0.155937500               0.000000000               0.000000000               0.178875000               0.000000000               0.000000000               0.201812500               0.000000000               0.000000000               0.224750000               0.000000000               0.000000000               0.247687500               0.000000000               0.000000000               0.270625000               0.000000000               0.000000000               0.293562500               0.000000000               0.000000000               0.316500000               0.000000000               0.000000000               0.339437500               0.000000000               0.000000000               0.362375000               0.000000000               0.000000000               0.385312500               0.000000000               0.000000000               0.408250000               0.000000000               0.000000000               0.431187500               0.000000000               0.000000000               0.454125000               0.000000000               0.000000000               0.477062500               0.000000000               0.000000000               0.500000000               0.000000000               0.133000000               0.000000000               0.000000000               0.155937500               0.000000000               0.000000000               0.178875000               0.000000000               0.000000000               0.201812500               0.000000000               0.000000000               0.224750000               0.000000000               0.000000000               0.247687500               0.000000000               0.000000000               0.270625000               0.000000000               0.000000000               0.293562500               0.000000000               0.000000000               0.316500000               0.000000000               0.000000000               0.339437500               0.000000000               0.000000000               0.362375000               0.000000000               0.000000000               0.385312500               0.000000000               0.000000000               0.408250000               0.000000000               0.000000000               0.431187500               0.000000000               0.000000000               0.454125000               0.000000000               0.000000000               0.477062500               0.000000000               0.000000000               0.500000000               0.000000000               0.000000000               0.132359569              -0.013036280               0.000000000               0.155337096              -0.016127762               0.000000000               0.178314623              -0.019219245               0.000000000               0.201292150              -0.022310727               0.000000000               0.224269676              -0.025402210               0.000000000               0.247247203              -0.028493692               0.000000000               0.270224730              -0.031585175               0.000000000               0.293202257              -0.034676657               0.000000000               0.316179784              -0.037768140               0.000000000               0.339157311              -0.040859622               0.000000000               0.362134838              -0.043951105               0.000000000               0.385112365              -0.047042587               0.000000000               0.408089892              -0.050134070               0.000000000               0.431067419              -0.053225552               0.000000000               0.454044946              -0.056317035               0.000000000               0.477022473              -0.059408517               0.000000000               0.500000000              -0.062500000               0.000000000               0.130444442              -0.025947013               0.000000000               0.153541665              -0.032137825               0.000000000               0.176638887              -0.038328636               0.000000000               0.199736109              -0.044519448               0.000000000               0.222833332              -0.050710260               0.000000000               0.245930554              -0.056901071               0.000000000               0.269027776              -0.063091883               0.000000000               0.292124999              -0.069282695               0.000000000               0.315222221              -0.075473506               0.000000000               0.338319444              -0.081664318               0.000000000               0.361416666              -0.087855130               0.000000000               0.384513888              -0.094045942               0.000000000               0.407611111              -0.100236753               0.000000000               0.430708333              -0.106427565               0.000000000               0.453805555              -0.112618377               0.000000000               0.476902778              -0.118809188               0.000000000               0.500000000              -0.125000000               0.000000000               0.127273065              -0.038607862               0.000000000               0.150568498              -0.047913621               0.000000000               0.173863932              -0.057219379               0.000000000               0.197159365              -0.066525138               0.000000000               0.220454798              -0.075830897               0.000000000               0.243750232              -0.085136655               0.000000000               0.267045665              -0.094442414               0.000000000               0.290341099              -0.103748172               0.000000000               0.313636532              -0.113053931               0.000000000               0.336931966              -0.122359690               0.000000000               0.360227399              -0.131665448               0.000000000               0.383522833              -0.140971207               0.000000000               0.406818266              -0.150276966               0.000000000               0.430113700              -0.159582724               0.000000000               0.453409133              -0.168888483               0.000000000               0.476704567              -0.178194241               0.000000000               0.500000000              -0.187500000               0.000000000               0.122875978              -0.050896897               0.000000000               0.146446229              -0.063340840               0.000000000               0.170016481              -0.075784784               0.000000000               0.193586732              -0.088228728               0.000000000               0.217156983              -0.100672672               0.000000000               0.240727235              -0.113116616               0.000000000               0.264297486              -0.125560560               0.000000000               0.287867738              -0.138004504               0.000000000               0.311437989              -0.150448448               0.000000000               0.335008240              -0.162892392               0.000000000               0.358578492              -0.175336336               0.000000000               0.382148743              -0.187780280               0.000000000               0.405718994              -0.200224224               0.000000000               0.429289246              -0.212668168               0.000000000               0.452859497              -0.225112112               0.000000000               0.476429749              -0.237556056               0.000000000               0.500000000              -0.250000000               0.000000000               0.117295528              -0.062695766               0.000000000               0.141214558              -0.078308531               0.000000000               0.165133587              -0.093921295               0.000000000               0.189052617              -0.109534060               0.000000000               0.212971646              -0.125146824               0.000000000               0.236890676              -0.140759589               0.000000000               0.260809705              -0.156372354               0.000000000               0.284728735              -0.171985118               0.000000000               0.308647764              -0.187597883               0.000000000               0.332566794              -0.203210648               0.000000000               0.356485823              -0.218823412               0.000000000               0.380404853              -0.234436177               0.000000000               0.404323882              -0.250048941               0.000000000               0.428242912              -0.265661706               0.000000000               0.452161941              -0.281274471               0.000000000               0.476080971              -0.296887235               0.000000000               0.500000000              -0.312500000               0.000000000               0.110585458              -0.073890841               0.000000000               0.134923867              -0.092710163               0.000000000               0.159262276              -0.111529486               0.000000000               0.183600685              -0.130348808               0.000000000               0.207939094              -0.149168131               0.000000000               0.232277503              -0.167987453               0.000000000               0.256615912              -0.186806776               0.000000000               0.280954320              -0.205626098               0.000000000               0.305292729              -0.224445420               0.000000000               0.329631138              -0.243264743               0.000000000               0.353969547              -0.262084065               0.000000000               0.378307956              -0.280903388               0.000000000               0.402646365              -0.299722710               0.000000000               0.426984773              -0.318542033               0.000000000               0.451323182              -0.337361355               0.000000000               0.475661591              -0.356180678               0.000000000               0.500000000              -0.375000000               0.000000000               0.102810390              -0.084374307               0.000000000               0.127634741              -0.106444663               0.000000000               0.152459092              -0.128515018               0.000000000               0.177283442              -0.150585374               0.000000000               0.202107793              -0.172655730               0.000000000               0.226932143              -0.194726086               0.000000000               0.251756494              -0.216796442               0.000000000               0.276580845              -0.238866798               0.000000000               0.301405195              -0.260937153               0.000000000               0.326229546              -0.283007509               0.000000000               0.351053896              -0.305077865               0.000000000               0.375878247              -0.327148221               0.000000000               0.400702598              -0.349218577               0.000000000               0.425526948              -0.371288933               0.000000000               0.450351299              -0.393359288               0.000000000               0.475175649              -0.415429644               0.000000000               0.500000000              -0.437500000               0.000000000               0.094045202              -0.094045202               0.000000000               0.119417377              -0.119417377               0.000000000               0.144789552              -0.144789552               0.000000000               0.170161727              -0.170161727               0.000000000               0.195533901              -0.195533901               0.000000000               0.220906076              -0.220906076               0.000000000               0.246278251              -0.246278251               0.000000000               0.271650426              -0.271650426               0.000000000               0.297022601              -0.297022601               0.000000000               0.322394776              -0.322394776               0.000000000               0.347766951              -0.347766951               0.000000000               0.373139126              -0.373139126               0.000000000               0.398511300              -0.398511300               0.000000000               0.423883475              -0.423883475               0.000000000               0.449255650              -0.449255650               0.000000000               0.474627825              -0.474627825               0.000000000               0.500000000              -0.500000000               0.000000000               0.084374307              -0.102810390               0.000000000               0.106444663              -0.127634741               0.000000000               0.128515018              -0.152459092               0.000000000               0.150585374              -0.177283442               0.000000000               0.172655730              -0.202107793               0.000000000               0.194726086              -0.226932143               0.000000000               0.216796442              -0.251756494               0.000000000               0.238866798              -0.276580845               0.000000000               0.260937153              -0.301405195               0.000000000               0.283007509              -0.326229546               0.000000000               0.305077865              -0.351053896               0.000000000               0.327148221              -0.375878247               0.000000000               0.349218577              -0.400702598               0.000000000               0.371288933              -0.425526948               0.000000000               0.393359288              -0.450351299               0.000000000               0.415429644              -0.475175649               0.000000000               0.437500000              -0.500000000               0.000000000               0.073890841              -0.110585458               0.000000000               0.092710163              -0.134923867               0.000000000               0.111529486              -0.159262276               0.000000000               0.130348808              -0.183600685               0.000000000               0.149168131              -0.207939094               0.000000000               0.167987453              -0.232277503               0.000000000               0.186806776              -0.256615912               0.000000000               0.205626098              -0.280954320               0.000000000               0.224445420              -0.305292729               0.000000000               0.243264743              -0.329631138               0.000000000               0.262084065              -0.353969547               0.000000000               0.280903388              -0.378307956               0.000000000               0.299722710              -0.402646365               0.000000000               0.318542033              -0.426984773               0.000000000               0.337361355              -0.451323182               0.000000000               0.356180678              -0.475661591               0.000000000               0.375000000              -0.500000000               0.000000000               0.062695766              -0.117295528               0.000000000               0.078308531              -0.141214558               0.000000000               0.093921295              -0.165133587               0.000000000               0.109534060              -0.189052617               0.000000000               0.125146824              -0.212971646               0.000000000               0.140759589              -0.236890676               0.000000000               0.156372354              -0.260809705               0.000000000               0.171985118              -0.284728735               0.000000000               0.187597883              -0.308647764               0.000000000               0.203210648              -0.332566794               0.000000000               0.218823412              -0.356485823               0.000000000               0.234436177              -0.380404853               0.000000000               0.250048941              -0.404323882               0.000000000               0.265661706              -0.428242912               0.000000000               0.281274471              -0.452161941               0.000000000               0.296887235              -0.476080971               0.000000000               0.312500000              -0.500000000               0.000000000               0.050896897              -0.122875978               0.000000000               0.063340840              -0.146446229               0.000000000               0.075784784              -0.170016481               0.000000000               0.088228728              -0.193586732               0.000000000               0.100672672              -0.217156983               0.000000000               0.113116616              -0.240727235               0.000000000               0.125560560              -0.264297486               0.000000000               0.138004504              -0.287867738               0.000000000               0.150448448              -0.311437989               0.000000000               0.162892392              -0.335008240               0.000000000               0.175336336              -0.358578492               0.000000000               0.187780280              -0.382148743               0.000000000               0.200224224              -0.405718994               0.000000000               0.212668168              -0.429289246               0.000000000               0.225112112              -0.452859497               0.000000000               0.237556056              -0.476429749               0.000000000               0.250000000              -0.500000000               0.000000000               0.038607862              -0.127273065               0.000000000               0.047913621              -0.150568498               0.000000000               0.057219379              -0.173863932               0.000000000               0.066525138              -0.197159365               0.000000000               0.075830897              -0.220454798               0.000000000               0.085136655              -0.243750232               0.000000000               0.094442414              -0.267045665               0.000000000               0.103748172              -0.290341099               0.000000000               0.113053931              -0.313636532               0.000000000               0.122359690              -0.336931966               0.000000000               0.131665448              -0.360227399               0.000000000               0.140971207              -0.383522833               0.000000000               0.150276966              -0.406818266               0.000000000               0.159582724              -0.430113700               0.000000000               0.168888483              -0.453409133               0.000000000               0.178194241              -0.476704567               0.000000000               0.187500000              -0.500000000               0.000000000               0.025947013              -0.130444442               0.000000000               0.032137825              -0.153541665               0.000000000               0.038328636              -0.176638887               0.000000000               0.044519448              -0.199736109               0.000000000               0.050710260              -0.222833332               0.000000000               0.056901071              -0.245930554               0.000000000               0.063091883              -0.269027776               0.000000000               0.069282695              -0.292124999               0.000000000               0.075473506              -0.315222221               0.000000000               0.081664318              -0.338319444               0.000000000               0.087855130              -0.361416666               0.000000000               0.094045942              -0.384513888               0.000000000               0.100236753              -0.407611111               0.000000000               0.106427565              -0.430708333               0.000000000               0.112618377              -0.453805555               0.000000000               0.118809188              -0.476902778               0.000000000               0.125000000              -0.500000000               0.000000000               0.013036280              -0.132359569               0.000000000               0.016127762              -0.155337096               0.000000000               0.019219245              -0.178314623               0.000000000               0.022310727              -0.201292150               0.000000000               0.025402210              -0.224269676               0.000000000               0.028493692              -0.247247203               0.000000000               0.031585175              -0.270224730               0.000000000               0.034676657              -0.293202257               0.000000000               0.037768140              -0.316179784               0.000000000               0.040859622              -0.339157311               0.000000000               0.043951105              -0.362134838               0.000000000               0.047042587              -0.385112365               0.000000000               0.050134070              -0.408089892               0.000000000               0.053225552              -0.431067419               0.000000000               0.056317035              -0.454044946               0.000000000               0.059408517              -0.477022473               0.000000000               0.062500000              -0.500000000               0.000000000               0.000000000              -0.133000000               0.000000000               0.000000000              -0.155937500               0.000000000               0.000000000              -0.178875000               0.000000000               0.000000000              -0.201812500               0.000000000               0.000000000              -0.224750000               0.000000000               0.000000000              -0.247687500               0.000000000               0.000000000              -0.270625000               0.000000000               0.000000000              -0.293562500               0.000000000               0.000000000              -0.316500000               0.000000000               0.000000000              -0.339437500               0.000000000               0.000000000              -0.362375000               0.000000000               0.000000000              -0.385312500               0.000000000               0.000000000              -0.408250000               0.000000000               0.000000000              -0.431187500               0.000000000               0.000000000              -0.454125000               0.000000000               0.000000000              -0.477062500               0.000000000               0.000000000              -0.500000000               0.000000000              -0.133000000               0.000000000               0.000000000              -0.155937500               0.000000000               0.000000000              -0.178875000               0.000000000               0.000000000              -0.201812500               0.000000000               0.000000000              -0.224750000               0.000000000               0.000000000              -0.247687500               0.000000000               0.000000000              -0.270625000               0.000000000               0.000000000              -0.293562500               0.000000000               0.000000000              -0.316500000               0.000000000               0.000000000              -0.339437500               0.000000000               0.000000000              -0.362375000               0.000000000               0.000000000              -0.385312500               0.000000000               0.000000000              -0.408250000               0.000000000               0.000000000              -0.431187500               0.000000000               0.000000000              -0.454125000               0.000000000               0.000000000              -0.477062500               0.000000000               0.000000000              -0.500000000               0.000000000               0.000000000              -0.132359569              -0.013036280               0.000000000              -0.155337096              -0.016127762               0.000000000              -0.178314623              -0.019219245               0.000000000              -0.201292150              -0.022310727               0.000000000              -0.224269676              -0.025402210               0.000000000              -0.247247203              -0.028493692               0.000000000              -0.270224730              -0.031585175               0.000000000              -0.293202257              -0.034676657               0.000000000              -0.316179784              -0.037768140               0.000000000              -0.339157311              -0.040859622               0.000000000              -0.362134838              -0.043951105               0.000000000              -0.385112365              -0.047042587               0.000000000              -0.408089892              -0.050134070               0.000000000              -0.431067419              -0.053225552               0.000000000              -0.454044946              -0.056317035               0.000000000              -0.477022473              -0.059408517               0.000000000              -0.500000000              -0.062500000               0.000000000              -0.130444442              -0.025947013               0.000000000              -0.153541665              -0.032137825               0.000000000              -0.176638887              -0.038328636               0.000000000              -0.199736109              -0.044519448               0.000000000              -0.222833332              -0.050710260               0.000000000              -0.245930554              -0.056901071               0.000000000              -0.269027776              -0.063091883               0.000000000              -0.292124999              -0.069282695               0.000000000              -0.315222221              -0.075473506               0.000000000              -0.338319444              -0.081664318               0.000000000              -0.361416666              -0.087855130               0.000000000              -0.384513888              -0.094045942               0.000000000              -0.407611111              -0.100236753               0.000000000              -0.430708333              -0.106427565               0.000000000              -0.453805555              -0.112618377               0.000000000              -0.476902778              -0.118809188               0.000000000              -0.500000000              -0.125000000               0.000000000              -0.127273065              -0.038607862               0.000000000              -0.150568498              -0.047913621               0.000000000              -0.173863932              -0.057219379               0.000000000              -0.197159365              -0.066525138               0.000000000              -0.220454798              -0.075830897               0.000000000              -0.243750232              -0.085136655               0.000000000              -0.267045665              -0.094442414               0.000000000              -0.290341099              -0.103748172               0.000000000              -0.313636532              -0.113053931               0.000000000              -0.336931966              -0.122359690               0.000000000              -0.360227399              -0.131665448               0.000000000              -0.383522833              -0.140971207               0.000000000              -0.406818266              -0.150276966               0.000000000              -0.430113700              -0.159582724               0.000000000              -0.453409133              -0.168888483               0.000000000              -0.476704567              -0.178194241               0.000000000              -0.500000000              -0.187500000               0.000000000              -0.122875978              -0.050896897               0.000000000              -0.146446229              -0.063340840               0.000000000              -0.170016481              -0.075784784               0.000000000              -0.193586732              -0.088228728               0.000000000              -0.217156983              -0.100672672               0.000000000              -0.240727235              -0.113116616               0.000000000              -0.264297486              -0.125560560               0.000000000              -0.287867738              -0.138004504               0.000000000              -0.311437989              -0.150448448               0.000000000              -0.335008240              -0.162892392               0.000000000              -0.358578492              -0.175336336               0.000000000              -0.382148743              -0.187780280               0.000000000              -0.405718994              -0.200224224               0.000000000              -0.429289246              -0.212668168               0.000000000              -0.452859497              -0.225112112               0.000000000              -0.476429749              -0.237556056               0.000000000              -0.500000000              -0.250000000               0.000000000              -0.117295528              -0.062695766               0.000000000              -0.141214558              -0.078308531               0.000000000              -0.165133587              -0.093921295               0.000000000              -0.189052617              -0.109534060               0.000000000              -0.212971646              -0.125146824               0.000000000              -0.236890676              -0.140759589               0.000000000              -0.260809705              -0.156372354               0.000000000              -0.284728735              -0.171985118               0.000000000              -0.308647764              -0.187597883               0.000000000              -0.332566794              -0.203210648               0.000000000              -0.356485823              -0.218823412               0.000000000              -0.380404853              -0.234436177               0.000000000              -0.404323882              -0.250048941               0.000000000              -0.428242912              -0.265661706               0.000000000              -0.452161941              -0.281274471               0.000000000              -0.476080971              -0.296887235               0.000000000              -0.500000000              -0.312500000               0.000000000              -0.110585458              -0.073890841               0.000000000              -0.134923867              -0.092710163               0.000000000              -0.159262276              -0.111529486               0.000000000              -0.183600685              -0.130348808               0.000000000              -0.207939094              -0.149168131               0.000000000              -0.232277503              -0.167987453               0.000000000              -0.256615912              -0.186806776               0.000000000              -0.280954320              -0.205626098               0.000000000              -0.305292729              -0.224445420               0.000000000              -0.329631138              -0.243264743               0.000000000              -0.353969547              -0.262084065               0.000000000              -0.378307956              -0.280903388               0.000000000              -0.402646365              -0.299722710               0.000000000              -0.426984773              -0.318542033               0.000000000              -0.451323182              -0.337361355               0.000000000              -0.475661591              -0.356180678               0.000000000              -0.500000000              -0.375000000               0.000000000              -0.102810390              -0.084374307               0.000000000              -0.127634741              -0.106444663               0.000000000              -0.152459092              -0.128515018               0.000000000              -0.177283442              -0.150585374               0.000000000              -0.202107793              -0.172655730               0.000000000              -0.226932143              -0.194726086               0.000000000              -0.251756494              -0.216796442               0.000000000              -0.276580845              -0.238866798               0.000000000              -0.301405195              -0.260937153               0.000000000              -0.326229546              -0.283007509               0.000000000              -0.351053896              -0.305077865               0.000000000              -0.375878247              -0.327148221               0.000000000              -0.400702598              -0.349218577               0.000000000              -0.425526948              -0.371288933               0.000000000              -0.450351299              -0.393359288               0.000000000              -0.475175649              -0.415429644               0.000000000              -0.500000000              -0.437500000               0.000000000              -0.094045202              -0.094045202               0.000000000              -0.119417377              -0.119417377               0.000000000              -0.144789552              -0.144789552               0.000000000              -0.170161727              -0.170161727               0.000000000              -0.195533901              -0.195533901               0.000000000              -0.220906076              -0.220906076               0.000000000              -0.246278251              -0.246278251               0.000000000              -0.271650426              -0.271650426               0.000000000              -0.297022601              -0.297022601               0.000000000              -0.322394776              -0.322394776               0.000000000              -0.347766951              -0.347766951               0.000000000              -0.373139126              -0.373139126               0.000000000              -0.398511300              -0.398511300               0.000000000              -0.423883475              -0.423883475               0.000000000              -0.449255650              -0.449255650               0.000000000              -0.474627825              -0.474627825               0.000000000              -0.500000000              -0.500000000               0.000000000              -0.084374307              -0.102810390               0.000000000              -0.106444663              -0.127634741               0.000000000              -0.128515018              -0.152459092               0.000000000              -0.150585374              -0.177283442               0.000000000              -0.172655730              -0.202107793               0.000000000              -0.194726086              -0.226932143               0.000000000              -0.216796442              -0.251756494               0.000000000              -0.238866798              -0.276580845               0.000000000              -0.260937153              -0.301405195               0.000000000              -0.283007509              -0.326229546               0.000000000              -0.305077865              -0.351053896               0.000000000              -0.327148221              -0.375878247               0.000000000              -0.349218577              -0.400702598               0.000000000              -0.371288933              -0.425526948               0.000000000              -0.393359288              -0.450351299               0.000000000              -0.415429644              -0.475175649               0.000000000              -0.437500000              -0.500000000               0.000000000              -0.073890841              -0.110585458               0.000000000              -0.092710163              -0.134923867               0.000000000              -0.111529486              -0.159262276               0.000000000              -0.130348808              -0.183600685               0.000000000              -0.149168131              -0.207939094               0.000000000              -0.167987453              -0.232277503               0.000000000              -0.186806776              -0.256615912               0.000000000              -0.205626098              -0.280954320               0.000000000              -0.224445420              -0.305292729               0.000000000              -0.243264743              -0.329631138               0.000000000              -0.262084065              -0.353969547               0.000000000              -0.280903388              -0.378307956               0.000000000              -0.299722710              -0.402646365               0.000000000              -0.318542033              -0.426984773               0.000000000              -0.337361355              -0.451323182               0.000000000              -0.356180678              -0.475661591               0.000000000              -0.375000000              -0.500000000               0.000000000              -0.062695766              -0.117295528               0.000000000              -0.078308531              -0.141214558               0.000000000              -0.093921295              -0.165133587               0.000000000              -0.109534060              -0.189052617               0.000000000              -0.125146824              -0.212971646               0.000000000              -0.140759589              -0.236890676               0.000000000              -0.156372354              -0.260809705               0.000000000              -0.171985118              -0.284728735               0.000000000              -0.187597883              -0.308647764               0.000000000              -0.203210648              -0.332566794               0.000000000              -0.218823412              -0.356485823               0.000000000              -0.234436177              -0.380404853               0.000000000              -0.250048941              -0.404323882               0.000000000              -0.265661706              -0.428242912               0.000000000              -0.281274471              -0.452161941               0.000000000              -0.296887235              -0.476080971               0.000000000              -0.312500000              -0.500000000               0.000000000              -0.050896897              -0.122875978               0.000000000              -0.063340840              -0.146446229               0.000000000              -0.075784784              -0.170016481               0.000000000              -0.088228728              -0.193586732               0.000000000              -0.100672672              -0.217156983               0.000000000              -0.113116616              -0.240727235               0.000000000              -0.125560560              -0.264297486               0.000000000              -0.138004504              -0.287867738               0.000000000              -0.150448448              -0.311437989               0.000000000              -0.162892392              -0.335008240               0.000000000              -0.175336336              -0.358578492               0.000000000              -0.187780280              -0.382148743               0.000000000              -0.200224224              -0.405718994               0.000000000              -0.212668168              -0.429289246               0.000000000              -0.225112112              -0.452859497               0.000000000              -0.237556056              -0.476429749               0.000000000              -0.250000000              -0.500000000               0.000000000              -0.038607862              -0.127273065               0.000000000              -0.047913621              -0.150568498               0.000000000              -0.057219379              -0.173863932               0.000000000              -0.066525138              -0.197159365               0.000000000              -0.075830897              -0.220454798               0.000000000              -0.085136655              -0.243750232               0.000000000              -0.094442414              -0.267045665               0.000000000              -0.103748172              -0.290341099               0.000000000              -0.113053931              -0.313636532               0.000000000              -0.122359690              -0.336931966               0.000000000              -0.131665448              -0.360227399               0.000000000              -0.140971207              -0.383522833               0.000000000              -0.150276966              -0.406818266               0.000000000              -0.159582724              -0.430113700               0.000000000              -0.168888483              -0.453409133               0.000000000              -0.178194241              -0.476704567               0.000000000              -0.187500000              -0.500000000               0.000000000              -0.025947013              -0.130444442               0.000000000              -0.032137825              -0.153541665               0.000000000              -0.038328636              -0.176638887               0.000000000              -0.044519448              -0.199736109               0.000000000              -0.050710260              -0.222833332               0.000000000              -0.056901071              -0.245930554               0.000000000              -0.063091883              -0.269027776               0.000000000              -0.069282695              -0.292124999               0.000000000              -0.075473506              -0.315222221               0.000000000              -0.081664318              -0.338319444               0.000000000              -0.087855130              -0.361416666               0.000000000              -0.094045942              -0.384513888               0.000000000              -0.100236753              -0.407611111               0.000000000              -0.106427565              -0.430708333               0.000000000              -0.112618377              -0.453805555               0.000000000              -0.118809188              -0.476902778               0.000000000              -0.125000000              -0.500000000               0.000000000              -0.013036280              -0.132359569               0.000000000              -0.016127762              -0.155337096               0.000000000              -0.019219245              -0.178314623               0.000000000              -0.022310727              -0.201292150               0.000000000              -0.025402210              -0.224269676               0.000000000              -0.028493692              -0.247247203               0.000000000              -0.031585175              -0.270224730               0.000000000              -0.034676657              -0.293202257               0.000000000              -0.037768140              -0.316179784               0.000000000              -0.040859622              -0.339157311               0.000000000              -0.043951105              -0.362134838               0.000000000              -0.047042587              -0.385112365               0.000000000              -0.050134070              -0.408089892               0.000000000              -0.053225552              -0.431067419               0.000000000              -0.056317035              -0.454044946               0.000000000              -0.059408517              -0.477022473               0.000000000              -0.062500000              -0.500000000               0.000000000               0.000000000              -0.133000000               0.000000000               0.000000000              -0.155937500               0.000000000               0.000000000              -0.178875000               0.000000000               0.000000000              -0.201812500               0.000000000               0.000000000              -0.224750000               0.000000000               0.000000000              -0.247687500               0.000000000               0.000000000              -0.270625000               0.000000000               0.000000000              -0.293562500               0.000000000               0.000000000              -0.316500000               0.000000000               0.000000000              -0.339437500               0.000000000               0.000000000              -0.362375000               0.000000000               0.000000000              -0.385312500               0.000000000               0.000000000              -0.408250000               0.000000000               0.000000000              -0.431187500               0.000000000               0.000000000              -0.454125000               0.000000000               0.000000000              -0.477062500               0.000000000               0.000000000              -0.500000000               0.000000000              -0.133000000               0.000000000               0.000000000              -0.155937500               0.000000000               0.000000000              -0.178875000               0.000000000               0.000000000              -0.201812500               0.000000000               0.000000000              -0.224750000               0.000000000               0.000000000              -0.247687500               0.000000000               0.000000000              -0.270625000               0.000000000               0.000000000              -0.293562500               0.000000000               0.000000000              -0.316500000               0.000000000               0.000000000              -0.339437500               0.000000000               0.000000000              -0.362375000               0.000000000               0.000000000              -0.385312500               0.000000000               0.000000000              -0.408250000               0.000000000               0.000000000              -0.431187500               0.000000000               0.000000000              -0.454125000               0.000000000               0.000000000              -0.477062500               0.000000000               0.000000000              -0.500000000               0.000000000               0.000000000              -0.132359569               0.013036280               0.000000000              -0.155337096               0.016127762               0.000000000              -0.178314623               0.019219245               0.000000000              -0.201292150               0.022310727               0.000000000              -0.224269676               0.025402210               0.000000000              -0.247247203               0.028493692               0.000000000              -0.270224730               0.031585175               0.000000000              -0.293202257               0.034676657               0.000000000              -0.316179784               0.037768140               0.000000000              -0.339157311               0.040859622               0.000000000              -0.362134838               0.043951105               0.000000000              -0.385112365               0.047042587               0.000000000              -0.408089892               0.050134070               0.000000000              -0.431067419               0.053225552               0.000000000              -0.454044946               0.056317035               0.000000000              -0.477022473               0.059408517               0.000000000              -0.500000000               0.062500000               0.000000000              -0.130444442               0.025947013               0.000000000              -0.153541665               0.032137825               0.000000000              -0.176638887               0.038328636               0.000000000              -0.199736109               0.044519448               0.000000000              -0.222833332               0.050710260               0.000000000              -0.245930554               0.056901071               0.000000000              -0.269027776               0.063091883               0.000000000              -0.292124999               0.069282695               0.000000000              -0.315222221               0.075473506               0.000000000              -0.338319444               0.081664318               0.000000000              -0.361416666               0.087855130               0.000000000              -0.384513888               0.094045942               0.000000000              -0.407611111               0.100236753               0.000000000              -0.430708333               0.106427565               0.000000000              -0.453805555               0.112618377               0.000000000              -0.476902778               0.118809188               0.000000000              -0.500000000               0.125000000               0.000000000              -0.127273065               0.038607862               0.000000000              -0.150568498               0.047913621               0.000000000              -0.173863932               0.057219379               0.000000000              -0.197159365               0.066525138               0.000000000              -0.220454798               0.075830897               0.000000000              -0.243750232               0.085136655               0.000000000              -0.267045665               0.094442414               0.000000000              -0.290341099               0.103748172               0.000000000              -0.313636532               0.113053931               0.000000000              -0.336931966               0.122359690               0.000000000              -0.360227399               0.131665448               0.000000000              -0.383522833               0.140971207               0.000000000              -0.406818266               0.150276966               0.000000000              -0.430113700               0.159582724               0.000000000              -0.453409133               0.168888483               0.000000000              -0.476704567               0.178194241               0.000000000              -0.500000000               0.187500000               0.000000000              -0.122875978               0.050896897               0.000000000              -0.146446229               0.063340840               0.000000000              -0.170016481               0.075784784               0.000000000              -0.193586732               0.088228728               0.000000000              -0.217156983               0.100672672               0.000000000              -0.240727235               0.113116616               0.000000000              -0.264297486               0.125560560               0.000000000              -0.287867738               0.138004504               0.000000000              -0.311437989               0.150448448               0.000000000              -0.335008240               0.162892392               0.000000000              -0.358578492               0.175336336               0.000000000              -0.382148743               0.187780280               0.000000000              -0.405718994               0.200224224               0.000000000              -0.429289246               0.212668168               0.000000000              -0.452859497               0.225112112               0.000000000              -0.476429749               0.237556056               0.000000000              -0.500000000               0.250000000               0.000000000              -0.117295528               0.062695766               0.000000000              -0.141214558               0.078308531               0.000000000              -0.165133587               0.093921295               0.000000000              -0.189052617               0.109534060               0.000000000              -0.212971646               0.125146824               0.000000000              -0.236890676               0.140759589               0.000000000              -0.260809705               0.156372354               0.000000000              -0.284728735               0.171985118               0.000000000              -0.308647764               0.187597883               0.000000000              -0.332566794               0.203210648               0.000000000              -0.356485823               0.218823412               0.000000000              -0.380404853               0.234436177               0.000000000              -0.404323882               0.250048941               0.000000000              -0.428242912               0.265661706               0.000000000              -0.452161941               0.281274471               0.000000000              -0.476080971               0.296887235               0.000000000              -0.500000000               0.312500000               0.000000000              -0.110585458               0.073890841               0.000000000              -0.134923867               0.092710163               0.000000000              -0.159262276               0.111529486               0.000000000              -0.183600685               0.130348808               0.000000000              -0.207939094               0.149168131               0.000000000              -0.232277503               0.167987453               0.000000000              -0.256615912               0.186806776               0.000000000              -0.280954320               0.205626098               0.000000000              -0.305292729               0.224445420               0.000000000              -0.329631138               0.243264743               0.000000000              -0.353969547               0.262084065               0.000000000              -0.378307956               0.280903388               0.000000000              -0.402646365               0.299722710               0.000000000              -0.426984773               0.318542033               0.000000000              -0.451323182               0.337361355               0.000000000              -0.475661591               0.356180678               0.000000000              -0.500000000               0.375000000               0.000000000              -0.102810390               0.084374307               0.000000000              -0.127634741               0.106444663               0.000000000              -0.152459092               0.128515018               0.000000000              -0.177283442               0.150585374               0.000000000              -0.202107793               0.172655730               0.000000000              -0.226932143               0.194726086               0.000000000              -0.251756494               0.216796442               0.000000000              -0.276580845               0.238866798               0.000000000              -0.301405195               0.260937153               0.000000000              -0.326229546               0.283007509               0.000000000              -0.351053896               0.305077865               0.000000000              -0.375878247               0.327148221               0.000000000              -0.400702598               0.349218577               0.000000000              -0.425526948               0.371288933               0.000000000              -0.450351299               0.393359288               0.000000000              -0.475175649               0.415429644               0.000000000              -0.500000000               0.437500000               0.000000000              -0.094045202               0.094045202               0.000000000              -0.119417377               0.119417377               0.000000000              -0.144789552               0.144789552               0.000000000              -0.170161727               0.170161727               0.000000000              -0.195533901               0.195533901               0.000000000              -0.220906076               0.220906076               0.000000000              -0.246278251               0.246278251               0.000000000              -0.271650426               0.271650426               0.000000000              -0.297022601               0.297022601               0.000000000              -0.322394776               0.322394776               0.000000000              -0.347766951               0.347766951               0.000000000              -0.373139126               0.373139126               0.000000000              -0.398511300               0.398511300               0.000000000              -0.423883475               0.423883475               0.000000000              -0.449255650               0.449255650               0.000000000              -0.474627825               0.474627825               0.000000000              -0.500000000               0.500000000               0.000000000              -0.084374307               0.102810390               0.000000000              -0.106444663               0.127634741               0.000000000              -0.128515018               0.152459092               0.000000000              -0.150585374               0.177283442               0.000000000              -0.172655730               0.202107793               0.000000000              -0.194726086               0.226932143               0.000000000              -0.216796442               0.251756494               0.000000000              -0.238866798               0.276580845               0.000000000              -0.260937153               0.301405195               0.000000000              -0.283007509               0.326229546               0.000000000              -0.305077865               0.351053896               0.000000000              -0.327148221               0.375878247               0.000000000              -0.349218577               0.400702598               0.000000000              -0.371288933               0.425526948               0.000000000              -0.393359288               0.450351299               0.000000000              -0.415429644               0.475175649               0.000000000              -0.437500000               0.500000000               0.000000000              -0.073890841               0.110585458               0.000000000              -0.092710163               0.134923867               0.000000000              -0.111529486               0.159262276               0.000000000              -0.130348808               0.183600685               0.000000000              -0.149168131               0.207939094               0.000000000              -0.167987453               0.232277503               0.000000000              -0.186806776               0.256615912               0.000000000              -0.205626098               0.280954320               0.000000000              -0.224445420               0.305292729               0.000000000              -0.243264743               0.329631138               0.000000000              -0.262084065               0.353969547               0.000000000              -0.280903388               0.378307956               0.000000000              -0.299722710               0.402646365               0.000000000              -0.318542033               0.426984773               0.000000000              -0.337361355               0.451323182               0.000000000              -0.356180678               0.475661591               0.000000000              -0.375000000               0.500000000               0.000000000              -0.062695766               0.117295528               0.000000000              -0.078308531               0.141214558               0.000000000              -0.093921295               0.165133587               0.000000000              -0.109534060               0.189052617               0.000000000              -0.125146824               0.212971646               0.000000000              -0.140759589               0.236890676               0.000000000              -0.156372354               0.260809705               0.000000000              -0.171985118               0.284728735               0.000000000              -0.187597883               0.308647764               0.000000000              -0.203210648               0.332566794               0.000000000              -0.218823412               0.356485823               0.000000000              -0.234436177               0.380404853               0.000000000              -0.250048941               0.404323882               0.000000000              -0.265661706               0.428242912               0.000000000              -0.281274471               0.452161941               0.000000000              -0.296887235               0.476080971               0.000000000              -0.312500000               0.500000000               0.000000000              -0.050896897               0.122875978               0.000000000              -0.063340840               0.146446229               0.000000000              -0.075784784               0.170016481               0.000000000              -0.088228728               0.193586732               0.000000000              -0.100672672               0.217156983               0.000000000              -0.113116616               0.240727235               0.000000000              -0.125560560               0.264297486               0.000000000              -0.138004504               0.287867738               0.000000000              -0.150448448               0.311437989               0.000000000              -0.162892392               0.335008240               0.000000000              -0.175336336               0.358578492               0.000000000              -0.187780280               0.382148743               0.000000000              -0.200224224               0.405718994               0.000000000              -0.212668168               0.429289246               0.000000000              -0.225112112               0.452859497               0.000000000              -0.237556056               0.476429749               0.000000000              -0.250000000               0.500000000               0.000000000              -0.038607862               0.127273065               0.000000000              -0.047913621               0.150568498               0.000000000              -0.057219379               0.173863932               0.000000000              -0.066525138               0.197159365               0.000000000              -0.075830897               0.220454798               0.000000000              -0.085136655               0.243750232               0.000000000              -0.094442414               0.267045665               0.000000000              -0.103748172               0.290341099               0.000000000              -0.113053931               0.313636532               0.000000000              -0.122359690               0.336931966               0.000000000              -0.131665448               0.360227399               0.000000000              -0.140971207               0.383522833               0.000000000              -0.150276966               0.406818266               0.000000000              -0.159582724               0.430113700               0.000000000              -0.168888483               0.453409133               0.000000000              -0.178194241               0.476704567               0.000000000              -0.187500000               0.500000000               0.000000000              -0.025947013               0.130444442               0.000000000              -0.032137825               0.153541665               0.000000000              -0.038328636               0.176638887               0.000000000              -0.044519448               0.199736109               0.000000000              -0.050710260               0.222833332               0.000000000              -0.056901071               0.245930554               0.000000000              -0.063091883               0.269027776               0.000000000              -0.069282695               0.292124999               0.000000000              -0.075473506               0.315222221               0.000000000              -0.081664318               0.338319444               0.000000000              -0.087855130               0.361416666               0.000000000              -0.094045942               0.384513888               0.000000000              -0.100236753               0.407611111               0.000000000              -0.106427565               0.430708333               0.000000000              -0.112618377               0.453805555               0.000000000              -0.118809188               0.476902778               0.000000000              -0.125000000               0.500000000               0.000000000              -0.013036280               0.132359569               0.000000000              -0.016127762               0.155337096               0.000000000              -0.019219245               0.178314623               0.000000000              -0.022310727               0.201292150               0.000000000              -0.025402210               0.224269676               0.000000000              -0.028493692               0.247247203               0.000000000              -0.031585175               0.270224730               0.000000000              -0.034676657               0.293202257               0.000000000              -0.037768140               0.316179784               0.000000000              -0.040859622               0.339157311               0.000000000              -0.043951105               0.362134838               0.000000000              -0.047042587               0.385112365               0.000000000              -0.050134070               0.408089892               0.000000000              -0.053225552               0.431067419               0.000000000              -0.056317035               0.454044946               0.000000000              -0.059408517               0.477022473               0.000000000              -0.062500000               0.500000000               0.000000000               0.000000000               0.133000000               0.000000000               0.000000000               0.155937500               0.000000000               0.000000000               0.178875000               0.000000000               0.000000000               0.201812500               0.000000000               0.000000000               0.224750000               0.000000000               0.000000000               0.247687500               0.000000000               0.000000000               0.270625000               0.000000000               0.000000000               0.293562500               0.000000000               0.000000000               0.316500000               0.000000000               0.000000000               0.339437500               0.000000000               0.000000000               0.362375000               0.000000000               0.000000000               0.385312500               0.000000000               0.000000000               0.408250000               0.000000000               0.000000000               0.431187500               0.000000000               0.000000000               0.454125000               0.000000000               0.000000000               0.477062500               0.000000000               0.000000000               0.500000000               0.000000000 </DataArray>
</Points>
<Cells>
<DataArray type="Int32"                                    Name="connectivity"                                                      NumberOfComponents=" 1" format="ascii">
         0          1         18         17          1          2         19         18          2          3         20         19          3          4         21         20          4          5         22         21          5          6         23         22          6          7         24         23          7          8         25         24          8          9         26         25          9         10         27         26         10         11         28         27         11         12         29         28         12         13         30         29         13         14         31         30         14         15         32         31         15         16         33         32         17         18         35         34         18         19         36         35         19         20         37         36         20         21         38         37         21         22         39         38         22         23         40         39         23         24         41         40         24         25         42         41         25         26         43         42         26         27         44         43         27         28         45         44         28         29         46         45         29         30         47         46         30         31         48         47         31         32         49         48         32         33         50         49         34         35         52         51         35         36         53         52         36         37         54         53         37         38         55         54         38         39         56         55         39         40         57         56         40         41         58         57         41         42         59         58         42         43         60         59         43         44         61         60         44         45         62         61         45         46         63         62         46         47         64         63         47         48         65         64         48         49         66         65         49         50         67         66         51         52         69         68         52         53         70         69         53         54         71         70         54         55         72         71         55         56         73         72         56         57         74         73         57         58         75         74         58         59         76         75         59         60         77         76         60         61         78         77         61         62         79         78         62         63         80         79         63         64         81         80         64         65         82         81         65         66         83         82         66         67         84         83         68         69         86         85         69         70         87         86         70         71         88         87         71         72         89         88         72         73         90         89         73         74         91         90         74         75         92         91         75         76         93         92         76         77         94         93         77         78         95         94         78         79         96         95         79         80         97         96         80         81         98         97         81         82         99         98         82         83        100         99         83         84        101        100         85         86        103        102         86         87        104        103         87         88        105        104         88         89        106        105         89         90        107        106         90         91        108        107         91         92        109        108         92         93        110        109         93         94        111        110         94         95        112        111         95         96        113        112         96         97        114        113         97         98        115        114         98         99        116        115         99        100        117        116        100        101        118        117        102        103        120        119        103        104        121        120        104        105        122        121        105        106        123        122        106        107        124        123        107        108        125        124        108        109        126        125        109        110        127        126        110        111        128        127        111        112        129        128        112        113        130        129        113        114        131        130        114        115        132        131        115        116        133        132        116        117        134        133        117        118        135        134        119        120        137        136        120        121        138        137        121        122        139        138        122        123        140        139        123        124        141        140        124        125        142        141        125        126        143        142        126        127        144        143        127        128        145        144        128        129        146        145        129        130        147        146        130        131        148        147        131        132        149        148        132        133        150        149        133        134        151        150        134        135        152        151        136        137        154        153        137        138        155        154        138        139        156        155        139        140        157        156        140        141        158        157        141        142        159        158        142        143        160        159        143        144        161        160        144        145        162        161        145        146        163        162        146        147        164        163        147        148        165        164        148        149        166        165        149        150        167        166        150        151        168        167        151        152        169        168        153        154        171        170        154        155        172        171        155        156        173        172        156        157        174        173        157        158        175        174        158        159        176        175        159        160        177        176        160        161        178        177        161        162        179        178        162        163        180        179        163        164        181        180        164        165        182        181        165        166        183        182        166        167        184        183        167        168        185        184        168        169        186        185        170        171        188        187        171        172        189        188        172        173        190        189        173        174        191        190        174        175        192        191        175        176        193        192        176        177        194        193        177        178        195        194        178        179        196        195        179        180        197        196        180        181        198        197        181        182        199        198        182        183        200        199        183        184        201        200        184        185        202        201        185        186        203        202        187        188        205        204        188        189        206        205        189        190        207        206        190        191        208        207        191        192        209        208        192        193        210        209        193        194        211        210        194        195        212        211        195        196        213        212        196        197        214        213        197        198        215        214        198        199        216        215        199        200        217        216        200        201        218        217        201        202        219        218        202        203        220        219        204        205        222        221        205        206        223        222        206        207        224        223        207        208        225        224        208        209        226        225        209        210        227        226        210        211        228        227        211        212        229        228        212        213        230        229        213        214        231        230        214        215        232        231        215        216        233        232        216        217        234        233        217        218        235        234        218        219        236        235        219        220        237        236        221        222        239        238        222        223        240        239        223        224        241        240        224        225        242        241        225        226        243        242        226        227        244        243        227        228        245        244        228        229        246        245        229        230        247        246        230        231        248        247        231        232        249        248        232        233        250        249        233        234        251        250        234        235        252        251        235        236        253        252        236        237        254        253        238        239        256        255        239        240        257        256        240        241        258        257        241        242        259        258        242        243        260        259        243        244        261        260        244        245        262        261        245        246        263        262        246        247        264        263        247        248        265        264        248        249        266        265        249        250        267        266        250        251        268        267        251        252        269        268        252        253        270        269        253        254        271        270        255        256        273        272        256        257        274        273        257        258        275        274        258        259        276        275        259        260        277        276        260        261        278        277        261        262        279        278        262        263        280        279        263        264        281        280        264        265        282        281        265        266        283        282        266        267        284        283        267        268        285        284        268        269        286        285        269        270        287        286        270        271        288        287        306        307          1          0        307        308          2          1        308        309          3          2        309        310          4          3        310        311          5          4        311        312          6          5        312        313          7          6        313        314          8          7        314        315          9          8        315        316         10          9        316        317         11         10        317        318         12         11        318        319         13         12        319        320         14         13        320        321         15         14        321        322         16         15        323        324        307        306        324        325        308        307        325        326        309        308        326        327        310        309        327        328        311        310        328        329        312        311        329        330        313        312        330        331        314        313        331        332        315        314        332        333        316        315        333        334        317        316        334        335        318        317        335        336        319        318        336        337        320        319        337        338        321        320        338        339        322        321        340        341        324        323        341        342        325        324        342        343        326        325        343        344        327        326        344        345        328        327        345        346        329        328        346        347        330        329        347        348        331        330        348        349        332        331        349        350        333        332        350        351        334        333        351        352        335        334        352        353        336        335        353        354        337        336        354        355        338        337        355        356        339        338        357        358        341        340        358        359        342        341        359        360        343        342        360        361        344        343        361        362        345        344        362        363        346        345        363        364        347        346        364        365        348        347        365        366        349        348        366        367        350        349        367        368        351        350        368        369        352        351        369        370        353        352        370        371        354        353        371        372        355        354        372        373        356        355        374        375        358        357        375        376        359        358        376        377        360        359        377        378        361        360        378        379        362        361        379        380        363        362        380        381        364        363        381        382        365        364        382        383        366        365        383        384        367        366        384        385        368        367        385        386        369        368        386        387        370        369        387        388        371        370        388        389        372        371        389        390        373        372        391        392        375        374        392        393        376        375        393        394        377        376        394        395        378        377        395        396        379        378        396        397        380        379        397        398        381        380        398        399        382        381        399        400        383        382        400        401        384        383        401        402        385        384        402        403        386        385        403        404        387        386        404        405        388        387        405        406        389        388        406        407        390        389        408        409        392        391        409        410        393        392        410        411        394        393        411        412        395        394        412        413        396        395        413        414        397        396        414        415        398        397        415        416        399        398        416        417        400        399        417        418        401        400        418        419        402        401        419        420        403        402        420        421        404        403        421        422        405        404        422        423        406        405        423        424        407        406        425        426        409        408        426        427        410        409        427        428        411        410        428        429        412        411        429        430        413        412        430        431        414        413        431        432        415        414        432        433        416        415        433        434        417        416        434        435        418        417        435        436        419        418        436        437        420        419        437        438        421        420        438        439        422        421        439        440        423        422        440        441        424        423        442        443        426        425        443        444        427        426        444        445        428        427        445        446        429        428        446        447        430        429        447        448        431        430        448        449        432        431        449        450        433        432        450        451        434        433        451        452        435        434        452        453        436        435        453        454        437        436        454        455        438        437        455        456        439        438        456        457        440        439        457        458        441        440        459        460        443        442        460        461        444        443        461        462        445        444        462        463        446        445        463        464        447        446        464        465        448        447        465        466        449        448        466        467        450        449        467        468        451        450        468        469        452        451        469        470        453        452        470        471        454        453        471        472        455        454        472        473        456        455        473        474        457        456        474        475        458        457        476        477        460        459        477        478        461        460        478        479        462        461        479        480        463        462        480        481        464        463        481        482        465        464        482        483        466        465        483        484        467        466        484        485        468        467        485        486        469        468        486        487        470        469        487        488        471        470        488        489        472        471        489        490        473        472        490        491        474        473        491        492        475        474        493        494        477        476        494        495        478        477        495        496        479        478        496        497        480        479        497        498        481        480        498        499        482        481        499        500        483        482        500        501        484        483        501        502        485        484        502        503        486        485        503        504        487        486        504        505        488        487        505        506        489        488        506        507        490        489        507        508        491        490        508        509        492        491        510        511        494        493        511        512        495        494        512        513        496        495        513        514        497        496        514        515        498        497        515        516        499        498        516        517        500        499        517        518        501        500        518        519        502        501        519        520        503        502        520        521        504        503        521        522        505        504        522        523        506        505        523        524        507        506        524        525        508        507        525        526        509        508        527        528        511        510        528        529        512        511        529        530        513        512        530        531        514        513        531        532        515        514        532        533        516        515        533        534        517        516        534        535        518        517        535        536        519        518        536        537        520        519        537        538        521        520        538        539        522        521        539        540        523        522        540        541        524        523        541        542        525        524        542        543        526        525        544        545        528        527        545        546        529        528        546        547        530        529        547        548        531        530        548        549        532        531        549        550        533        532        550        551        534        533        551        552        535        534        552        553        536        535        553        554        537        536        554        555        538        537        555        556        539        538        556        557        540        539        557        558        541        540        558        559        542        541        559        560        543        542        561        562        545        544        562        563        546        545        563        564        547        546        564        565        548        547        565        566        549        548        566        567        550        549        567        568        551        550        568        569        552        551        569        570        553        552        570        571        554        553        571        572        555        554        572        573        556        555        573        574        557        556        574        575        558        557        575        576        559        558        576        577        560        559        578        579        596        595        579        580        597        596        580        581        598        597        581        582        599        598        582        583        600        599        583        584        601        600        584        585        602        601        585        586        603        602        586        587        604        603        587        588        605        604        588        589        606        605        589        590        607        606        590        591        608        607        591        592        609        608        592        593        610        609        593        594        611        610        595        596        613        612        596        597        614        613        597        598        615        614        598        599        616        615        599        600        617        616        600        601        618        617        601        602        619        618        602        603        620        619        603        604        621        620        604        605        622        621        605        606        623        622        606        607        624        623        607        608        625        624        608        609        626        625        609        610        627        626        610        611        628        627        612        613        630        629        613        614        631        630        614        615        632        631        615        616        633        632        616        617        634        633        617        618        635        634        618        619        636        635        619        620        637        636        620        621        638        637        621        622        639        638        622        623        640        639        623        624        641        640        624        625        642        641        625        626        643        642        626        627        644        643        627        628        645        644        629        630        647        646        630        631        648        647        631        632        649        648        632        633        650        649        633        634        651        650        634        635        652        651        635        636        653        652        636        637        654        653        637        638        655        654        638        639        656        655        639        640        657        656        640        641        658        657        641        642        659        658        642        643        660        659        643        644        661        660        644        645        662        661        646        647        664        663        647        648        665        664        648        649        666        665        649        650        667        666        650        651        668        667        651        652        669        668        652        653        670        669        653        654        671        670        654        655        672        671        655        656        673        672        656        657        674        673        657        658        675        674        658        659        676        675        659        660        677        676        660        661        678        677        661        662        679        678        663        664        681        680        664        665        682        681        665        666        683        682        666        667        684        683        667        668        685        684        668        669        686        685        669        670        687        686        670        671        688        687        671        672        689        688        672        673        690        689        673        674        691        690        674        675        692        691        675        676        693        692        676        677        694        693        677        678        695        694        678        679        696        695        680        681        698        697        681        682        699        698        682        683        700        699        683        684        701        700        684        685        702        701        685        686        703        702        686        687        704        703        687        688        705        704        688        689        706        705        689        690        707        706        690        691        708        707        691        692        709        708        692        693        710        709        693        694        711        710        694        695        712        711        695        696        713        712        697        698        715        714        698        699        716        715        699        700        717        716        700        701        718        717        701        702        719        718        702        703        720        719        703        704        721        720        704        705        722        721        705        706        723        722        706        707        724        723        707        708        725        724        708        709        726        725        709        710        727        726        710        711        728        727        711        712        729        728        712        713        730        729        714        715        732        731        715        716        733        732        716        717        734        733        717        718        735        734        718        719        736        735        719        720        737        736        720        721        738        737        721        722        739        738        722        723        740        739        723        724        741        740        724        725        742        741        725        726        743        742        726        727        744        743        727        728        745        744        728        729        746        745        729        730        747        746        731        732        749        748        732        733        750        749        733        734        751        750        734        735        752        751        735        736        753        752        736        737        754        753        737        738        755        754        738        739        756        755        739        740        757        756        740        741        758        757        741        742        759        758        742        743        760        759        743        744        761        760        744        745        762        761        745        746        763        762        746        747        764        763        748        749        766        765        749        750        767        766        750        751        768        767        751        752        769        768        752        753        770        769        753        754        771        770        754        755        772        771        755        756        773        772        756        757        774        773        757        758        775        774        758        759        776        775        759        760        777        776        760        761        778        777        761        762        779        778        762        763        780        779        763        764        781        780        765        766        783        782        766        767        784        783        767        768        785        784        768        769        786        785        769        770        787        786        770        771        788        787        771        772        789        788        772        773        790        789        773        774        791        790        774        775        792        791        775        776        793        792        776        777        794        793        777        778        795        794        778        779        796        795        779        780        797        796        780        781        798        797        782        783        800        799        783        784        801        800        784        785        802        801        785        786        803        802        786        787        804        803        787        788        805        804        788        789        806        805        789        790        807        806        790        791        808        807        791        792        809        808        792        793        810        809        793        794        811        810        794        795        812        811        795        796        813        812        796        797        814        813        797        798        815        814        799        800        817        816        800        801        818        817        801        802        819        818        802        803        820        819        803        804        821        820        804        805        822        821        805        806        823        822        806        807        824        823        807        808        825        824        808        809        826        825        809        810        827        826        810        811        828        827        811        812        829        828        812        813        830        829        813        814        831        830        814        815        832        831        816        817        834        833        817        818        835        834        818        819        836        835        819        820        837        836        820        821        838        837        821        822        839        838        822        823        840        839        823        824        841        840        824        825        842        841        825        826        843        842        826        827        844        843        827        828        845        844        828        829        846        845        829        830        847        846        830        831        848        847        831        832        849        848        833        834        562        561        834        835        563        562        835        836        564        563        836        837        565        564        837        838        566        565        838        839        567        566        839        840        568        567        840        841        569        568        841        842        570        569        842        843        571        570        843        844        572        571        844        845        573        572        845        846        574        573        846        847        575        574        847        848        576        575        848        849        577        576        884        885        579        578        885        886        580        579        886        887        581        580        887        888        582        581        888        889        583        582        889        890        584        583        890        891        585        584        891        892        586        585        892        893        587        586        893        894        588        587        894        895        589        588        895        896        590        589        896        897        591        590        897        898        592        591        898        899        593        592        899        900        594        593        901        902        885        884        902        903        886        885        903        904        887        886        904        905        888        887        905        906        889        888        906        907        890        889        907        908        891        890        908        909        892        891        909        910        893        892        910        911        894        893        911        912        895        894        912        913        896        895        913        914        897        896        914        915        898        897        915        916        899        898        916        917        900        899        918        919        902        901        919        920        903        902        920        921        904        903        921        922        905        904        922        923        906        905        923        924        907        906        924        925        908        907        925        926        909        908        926        927        910        909        927        928        911        910        928        929        912        911        929        930        913        912        930        931        914        913        931        932        915        914        932        933        916        915        933        934        917        916        935        936        919        918        936        937        920        919        937        938        921        920        938        939        922        921        939        940        923        922        940        941        924        923        941        942        925        924        942        943        926        925        943        944        927        926        944        945        928        927        945        946        929        928        946        947        930        929        947        948        931        930        948        949        932        931        949        950        933        932        950        951        934        933        952        953        936        935        953        954        937        936        954        955        938        937        955        956        939        938        956        957        940        939        957        958        941        940        958        959        942        941        959        960        943        942        960        961        944        943        961        962        945        944        962        963        946        945        963        964        947        946        964        965        948        947        965        966        949        948        966        967        950        949        967        968        951        950        969        970        953        952        970        971        954        953        971        972        955        954        972        973        956        955        973        974        957        956        974        975        958        957        975        976        959        958        976        977        960        959        977        978        961        960        978        979        962        961        979        980        963        962        980        981        964        963        981        982        965        964        982        983        966        965        983        984        967        966        984        985        968        967        986        987        970        969        987        988        971        970        988        989        972        971        989        990        973        972        990        991        974        973        991        992        975        974        992        993        976        975        993        994        977        976        994        995        978        977        995        996        979        978        996        997        980        979        997        998        981        980        998        999        982        981        999       1000        983        982       1000       1001        984        983       1001       1002        985        984       1003       1004        987        986       1004       1005        988        987       1005       1006        989        988       1006       1007        990        989       1007       1008        991        990       1008       1009        992        991       1009       1010        993        992       1010       1011        994        993       1011       1012        995        994       1012       1013        996        995       1013       1014        997        996       1014       1015        998        997       1015       1016        999        998       1016       1017       1000        999       1017       1018       1001       1000       1018       1019       1002       1001       1020       1021       1004       1003       1021       1022       1005       1004       1022       1023       1006       1005       1023       1024       1007       1006       1024       1025       1008       1007       1025       1026       1009       1008       1026       1027       1010       1009       1027       1028       1011       1010       1028       1029       1012       1011       1029       1030       1013       1012       1030       1031       1014       1013       1031       1032       1015       1014       1032       1033       1016       1015       1033       1034       1017       1016       1034       1035       1018       1017       1035       1036       1019       1018       1037       1038       1021       1020       1038       1039       1022       1021       1039       1040       1023       1022       1040       1041       1024       1023       1041       1042       1025       1024       1042       1043       1026       1025       1043       1044       1027       1026       1044       1045       1028       1027       1045       1046       1029       1028       1046       1047       1030       1029       1047       1048       1031       1030       1048       1049       1032       1031       1049       1050       1033       1032       1050       1051       1034       1033       1051       1052       1035       1034       1052       1053       1036       1035       1054       1055       1038       1037       1055       1056       1039       1038       1056       1057       1040       1039       1057       1058       1041       1040       1058       1059       1042       1041       1059       1060       1043       1042       1060       1061       1044       1043       1061       1062       1045       1044       1062       1063       1046       1045       1063       1064       1047       1046       1064       1065       1048       1047       1065       1066       1049       1048       1066       1067       1050       1049       1067       1068       1051       1050       1068       1069       1052       1051       1069       1070       1053       1052       1071       1072       1055       1054       1072       1073       1056       1055       1073       1074       1057       1056       1074       1075       1058       1057       1075       1076       1059       1058       1076       1077       1060       1059       1077       1078       1061       1060       1078       1079       1062       1061       1079       1080       1063       1062       1080       1081       1064       1063       1081       1082       1065       1064       1082       1083       1066       1065       1083       1084       1067       1066       1084       1085       1068       1067       1085       1086       1069       1068       1086       1087       1070       1069       1088       1089       1072       1071       1089       1090       1073       1072       1090       1091       1074       1073       1091       1092       1075       1074       1092       1093       1076       1075       1093       1094       1077       1076       1094       1095       1078       1077       1095       1096       1079       1078       1096       1097       1080       1079       1097       1098       1081       1080       1098       1099       1082       1081       1099       1100       1083       1082       1100       1101       1084       1083       1101       1102       1085       1084       1102       1103       1086       1085       1103       1104       1087       1086       1105       1106       1089       1088       1106       1107       1090       1089       1107       1108       1091       1090       1108       1109       1092       1091       1109       1110       1093       1092       1110       1111       1094       1093       1111       1112       1095       1094       1112       1113       1096       1095       1113       1114       1097       1096       1114       1115       1098       1097       1115       1116       1099       1098       1116       1117       1100       1099       1117       1118       1101       1100       1118       1119       1102       1101       1119       1120       1103       1102       1120       1121       1104       1103       1122       1123       1106       1105       1123       1124       1107       1106       1124       1125       1108       1107       1125       1126       1109       1108       1126       1127       1110       1109       1127       1128       1111       1110       1128       1129       1112       1111       1129       1130       1113       1112       1130       1131       1114       1113       1131       1132       1115       1114       1132       1133       1116       1115       1133       1134       1117       1116       1134       1135       1118       1117       1135       1136       1119       1118       1136       1137       1120       1119       1137       1138       1121       1120        272        273       1123       1122        273        274       1124       1123        274        275       1125       1124        275        276       1126       1125        276        277       1127       1126        277        278       1128       1127        278        279       1129       1128        279        280       1130       1129        280        281       1131       1130        281        282       1132       1131        282        283       1133       1132        283        284       1134       1133        284        285       1135       1134        285        286       1136       1135        286        287       1137       1136        287        288       1138       1137 </DataArray>
<DataArray type="Int32"                                    Name="offsets"                                                      NumberOfComponents=" 1" format="ascii">
         4          8         12         16         20         24         28         32         36         40         44         48         52         56         60         64         68         72         76         80         84         88         92         96        100        104        108        112        116        120        124        128        132        136        140        144        148        152        156        160        164        168        172        176        180        184        188        192        196        200        204        208        212        216        220        224        228        232        236        240        244        248        252        256        260        264        268        272        276        280        284        288        292        296        300        304        308        312        316        320        324        328        332        336        340        344        348        352        356        360        364        368        372        376        380        384        388        392        396        400        404        408        412        416        420        424        428        432        436        440        444        448        452        456        460        464        468        472        476        480        484        488        492        496        500        504        508        512        516        520        524        528        532        536        540        544        548        552        556        560        564        568        572        576        580        584        588        592        596        600        604        608        612        616        620        624        628        632        636        640        644        648        652        656        660        664        668        672        676        680        684        688        692        696        700        704        708        712        716        720        724        728        732        736        740        744        748        752        756        760        764        768        772        776        780        784        788        792        796        800        804        808        812        816        820        824        828        832        836        840        844        848        852        856        860        864        868        872        876        880        884        888        892        896        900        904        908        912        916        920        924        928        932        936        940        944        948        952        956        960        964        968        972        976        980        984        988        992        996       1000       1004       1008       1012       1016       1020       1024       1028       1032       1036       1040       1044       1048       1052       1056       1060       1064       1068       1072       1076       1080       1084       1088       1092       1096       1100       1104       1108       1112       1116       1120       1124       1128       1132       1136       1140       1144       1148       1152       1156       1160       1164       1168       1172       1176       1180       1184       1188       1192       1196       1200       1204       1208       1212       1216       1220       1224       1228       1232       1236       1240       1244       1248       1252       1256       1260       1264       1268       1272       1276       1280       1284       1288       1292       1296       1300       1304       1308       1312       1316       1320       1324       1328       1332       1336       1340       1344       1348       1352       1356       1360       1364       1368       1372       1376       1380       1384       1388       1392       1396       1400       1404       1408       1412       1416       1420       1424       1428       1432       1436       1440       1444       1448       1452       1456       1460       1464       1468       1472       1476       1480       1484       1488       1492       1496       1500       1504       1508       1512       1516       1520       1524       1528       1532       1536       1540       1544       1548       1552       1556       1560       1564       1568       1572       1576       1580       1584       1588       1592       1596       1600       1604       1608       1612       1616       1620       1624       1628       1632       1636       1640       1644       1648       1652       1656       1660       1664       1668       1672       1676       1680       1684       1688       1692       1696       1700       1704       1708       1712       1716       1720       1724       1728       1732       1736       1740       1744       1748       1752       1756       1760       1764       1768       1772       1776       1780       1784       1788       1792       1796       1800       1804       1808       1812       1816       1820       1824       1828       1832       1836       1840       1844       1848       1852       1856       1860       1864       1868       1872       1876       1880       1884       1888       1892       1896       1900       1904       1908       1912       1916       1920       1924       1928       1932       1936       1940       1944       1948       1952       1956       1960       1964       1968       1972       1976       1980       1984       1988       1992       1996       2000       2004       2008       2012       2016       2020       2024       2028       2032       2036       2040       2044       2048       2052       2056       2060       2064       2068       2072       2076       2080       2084       2088       2092       2096       2100       2104       2108       2112       2116       2120       2124       2128       2132       2136       2140       2144       2148       2152       2156       2160       2164       2168       2172       2176       2180       2184       2188       2192       2196       2200       2204       2208       2212       2216       2220       2224       2228       2232       2236       2240       2244       2248       2252       2256       2260       2264       2268       2272       2276       2280       2284       2288       2292       2296       2300       2304       2308       2312       2316       2320       2324       2328       2332       2336       2340       2344       2348       2352       2356       2360       2364       2368       2372       2376       2380       2384       2388       2392       2396       2400       2404       2408       2412       2416       2420       2424       2428       2432       2436       2440       2444       2448       2452       2456       2460       2464       2468       2472       2476       2480       2484       2488       2492       2496       2500       2504       2508       2512       2516       2520       2524       2528       2532       2536       2540       2544       2548       2552       2556       2560       2564       2568       2572       2576       2580       2584       2588       2592       2596       2600       2604       2608       2612       2616       2620       2624       2628       2632       2636       2640       2644       2648       2652       2656       2660       2664       2668       2672       2676       2680       2684       2688       2692       2696       2700       2704       2708       2712       2716       2720       2724       2728       2732       2736       2740       2744       2748       2752       2756       2760       2764       2768       2772       2776       2780       2784       2788       2792       2796       2800       2804       2808       2812       2816       2820       2824       2828       2832       2836       2840       2844       2848       2852       2856       2860       2864       2868       2872       2876       2880       2884       2888       2892       2896       2900       2904       2908       2912       2916       2920       2924       2928       2932       2936       2940       2944       2948       2952       2956       2960       2964       2968       2972       2976       2980       2984       2988       2992       2996       3000       3004       3008       3012       3016       3020       3024       3028       3032       3036       3040       3044       3048       3052       3056       3060       3064       3068       3072       3076       3080       3084       3088       3092       3096       3100       3104       3108       3112       3116       3120       3124       3128       3132       3136       3140       3144       3148       3152       3156       3160       3164       3168       3172       3176       3180       3184       3188       3192       3196       3200       3204       3208       3212       3216       3220       3224       3228       3232       3236       3240       3244       3248       3252       3256       3260       3264       3268       3272       3276       3280       3284       3288       3292       3296       3300       3304       3308       3312       3316       3320       3324       3328       3332       3336       3340       3344       3348       3352       3356       3360       3364       3368       3372       3376       3380       3384       3388       3392       3396       3400       3404       3408       3412       3416       3420       3424       3428       3432       3436       3440       3444       3448       3452       3456       3460       3464       3468       3472       3476       3480       3484       3488       3492       3496       3500       3504       3508       3512       3516       3520       3524       3528       3532       3536       3540       3544       3548       3552       3556       3560       3564       3568       3572       3576       3580       3584       3588       3592       3596       3600       3604       3608       3612       3616       3620       3624       3628       3632       3636       3640       3644       3648       3652       3656       3660       3664       3668       3672       3676       3680       3684       3688       3692       3696       3700       3704       3708       3712       3716       3720       3724       3728       3732       3736       3740       3744       3748       3752       3756       3760       3764       3768       3772       3776       3780       3784       3788       3792       3796       3800       3804       3808       3812       3816       3820       3824       3828       3832       3836       3840       3844       3848       3852       3856       3860       3864       3868       3872       3876       3880       3884       3888       3892       3896       3900       3904       3908       3912       3916       3920       3924       3928       3932       3936       3940       3944       3948       3952       3956       3960       3964       3968       3972       3976       3980       3984       3988       3992       3996       4000       4004       4008       4012       4016       4020       4024       4028       4032       4036       4040       4044       4048       4052       4056       4060       4064       4068       4072       4076       4080       4084       4088       4092       4096 </DataArray>
<DataArray type="UInt8"                                    Name="types"                                                      NumberOfComponents=" 1" format="ascii">
         9          9          9          9          9          9          9          9          9          9          9          9          9          9          9          9          9          9          9          9          9          9          9          9          9          9          9          9          9          9          9          9          9          9          9          9          9          9          9          9          9          9          9          9          9          9          9          9          9          9          9          9          9          9          9          9          9          9          9          9          9          9          9          9          9          9          9          9          9          9          9          9          9          9          9          9          9          9          9          9          9          9          9          9          9          9          9          9          9          9          9          9          9          9          9          9          9          9          9          9          9          9          9          9          9          9          9          9          9          9          9          9          9          9          9          9          9          9          9          9          9          9          9          9          9          9          9          9          9          9          9          9          9          9          9          9          9          9          9          9          9          9          9          9          9          9          9          9          9          9          9          9          9          9          9          9          9          9          9          9          9          9          9          9          9          9          9          9          9          9          9          9          9          9          9          9          9          9          9          9          9          9          9          9          9          9          9          9          9          9          9          9          9          9          9          9          9          9          9          9          9          9          9          9          9          9          9          9          9          9          9          9          9          9          9          9          9          9          9          9          9          9          9          9          9          9          9          9          9          9          9          9          9          9          9          9          9          9          9          9          9          9          9          9          9          9          9          9          9          9          9          9          9          9          9          9          9          9          9          9          9          9          9          9          9          9          9          9          9          9          9          9          9          9          9          9          9          9          9          9          9          9          9          9          9          9          9          9          9          9          9          9          9          9          9          9          9          9          9          9          9          9          9          9          9          9          9          9          9          9          9          9          9          9          9          9          9          9          9          9          9          9          9          9          9          9          9          9          9          9          9          9          9          9          9          9          9          9          9          9          9          9          9          9          9          9          9          9          9          9          9          9          9          9          9          9          9          9          9          9          9          9          9          9          9          9          9          9          9          9          9          9          9          9          9          9          9          9          9          9          9          9          9          9          9          9          9          9          9          9          9          9          9          9          9          9          9          9          9          9          9          9          9          9          9          9          9          9          9          9          9          9          9          9          9          9          9          9          9          9          9          9          9          9          9          9          9          9          9          9          9          9          9          9          9          9          9          9          9          9          9          9          9          9          9          9          9          9          9          9          9          9          9          9          9          9          9          9          9          9          9          9          9          9          9          9          9          9          9          9          9          9          9          9          9          9          9          9          9          9          9          9          9          9          9          9          9          9          9          9          9          9          9          9          9          9          9          9          9          9          9          9          9          9          9          9          9          9          9          9          9          9          9          9          9          9          9          9          9          9          9          9          9          9          9          9          9          9          9          9          9          9          9          9          9          9          9          9          9          9          9          9          9          9          9          9          9          9          9          9          9          9          9          9          9          9          9          9          9          9          9          9          9          9          9          9          9          9          9          9          9          9          9          9          9          9          9          9          9          9          9          9          9          9          9          9          9          9          9          9          9          9          9          9          9          9          9          9          9          9          9          9          9          9          9          9          9          9          9          9          9          9          9          9          9          9          9          9          9          9          9          9          9          9          9          9          9          9          9          9          9          9          9          9          9          9          9          9          9          9          9          9          9          9          9          9          9          9          9          9          9          9          9          9          9          9          9          9          9          9          9          9          9          9          9          9          9          9          9          9          9          9          9          9          9          9          9          9          9          9          9          9          9          9          9          9          9          9          9          9          9          9          9          9          9          9          9          9          9          9          9          9          9          9          9          9          9          9          9          9          9          9          9          9          9          9          9          9          9          9          9          9          9          9          9          9          9          9          9          9          9          9          9          9          9          9          9          9          9          9          9          9          9          9          9          9          9          9          9          9          9          9          9          9          9          9          9          9          9          9          9          9          9          9          9          9          9          9          9          9          9          9          9          9          9          9          9          9          9          9          9          9          9          9          9          9          9          9          9          9          9          9          9          9          9          9          9          9          9          9          9          9          9          9          9          9          9          9          9          9          9          9          9          9          9          9          9          9          9          9          9          9          9          9          9          9          9          9          9          9          9          9          9          9          9          9          9          9          9          9          9          9          9          9          9          9          9          9          9          9          9          9          9          9          9          9          9          9          9          9          9          9          9          9          9          9          9          9          9          9          9          9          9          9          9          9          9          9          9          9          9          9          9          9          9          9          9          9          9          9          9          9          9          9          9          9          9          9          9          9          9          9          9          9          9          9          9          9          9          9          9          9          9          9          9          9          9          9          9          9          9          9          9          9          9          9          9          9          9          9          9          9          9          9          9          9          9          9          9          9          9          9          9          9          9          9          9          9          9          9          9          9          9          9          9          9          9          9          9          9          9          9          9          9          9          9          9          9          9          9          9          9          9          9          9          9          9          9          9          9          9          9          9          9          9          9          9          9          9          9          9          9          9          9          9          9          9          9          9          9          9          9          9          9          9          9          9          9          9          9          9          9          9          9          9          9          9          9          9          9          9          9          9          9 </DataArray>
</Cells>
<CellData>
<DataArray type="Int32"                                    Name="material"                                                      NumberOfComponents=" 1" format="ascii">
         1          1          1          1          1          1          1          1          1          1          1          1          1          1          1          1          1          1          1          1          1          1          1          1          1          1          1          1          1          1          1          1          1          1          1          1          1          1          1          1          1          1          1          1          1          1          1          1          1          1          1          1          1          1          1          1          1          1          1          1          1          1          1          1          1          1          1          1          1          1          1          1          1          1          1          1          1          1          1          1          1          1          1          1          1          1          1          1          1          1          1          1          1          1          1          1          1          1          1          1          1          1          1          1          1          1          1          1          1          1          1          1          1          1          1          1          1          1          1          1          1          1          1          1          1          1          1          1          1          1          1          1          1          1          1          1          1          1          1          1          1          1          1          1          1          1          1          1          1          1          1          1          1          1          1          1          1          1          1          1          1          1          1          1          1          1          1          1          1          1          1          1          1          1          1          1          1          1          1          1          1          1          1          1          1          1          1          1          1          1          1          1          1          1          1          1          1          1          1          1          1          1          1          1          1          1          1          1          1          1          1          1          1          1          1          1          1          1          1          1          1          1          1          1          1          1          1          1          1          1          1          1          1          1          1          1          1          1          1          1          1          1          1          1          1          1          1          1          1          1          1          1          1          1          1          1          1          1          1          1          1          1          1          1          1          1          1          1          1          1          1          1          1          1          1          1          1          1          1          1          1          1          1          1          1          1          1          1          1          1          1          1          1          1          1          1          1          1          1          1          1          1          1          1          1          1          1          1          1          1          1          1          1          1          1          1          1          1          1          1          1          1          1          1          1          1          1          1          1          1          1          1          1          1          1          1          1          1          1          1          1          1          1          1          1          1          1          1          1          1          1          1          1          1          1          1          1          1          1          1          1          1          1          1          1          1          1          1          1          1          1          1          1          1          1          1          1          1          1          1          1          1          1          1          1          1          1          1          1          1          1          1          1          1          1          1          1          1          1          1          1          1          1          1          1          1          1          1          1          1          1          1          1          1          1          1          1          1          1          1          1          1          1          1          1          1          1          1          1          1          1          1          1          1          1          1          1          1          1          1          1          1          1          1          1          1          1          1          1          1          1          1          1          1          1          1          1          1          1          1          1          1          1          1          1          1          1          1          1          1          1          1          1          1          1          1          1          1          1          1          1          1          1          1          1          1          1          1          1          1          1          1          1          1          1          1          1          1          1          1          1          1          1          1          1          1          1          1          1          1          1          1          1          1          1          1          1          1          1          1          1          1          1          1          1          1          1          1          1          1          1          1          1          1          1          1          1          1          1          1          1          1          1          1          1          1          1          1          1          1          1          1          1          1          1          1          1          1          1          1          1          1          1          1          1          1          1          1          1          1          1          1          1          1          1          1          1          1          1          1          1          1          1          1          1          1          1          1          1          1          1          1          1          1          1          1          1          1          1          1          1          1          1          1          1          1          1          1          1          1          1          1          1          1          1          1          1          1          1          1          1          1          1          1          1          1          1          1          1          1          1          1          1          1          1          1          1          1          1          1          1          1          1          1          1          1          1          1          1          1          1          1          1          1          1          1          1          1          1          1          1          1          1          1          1          1          1          1          1          1          1          1          1          1          1          1          1          1          1          1          1          1          1          1          1          1          1          1          1          1          1          1          1          1          1          1          1          1          1          1          1          1          1          1          1          1          1          1          1          1          1          1          1          1          1          1          1          1          1          1          1          1          1          1          1          1          1          1          1          1          1          1          1          1          1          1          1          1          1          1          1          1          1          1          1          1          1          1          1          1          1          1          1          1          1          1          1          1          1          1          1          1          1          1          1          1          1          1          1          1          1          1          1          1          1          1          1          1          1          1          1          1          1          1          1          1          1          1          1          1          1          1          1          1          1          1          1          1          1          1          1          1          1          1          1          1          1          1          1          1          1          1          1          1          1          1          1          1          1          1          1          1          1          1          1          1          1          1          1          1          1          1          1          1          1          1          1          1          1          1          1          1          1          1          1          1          1          1          1          1          1          1          1          1          1          1          1          1          1          1          1          1          1          1          1          1          1          1          1          1          1          1          1          1          1          1          1          1          1          1          1          1          1          1          1          1          1          1          1          1          1          1          1          1          1          1          1          1          1          1          1          1          1          1          1          1          1          1          1          1          1          1          1          1          1          1          1          1          1          1          1          1          1          1          1          1          1          1          1          1          1          1          1          1          1          1          1          1          1          1          1          1          1          1          1          1          1          1          1          1          1          1          1          1          1          1          1          1          1          1          1          1          1          1          1          1          1          1          1          1          1          1          1          1          1          1          1          1          1          1          1          1          1          1          1          1          1          1          1          1          1          1          1          1          1          1          1          1          1          1          1          1          1          1          1          1          1          1          1          1          1          1          1          1          1          1          1          1          1          1          1          1          1          1 </DataArray>
</CellData>
<PointData>
<DataArray type="Float64"                                    Name="u"                                                      NumberOfComponents=" 3" format="ascii">
             -0.000129534               0.000000000               0.999999992              -0.000155685               0.000000000               0.999999992              -0.000167833               0.000000000               0.999999992              -0.000174742               0.000000000               0.999999992              -0.000180066              -0.000000000               0.999999992              -0.000185260              -0.000000000               0.999999992              -0.000190820              -0.000000000               0.999999992              -0.000197122               0.000000000               0.999999992              -0.000204333               0.000000000               0.999999992              -0.000212502               0.000000000               0.999999992              -0.000221567              -0.000000000               0.999999992              -0.000231547               0.000000000               0.999999992              -0.000242422               0.000000000               0.999999992              -0.000254220               0.000000000               0.999999992              -0.000266984               0.000000000               0.999999992              -0.000280548               0.000000000               0.999999992              -0.000294685               0.000000000               0.999999992              -0.000128744               0.000065879               0.999999992              -0.000153547               0.000057006               0.999999992              -0.000164907               0.000054185               0.999999992              -0.000171451               0.000054730               0.999999992              -0.000176617               0.000057203               0.999999992              -0.000181705               0.000060821               0.999999992              -0.000187234               0.000065061               0.999999992              -0.000193539               0.000069884               0.999999992              -0.000200747               0.000075070               0.999999992              -0.000208889               0.000080447               0.999999992              -0.000217955               0.000085976               0.999999992              -0.000227921               0.000091604               0.999999992              -0.000238764               0.000097275               0.999999992              -0.000250500               0.000102930               0.999999992              -0.000263078               0.000108355               0.999999992              -0.000276407               0.000113273               0.999999992              -0.000290297               0.000117020               0.999999992              -0.000126336               0.000131005               0.999999992              -0.000147213               0.000113468               0.999999992              -0.000156427               0.000108192               0.999999992              -0.000161914               0.000109572               0.999999992              -0.000166668               0.000114671               0.999999992              -0.000171676               0.000121875               0.999999992              -0.000177312               0.000130369               0.999999992              -0.000183841               0.000139927               0.999999992              -0.000191298               0.000150274               0.999999992              -0.000199674               0.000161087               0.999999992              -0.000208985               0.000172081               0.999999992              -0.000219206               0.000183260               0.999999992              -0.000230246               0.000194592               0.999999992              -0.000242054               0.000205813               0.999999992              -0.000254483               0.000216591               0.999999992              -0.000267446               0.000226561               0.999999992              -0.000280832               0.000235120               0.999999992              -0.000122515               0.000194643               0.999999992              -0.000137230               0.000168843               0.999999992              -0.000143378               0.000161798               0.999999992              -0.000147604               0.000164449               0.999999992              -0.000151998               0.000172426               0.999999992              -0.000157148               0.000183330               0.999999992              -0.000163217               0.000196184               0.999999992              -0.000170301               0.000210553               0.999999992              -0.000178383               0.000225933               0.999999992              -0.000187385               0.000241921               0.999999992              -0.000197232               0.000258264               0.999999992              -0.000207857               0.000274983               0.999999992              -0.000219150               0.000291869               0.999999992              -0.000231049               0.000308563               0.999999992              -0.000243400               0.000324794               0.999999992              -0.000256018               0.000340098               0.999999992              -0.000268830               0.000353940               0.999999992              -0.000117475               0.000256165               0.999999992              -0.000124339               0.000222686               0.999999992              -0.000127145               0.000214715               0.999999992              -0.000130322               0.000219156               0.999999992              -0.000134705               0.000230223               0.999999992              -0.000140366               0.000245109               0.999999992              -0.000147195               0.000262481               0.999999992              -0.000155229               0.000281615               0.999999992              -0.000164293               0.000301889               0.999999992              -0.000174140               0.000322888               0.999999992              -0.000184682               0.000344417               0.999999992              -0.000195825               0.000366533               0.999999992              -0.000207417               0.000388858               0.999999992              -0.000219337               0.000410974               0.999999992              -0.000231478               0.000432613               0.999999992              -0.000243742               0.000453383               0.999999992              -0.000256148               0.000473030               0.999999992              -0.000111290               0.000314954               0.999999992              -0.000109116               0.000274837               0.999999992              -0.000108859               0.000266816               0.999999992              -0.000111495               0.000273589               0.999999992              -0.000116376               0.000288045               0.999999992              -0.000123088               0.000306991               0.999999992              -0.000131295               0.000328785               0.999999992              -0.000140691               0.000352448               0.999999992              -0.000150954               0.000377394               0.999999992              -0.000161805               0.000403276               0.999999992              -0.000173185               0.000429871               0.999999992              -0.000184941               0.000457047               0.999999992              -0.000196908               0.000484494               0.999999992              -0.000209026               0.000511618               0.999999992              -0.000221188               0.000538285               0.999999992              -0.000233405               0.000564278               0.999999992              -0.000245670               0.000589601               0.999999992              -0.000103984               0.000370392               0.999999992              -0.000092355               0.000325179               0.999999992              -0.000089871               0.000317838               0.999999992              -0.000092841               0.000327194               0.999999992              -0.000099030               0.000345064               0.999999992              -0.000107361               0.000367898               0.999999992              -0.000117196               0.000393994               0.999999992              -0.000128041               0.000422081               0.999999992              -0.000139567               0.000451580               0.999999992              -0.000151548               0.000482035               0.999999992              -0.000163840               0.000513355               0.999999992              -0.000176268               0.000545315               0.999999992              -0.000188743               0.000577328               0.999999992              -0.000201133               0.000608941               0.999999992              -0.000213434               0.000640175               0.999999992              -0.000225568               0.000670805               0.999999992              -0.000237416               0.000700753               0.999999992              -0.000095640               0.000421935               0.999999992              -0.000075130               0.000373506               0.999999992              -0.000071587               0.000367277               0.999999992              -0.000075806               0.000379188               0.999999992              -0.000083760               0.000400355               0.999999992              -0.000093879               0.000427058               0.999999992              -0.000105428               0.000457403               0.999999992              -0.000117826               0.000489704               0.999999992              -0.000130625               0.000523430               0.999999992              -0.000143610               0.000558342               0.999999992              -0.000156673               0.000594090               0.999999992              -0.000169648               0.000630269               0.999999992              -0.000182399               0.000666391               0.999999992              -0.000194851               0.000702096               0.999999992              -0.000206956               0.000737374               0.999999992              -0.000218682               0.000772142               0.999999992              -0.000229936               0.000806053               0.999999992              -0.000086944               0.000468600               0.999999992              -0.000058153               0.000419724               0.999999992              -0.000055054               0.000414646               0.999999992              -0.000061045               0.000428934               0.999999992              -0.000071011               0.000453320               0.999999992              -0.000083081               0.000483787               0.999999992              -0.000096381               0.000518091               0.999999992              -0.000110097               0.000554552               0.999999992              -0.000123827               0.000592530               0.999999992              -0.000137549               0.000631617               0.999999992              -0.000151056               0.000671440               0.999999992              -0.000164205               0.000711471               0.999999992              -0.000176896               0.000751256               0.999999992              -0.000189071               0.000790707               0.999999992              -0.000200909               0.000829723               0.999999992              -0.000212425               0.000868071               0.999999992              -0.000223699               0.000905680               0.999999992              -0.000078711               0.000512008               0.999999992              -0.000045100               0.000468519               0.999999992              -0.000039531               0.000459720               0.999999992              -0.000044089               0.000469320               0.999999992              -0.000053040               0.000489173               0.999999992              -0.000063893               0.000515465               0.999999992              -0.000076090               0.000545943               0.999999992              -0.000088697               0.000579151               0.999999992              -0.000101051               0.000613995               0.999999992              -0.000113299               0.000650078               0.999999992              -0.000125316               0.000687063               0.999999992              -0.000137062               0.000724535               0.999999992              -0.000148354               0.000762173               0.999999992              -0.000159098               0.000799710               0.999999992              -0.000169397               0.000837075               0.999999992              -0.000179472               0.000874184               0.999999992              -0.000189616               0.000910718               0.999999992              -0.000069386               0.000551176               0.999999992              -0.000034030               0.000514976               0.999999992              -0.000026013               0.000505170               0.999999992              -0.000028713               0.000511289               0.999999992              -0.000036190               0.000527332               0.999999992              -0.000045760               0.000549787               0.999999992              -0.000056474               0.000576703               0.999999992              -0.000067740               0.000606687               0.999999992              -0.000078790               0.000638580               0.999999992              -0.000089428               0.000671914               0.999999992              -0.000099880               0.000706176               0.999999992              -0.000110145               0.000741096               0.999999992              -0.000119878               0.000776323               0.999999992              -0.000128981               0.000811683               0.999999992              -0.000137393               0.000846991               0.999999992              -0.000145416               0.000882337               0.999999992              -0.000153300               0.000917590               0.999999992              -0.000059290               0.000585287               0.999999992              -0.000024850               0.000557981               0.999999992              -0.000015118               0.000549112               0.999999992              -0.000015885               0.000553312               0.999999992              -0.000021586               0.000566442               0.999999992              -0.000029490               0.000585868               0.999999992              -0.000038512               0.000609710               0.999999992              -0.000048122               0.000636821               0.999999992              -0.000057607               0.000666132               0.999999992              -0.000066764               0.000696915               0.999999992              -0.000075708               0.000728745               0.999999992              -0.000084396               0.000761339               0.999999992              -0.000092495               0.000794482               0.999999992              -0.000099646               0.000827910               0.999999992              -0.000105848               0.000861396               0.999999992              -0.000110995               0.000894925               0.999999992              -0.000115450               0.000928585               0.999999992              -0.000048462               0.000613876               0.999999992              -0.000017484               0.000596011               0.999999992              -0.000007162               0.000589532               0.999999992              -0.000006360               0.000593143               0.999999992              -0.000010210               0.000604449               0.999999992              -0.000016297               0.000621577               0.999999992              -0.000023375               0.000643125               0.999999992              -0.000031061               0.000667936               0.999999992              -0.000038880               0.000695124               0.999999992              -0.000046488               0.000723892               0.999999992              -0.000053852               0.000753858               0.999999992              -0.000060815               0.000784691               0.999999992              -0.000067102               0.000816198               0.999999992              -0.000072354               0.000848227               0.999999992              -0.000076287               0.000880430               0.999999992              -0.000078558               0.000912673               0.999999992              -0.000079082               0.000945051               0.999999992              -0.000036929               0.000636560               0.999999992              -0.000011725               0.000627496               0.999999992              -0.000002179               0.000624205               0.999999992              -0.000000451               0.000628251               0.999999992              -0.000002722               0.000638701               0.999999992              -0.000006891               0.000654359               0.999999992              -0.000011994               0.000674245               0.999999992              -0.000017716               0.000697424               0.999999992              -0.000023637               0.000723066               0.999999992              -0.000029473               0.000750502               0.999999992              -0.000035144               0.000779263               0.999999992              -0.000040381               0.000809013               0.999999992              -0.000044963               0.000839566               0.999999992              -0.000048490               0.000870741               0.999999992              -0.000050523               0.000902234               0.999999992              -0.000050600               0.000933848               0.999999992              -0.000048023               0.000965562               0.999999992              -0.000024906               0.000652815               0.999999992              -0.000007188               0.000650970               0.999999992               0.000000174               0.000650955               0.999999992               0.000002023               0.000655975               0.999999992               0.000000928               0.000666251               0.999999992              -0.000001584               0.000681129               0.999999992              -0.000004826               0.000699927               0.999999992              -0.000008497               0.000721942               0.999999992              -0.000012462               0.000746574               0.999999992              -0.000016458               0.000773120               0.999999992              -0.000020414               0.000801159               0.999999992              -0.000024027               0.000830375               0.999999992              -0.000027006               0.000860510               0.999999992              -0.000029055               0.000891452               0.999999992              -0.000029803               0.000922947               0.999999992              -0.000028633               0.000954667               0.999999992              -0.000024855               0.000986440               0.999999992              -0.000012544               0.000662585               0.999999992              -0.000003400               0.000665400               0.999999992               0.000000578               0.000667822               0.999999992               0.000001783               0.000673810               0.999999992               0.000001363               0.000684247               0.999999992               0.000000238               0.000698825               0.999999992              -0.000001302               0.000717045               0.999999992              -0.000003078               0.000738349               0.999999992              -0.000005109               0.000762178               0.999999992              -0.000007138               0.000788101               0.999999992              -0.000009178               0.000815744               0.999999992              -0.000011105               0.000844802               0.999999992              -0.000012624               0.000875103               0.999999992              -0.000013497               0.000906338               0.999999992              -0.000013525               0.000938234               0.999999992              -0.000012381               0.000970455               0.999999992              -0.000009611               0.001002647               0.999999992               0.000000000               0.000665886               0.999999992              -0.000000000               0.000670273               0.999999992               0.000000000               0.000673576               0.999999992              -0.000000000               0.000679949               0.999999992               0.000000000               0.000690462               0.999999992               0.000000000               0.000705011               0.999999992               0.000000000               0.000723030               0.999999992               0.000000000               0.000744047               0.999999992               0.000000000               0.000767614               0.999999992              -0.000000000               0.000793313               0.999999992              -0.000000000               0.000820832               0.999999992              -0.000000000               0.000849874               0.999999992               0.000000000               0.000880245               0.999999992              -0.000000000               0.000911739               0.999999992              -0.000000000               0.000943928               0.999999992              -0.000000000               0.000976390               0.999999992               0.000000000               0.001008790               0.999999992              -0.000129534               0.000000000               0.999999992              -0.000155685               0.000000000               0.999999992              -0.000167833               0.000000000               0.999999992              -0.000174742               0.000000000               0.999999992              -0.000180066              -0.000000000               0.999999992              -0.000185260              -0.000000000               0.999999992              -0.000190820              -0.000000000               0.999999992              -0.000197122               0.000000000               0.999999992              -0.000204333               0.000000000               0.999999992              -0.000212502               0.000000000               0.999999992              -0.000221567              -0.000000000               0.999999992              -0.000231547               0.000000000               0.999999992              -0.000242422               0.000000000               0.999999992              -0.000254220               0.000000000               0.999999992              -0.000266984               0.000000000               0.999999992              -0.000280548               0.000000000               0.999999992              -0.000294685               0.000000000               0.999999992              -0.000128744              -0.000065879               0.999999992              -0.000153547              -0.000057006               0.999999992              -0.000164907              -0.000054185               0.999999992              -0.000171451              -0.000054730               0.999999992              -0.000176617              -0.000057203               0.999999992              -0.000181705              -0.000060821               0.999999992              -0.000187234              -0.000065061               0.999999992              -0.000193539              -0.000069884               0.999999992              -0.000200747              -0.000075070               0.999999992              -0.000208889              -0.000080447               0.999999992              -0.000217955              -0.000085976               0.999999992              -0.000227921              -0.000091604               0.999999992              -0.000238764              -0.000097275               0.999999992              -0.000250500              -0.000102930               0.999999992              -0.000263078              -0.000108355               0.999999992              -0.000276407              -0.000113273               0.999999992              -0.000290297              -0.000117020               0.999999992              -0.000126336              -0.000131005               0.999999992              -0.000147213              -0.000113468               0.999999992              -0.000156427              -0.000108192               0.999999992              -0.000161914              -0.000109572               0.999999992              -0.000166668              -0.000114671               0.999999992              -0.000171676              -0.000121875               0.999999992              -0.000177312              -0.000130369               0.999999992              -0.000183841              -0.000139927               0.999999992              -0.000191298              -0.000150274               0.999999992              -0.000199674              -0.000161087               0.999999992              -0.000208985              -0.000172081               0.999999992              -0.000219206              -0.000183260               0.999999992              -0.000230246              -0.000194592               0.999999992              -0.000242054              -0.000205813               0.999999992              -0.000254483              -0.000216591               0.999999992              -0.000267446              -0.000226561               0.999999992              -0.000280832              -0.000235120               0.999999992              -0.000122515              -0.000194643               0.999999992              -0.000137230              -0.000168843               0.999999992              -0.000143378              -0.000161798               0.999999992              -0.000147604              -0.000164449               0.999999992              -0.000151998              -0.000172426               0.999999992              -0.000157148              -0.000183330               0.999999992              -0.000163217              -0.000196184               0.999999992              -0.000170301              -0.000210553               0.999999992              -0.000178383              -0.000225933               0.999999992              -0.000187385              -0.000241921               0.999999992              -0.000197232              -0.000258264               0.999999992              -0.000207857              -0.000274983               0.999999992              -0.000219150              -0.000291869               0.999999992              -0.000231049              -0.000308563               0.999999992              -0.000243400              -0.000324794               0.999999992              -0.000256018              -0.000340098               0.999999992              -0.000268830              -0.000353940               0.999999992              -0.000117475              -0.000256165               0.999999992              -0.000124339              -0.000222686               0.999999992              -0.000127145              -0.000214715               0.999999992              -0.000130322              -0.000219156               0.999999992              -0.000134705              -0.000230223               0.999999992              -0.000140366              -0.000245109               0.999999992              -0.000147195              -0.000262481               0.999999992              -0.000155229              -0.000281615               0.999999992              -0.000164293              -0.000301889               0.999999992              -0.000174140              -0.000322888               0.999999992              -0.000184682              -0.000344417               0.999999992              -0.000195825              -0.000366533               0.999999992              -0.000207417              -0.000388858               0.999999992              -0.000219337              -0.000410974               0.999999992              -0.000231478              -0.000432613               0.999999992              -0.000243742              -0.000453383               0.999999992              -0.000256148              -0.000473030               0.999999992              -0.000111290              -0.000314954               0.999999992              -0.000109116              -0.000274837               0.999999992              -0.000108859              -0.000266816               0.999999992              -0.000111495              -0.000273589               0.999999992              -0.000116376              -0.000288045               0.999999992              -0.000123088              -0.000306991               0.999999992              -0.000131295              -0.000328785               0.999999992              -0.000140691              -0.000352448               0.999999992              -0.000150954              -0.000377394               0.999999992              -0.000161805              -0.000403276               0.999999992              -0.000173185              -0.000429871               0.999999992              -0.000184941              -0.000457047               0.999999992              -0.000196908              -0.000484494               0.999999992              -0.000209026              -0.000511618               0.999999992              -0.000221188              -0.000538285               0.999999992              -0.000233405              -0.000564278               0.999999992              -0.000245670              -0.000589601               0.999999992              -0.000103984              -0.000370392               0.999999992              -0.000092355              -0.000325179               0.999999992              -0.000089871              -0.000317838               0.999999992              -0.000092841              -0.000327194               0.999999992              -0.000099030              -0.000345064               0.999999992              -0.000107361              -0.000367898               0.999999992              -0.000117196              -0.000393994               0.999999992              -0.000128041              -0.000422081               0.999999992              -0.000139567              -0.000451580               0.999999992              -0.000151548              -0.000482035               0.999999992              -0.000163840              -0.000513355               0.999999992              -0.000176268              -0.000545315               0.999999992              -0.000188743              -0.000577328               0.999999992              -0.000201133              -0.000608941               0.999999992              -0.000213434              -0.000640175               0.999999992              -0.000225568              -0.000670805               0.999999992              -0.000237416              -0.000700753               0.999999992              -0.000095640              -0.000421935               0.999999992              -0.000075130              -0.000373506               0.999999992              -0.000071587              -0.000367277               0.999999992              -0.000075806              -0.000379188               0.999999992              -0.000083760              -0.000400355               0.999999992              -0.000093879              -0.000427058               0.999999992              -0.000105428              -0.000457403               0.999999992              -0.000117826              -0.000489704               0.999999992              -0.000130625              -0.000523430               0.999999992              -0.000143610              -0.000558342               0.999999992              -0.000156673              -0.000594090               0.999999992              -0.000169648              -0.000630269               0.999999992              -0.000182399              -0.000666391               0.999999992              -0.000194851              -0.000702096               0.999999992              -0.000206956              -0.000737374               0.999999992              -0.000218682              -0.000772142               0.999999992              -0.000229936              -0.000806053               0.999999992              -0.000086944              -0.000468600               0.999999992              -0.000058153              -0.000419724               0.999999992              -0.000055054              -0.000414646               0.999999992              -0.000061045              -0.000428934               0.999999992              -0.000071011              -0.000453320               0.999999992              -0.000083081              -0.000483787               0.999999992              -0.000096381              -0.000518091               0.999999992              -0.000110097              -0.000554552               0.999999992              -0.000123827              -0.000592530               0.999999992              -0.000137549              -0.000631617               0.999999992              -0.000151056              -0.000671440               0.999999992              -0.000164205              -0.000711471               0.999999992              -0.000176896              -0.000751256               0.999999992              -0.000189071              -0.000790707               0.999999992              -0.000200909              -0.000829723               0.999999992              -0.000212425              -0.000868071               0.999999992              -0.000223699              -0.000905680               0.999999992              -0.000078711              -0.000512008               0.999999992              -0.000045100              -0.000468519               0.999999992              -0.000039531              -0.000459720               0.999999992              -0.000044089              -0.000469320               0.999999992              -0.000053040              -0.000489173               0.999999992              -0.000063893              -0.000515465               0.999999992              -0.000076090              -0.000545943               0.999999992              -0.000088697              -0.000579151               0.999999992              -0.000101051              -0.000613995               0.999999992              -0.000113299              -0.000650078               0.999999992              -0.000125316              -0.000687063               0.999999992              -0.000137062              -0.000724535               0.999999992              -0.000148354              -0.000762173               0.999999992              -0.000159098              -0.000799710               0.999999992              -0.000169397              -0.000837075               0.999999992              -0.000179472              -0.000874184               0.999999992              -0.000189616              -0.000910718               0.999999992              -0.000069386              -0.000551176               0.999999992              -0.000034030              -0.000514976               0.999999992              -0.000026013              -0.000505170               0.999999992              -0.000028713              -0.000511289               0.999999992              -0.000036190              -0.000527332               0.999999992              -0.000045760              -0.000549787               0.999999992              -0.000056474              -0.000576703               0.999999992              -0.000067740              -0.000606687               0.999999992              -0.000078790              -0.000638580               0.999999992              -0.000089428              -0.000671914               0.999999992              -0.000099880              -0.000706176               0.999999992              -0.000110145              -0.000741096               0.999999992              -0.000119878              -0.000776323               0.999999992              -0.000128981              -0.000811683               0.999999992              -0.000137393              -0.000846991               0.999999992              -0.000145416              -0.000882337               0.999999992              -0.000153300              -0.000917590               0.999999992              -0.000059290              -0.000585287               0.999999992              -0.000024850              -0.000557981               0.999999992              -0.000015118              -0.000549112               0.999999992              -0.000015885              -0.000553312               0.999999992              -0.000021586              -0.000566442               0.999999992              -0.000029490              -0.000585868               0.999999992              -0.000038512              -0.000609710               0.999999992              -0.000048122              -0.000636821               0.999999992              -0.000057607              -0.000666132               0.999999992              -0.000066764              -0.000696915               0.999999992              -0.000075708              -0.000728745               0.999999992              -0.000084396              -0.000761339               0.999999992              -0.000092495              -0.000794482               0.999999992              -0.000099646              -0.000827910               0.999999992              -0.000105848              -0.000861396               0.999999992              -0.000110995              -0.000894925               0.999999992              -0.000115450              -0.000928585               0.999999992              -0.000048462              -0.000613876               0.999999992              -0.000017484              -0.000596011               0.999999992              -0.000007162              -0.000589532               0.999999992              -0.000006360              -0.000593143               0.999999992              -0.000010210              -0.000604449               0.999999992              -0.000016297              -0.000621577               0.999999992              -0.000023375              -0.000643125               0.999999992              -0.000031061              -0.000667936               0.999999992              -0.000038880              -0.000695124               0.999999992              -0.000046488              -0.000723892               0.999999992              -0.000053852              -0.000753858               0.999999992              -0.000060815              -0.000784691               0.999999992              -0.000067102              -0.000816198               0.999999992              -0.000072354              -0.000848227               0.999999992              -0.000076287              -0.000880430               0.999999992              -0.000078558              -0.000912673               0.999999992              -0.000079082              -0.000945051               0.999999992              -0.000036929              -0.000636560               0.999999992              -0.000011725              -0.000627496               0.999999992              -0.000002179              -0.000624205               0.999999992              -0.000000451              -0.000628251               0.999999992              -0.000002722              -0.000638701               0.999999992              -0.000006891              -0.000654359               0.999999992              -0.000011994              -0.000674245               0.999999992              -0.000017716              -0.000697424               0.999999992              -0.000023637              -0.000723066               0.999999992              -0.000029473              -0.000750502               0.999999992              -0.000035144              -0.000779263               0.999999992              -0.000040381              -0.000809013               0.999999992              -0.000044963              -0.000839566               0.999999992              -0.000048490              -0.000870741               0.999999992              -0.000050523              -0.000902234               0.999999992              -0.000050600              -0.000933848               0.999999992              -0.000048023              -0.000965562               0.999999992              -0.000024906              -0.000652815               0.999999992              -0.000007188              -0.000650970               0.999999992               0.000000174              -0.000650955               0.999999992               0.000002023              -0.000655975               0.999999992               0.000000928              -0.000666251               0.999999992              -0.000001584              -0.000681129               0.999999992              -0.000004826              -0.000699927               0.999999992              -0.000008497              -0.000721942               0.999999992              -0.000012462              -0.000746574               0.999999992              -0.000016458              -0.000773120               0.999999992              -0.000020414              -0.000801159               0.999999992              -0.000024027              -0.000830375               0.999999992              -0.000027006              -0.000860510               0.999999992              -0.000029055              -0.000891452               0.999999992              -0.000029803              -0.000922947               0.999999992              -0.000028633              -0.000954667               0.999999992              -0.000024855              -0.000986440               0.999999992              -0.000012544              -0.000662585               0.999999992              -0.000003400              -0.000665400               0.999999992               0.000000578              -0.000667822               0.999999992               0.000001783              -0.000673810               0.999999992               0.000001363              -0.000684247               0.999999992               0.000000238              -0.000698825               0.999999992              -0.000001302              -0.000717045               0.999999992              -0.000003078              -0.000738349               0.999999992              -0.000005109              -0.000762178               0.999999992              -0.000007138              -0.000788101               0.999999992              -0.000009178              -0.000815744               0.999999992              -0.000011105              -0.000844802               0.999999992              -0.000012624              -0.000875103               0.999999992              -0.000013497              -0.000906338               0.999999992              -0.000013525              -0.000938234               0.999999992              -0.000012381              -0.000970455               0.999999992              -0.000009611              -0.001002647               0.999999992               0.000000000              -0.000665886               0.999999992              -0.000000000              -0.000670273               0.999999992              -0.000000000              -0.000673576               0.999999992               0.000000000              -0.000679949               0.999999992              -0.000000000              -0.000690462               0.999999992              -0.000000000              -0.000705011               0.999999992              -0.000000000              -0.000723030               0.999999992              -0.000000000              -0.000744047               0.999999992              -0.000000000              -0.000767614               0.999999992               0.000000000              -0.000793313               0.999999992              -0.000000000              -0.000820832               0.999999992              -0.000000000              -0.000849874               0.999999992               0.000000000              -0.000880245               0.999999992               0.000000000              -0.000911739               0.999999992              -0.000000000              -0.000943928               0.999999992              -0.000000000              -0.000976390               0.999999992               0.000000000              -0.001008790               0.999999992               0.000129534              -0.000000000               0.999999992               0.000155685              -0.000000000               0.999999992               0.000167833              -0.000000000               0.999999992               0.000174742               0.000000000               0.999999992               0.000180066               0.000000000               0.999999992               0.000185260              -0.000000000               0.999999992               0.000190820               0.000000000               0.999999992               0.000197122              -0.000000000               0.999999992               0.000204333               0.000000000               0.999999992               0.000212502               0.000000000               0.999999992               0.000221567              -0.000000000               0.999999992               0.000231547              -0.000000000               0.999999992               0.000242422               0.000000000               0.999999992               0.000254220               0.000000000               0.999999992               0.000266984               0.000000000               0.999999992               0.000280548               0.000000000               0.999999992               0.000294685               0.000000000               0.999999992               0.000128744              -0.000065879               0.999999992               0.000153547              -0.000057006               0.999999992               0.000164907              -0.000054185               0.999999992               0.000171451              -0.000054730               0.999999992               0.000176617              -0.000057203               0.999999992               0.000181705              -0.000060821               0.999999992               0.000187234              -0.000065061               0.999999992               0.000193539              -0.000069884               0.999999992               0.000200747              -0.000075070               0.999999992               0.000208889              -0.000080447               0.999999992               0.000217955              -0.000085976               0.999999992               0.000227921              -0.000091604               0.999999992               0.000238764              -0.000097275               0.999999992               0.000250500              -0.000102930               0.999999992               0.000263078              -0.000108355               0.999999992               0.000276407              -0.000113273               0.999999992               0.000290297              -0.000117020               0.999999992               0.000126336              -0.000131005               0.999999992               0.000147213              -0.000113468               0.999999992               0.000156427              -0.000108192               0.999999992               0.000161914              -0.000109572               0.999999992               0.000166668              -0.000114671               0.999999992               0.000171676              -0.000121875               0.999999992               0.000177312              -0.000130369               0.999999992               0.000183841              -0.000139927               0.999999992               0.000191298              -0.000150274               0.999999992               0.000199674              -0.000161087               0.999999992               0.000208985              -0.000172081               0.999999992               0.000219206              -0.000183260               0.999999992               0.000230246              -0.000194592               0.999999992               0.000242054              -0.000205813               0.999999992               0.000254483              -0.000216591               0.999999992               0.000267446              -0.000226561               0.999999992               0.000280832              -0.000235120               0.999999992               0.000122515              -0.000194643               0.999999992               0.000137230              -0.000168843               0.999999992               0.000143378              -0.000161798               0.999999992               0.000147604              -0.000164449               0.999999992               0.000151998              -0.000172426               0.999999992               0.000157148              -0.000183330               0.999999992               0.000163217              -0.000196184               0.999999992               0.000170301              -0.000210553               0.999999992               0.000178383              -0.000225933               0.999999992               0.000187385              -0.000241921               0.999999992               0.000197232              -0.000258264               0.999999992               0.000207857              -0.000274983               0.999999992               0.000219150              -0.000291869               0.999999992               0.000231049              -0.000308563               0.999999992               0.000243400              -0.000324794               0.999999992               0.000256018              -0.000340098               0.999999992               0.000268830              -0.000353940               0.999999992               0.000117475              -0.000256165               0.999999992               0.000124339              -0.000222686               0.999999992               0.000127145              -0.000214715               0.999999992               0.000130322              -0.000219156               0.999999992               0.000134705              -0.000230223               0.999999992               0.000140366              -0.000245109               0.999999992               0.000147195              -0.000262481               0.999999992               0.000155229              -0.000281615               0.999999992               0.000164293              -0.000301889               0.999999992               0.000174140              -0.000322888               0.999999992               0.000184682              -0.000344417               0.999999992               0.000195825              -0.000366533               0.999999992               0.000207417              -0.000388858               0.999999992               0.000219337              -0.000410974               0.999999992               0.000231478              -0.000432613               0.999999992               0.000243742              -0.000453383               0.999999992               0.000256148              -0.000473030               0.999999992               0.000111290              -0.000314954               0.999999992               0.000109116              -0.000274837               0.999999992               0.000108859              -0.000266816               0.999999992               0.000111495              -0.000273589               0.999999992               0.000116376              -0.000288045               0.999999992               0.000123088              -0.000306991               0.999999992               0.000131295              -0.000328785               0.999999992               0.000140691              -0.000352448               0.999999992               0.000150954              -0.000377394               0.999999992               0.000161805              -0.000403276               0.999999992               0.000173185              -0.000429871               0.999999992               0.000184941              -0.000457047               0.999999992               0.000196908              -0.000484494               0.999999992               0.000209026              -0.000511618               0.999999992               0.000221188              -0.000538285               0.999999992               0.000233405              -0.000564278               0.999999992               0.000245670              -0.000589601               0.999999992               0.000103984              -0.000370392               0.999999992               0.000092355              -0.000325179               0.999999992               0.000089871              -0.000317838               0.999999992               0.000092841              -0.000327194               0.999999992               0.000099030              -0.000345064               0.999999992               0.000107361              -0.000367898               0.999999992               0.000117196              -0.000393994               0.999999992               0.000128041              -0.000422081               0.999999992               0.000139567              -0.000451580               0.999999992               0.000151548              -0.000482035               0.999999992               0.000163840              -0.000513355               0.999999992               0.000176268              -0.000545315               0.999999992               0.000188743              -0.000577328               0.999999992               0.000201133              -0.000608941               0.999999992               0.000213434              -0.000640175               0.999999992               0.000225568              -0.000670805               0.999999992               0.000237416              -0.000700753               0.999999992               0.000095640              -0.000421935               0.999999992               0.000075130              -0.000373506               0.999999992               0.000071587              -0.000367277               0.999999992               0.000075806              -0.000379188               0.999999992               0.000083760              -0.000400355               0.999999992               0.000093879              -0.000427058               0.999999992               0.000105428              -0.000457403               0.999999992               0.000117826              -0.000489704               0.999999992               0.000130625              -0.000523430               0.999999992               0.000143610              -0.000558342               0.999999992               0.000156673              -0.000594090               0.999999992               0.000169648              -0.000630269               0.999999992               0.000182399              -0.000666391               0.999999992               0.000194851              -0.000702096               0.999999992               0.000206956              -0.000737374               0.999999992               0.000218682              -0.000772142               0.999999992               0.000229936              -0.000806053               0.999999992               0.000086944              -0.000468600               0.999999992               0.000058153              -0.000419724               0.999999992               0.000055054              -0.000414646               0.999999992               0.000061045              -0.000428934               0.999999992               0.000071011              -0.000453320               0.999999992               0.000083081              -0.000483787               0.999999992               0.000096381              -0.000518091               0.999999992               0.000110097              -0.000554552               0.999999992               0.000123827              -0.000592530               0.999999992               0.000137549              -0.000631617               0.999999992               0.000151056              -0.000671440               0.999999992               0.000164205              -0.000711471               0.999999992               0.000176896              -0.000751256               0.999999992               0.000189071              -0.000790707               0.999999992               0.000200909              -0.000829723               0.999999992               0.000212425              -0.000868071               0.999999992               0.000223699              -0.000905680               0.999999992               0.000078711              -0.000512008               0.999999992               0.000045100              -0.000468519               0.999999992               0.000039531              -0.000459720               0.999999992               0.000044089              -0.000469320               0.999999992               0.000053040              -0.000489173               0.999999992               0.000063893              -0.000515465               0.999999992               0.000076090              -0.000545943               0.999999992               0.000088697              -0.000579151               0.999999992               0.000101051              -0.000613995               0.999999992               0.000113299              -0.000650078               0.999999992               0.000125316              -0.000687063               0.999999992               0.000137062              -0.000724535               0.999999992               0.000148354              -0.000762173               0.999999992               0.000159098              -0.000799710               0.999999992               0.000169397              -0.000837075               0.999999992               0.000179472              -0.000874184               0.999999992               0.000189616              -0.000910718               0.999999992               0.000069386              -0.000551176               0.999999992               0.000034030              -0.000514976               0.999999992               0.000026013              -0.000505170               0.999999992               0.000028713              -0.000511289               0.999999992               0.000036190              -0.000527332               0.999999992               0.000045760              -0.000549787               0.999999992               0.000056474              -0.000576703               0.999999992               0.000067740              -0.000606687               0.999999992               0.000078790              -0.000638580               0.999999992               0.000089428              -0.000671914               0.999999992               0.000099880              -0.000706176               0.999999992               0.000110145              -0.000741096               0.999999992               0.000119878              -0.000776323               0.999999992               0.000128981              -0.000811683               0.999999992               0.000137393              -0.000846991               0.999999992               0.000145416              -0.000882337               0.999999992               0.000153300              -0.000917590               0.999999992               0.000059290              -0.000585287               0.999999992               0.000024850              -0.000557981               0.999999992               0.000015118              -0.000549112               0.999999992               0.000015885              -0.000553312               0.999999992               0.000021586              -0.000566442               0.999999992               0.000029490              -0.000585868               0.999999992               0.000038512              -0.000609710               0.999999992               0.000048122              -0.000636821               0.999999992               0.000057607              -0.000666132               0.999999992               0.000066764              -0.000696915               0.999999992               0.000075708              -0.000728745               0.999999992               0.000084396              -0.000761339               0.999999992               0.000092495              -0.000794482               0.999999992               0.000099646              -0.000827910               0.999999992               0.000105848              -0.000861396               0.999999992               0.000110995              -0.000894925               0.999999992               0.000115450              -0.000928585               0.999999992               0.000048462              -0.000613876               0.999999992               0.000017484              -0.000596011               0.999999992               0.000007162              -0.000589532               0.999999992               0.000006360              -0.000593143               0.999999992               0.000010210              -0.000604449               0.999999992               0.000016297              -0.000621577               0.999999992               0.000023375              -0.000643125               0.999999992               0.000031061              -0.000667936               0.999999992               0.000038880              -0.000695124               0.999999992               0.000046488              -0.000723892               0.999999992               0.000053852              -0.000753858               0.999999992               0.000060815              -0.000784691               0.999999992               0.000067102              -0.000816198               0.999999992               0.000072354              -0.000848227               0.999999992               0.000076287              -0.000880430               0.999999992               0.000078558              -0.000912673               0.999999992               0.000079082              -0.000945051               0.999999992               0.000036929              -0.000636560               0.999999992               0.000011725              -0.000627496               0.999999992               0.000002179              -0.000624205               0.999999992               0.000000451              -0.000628251               0.999999992               0.000002722              -0.000638701               0.999999992               0.000006891              -0.000654359               0.999999992               0.000011994              -0.000674245               0.999999992               0.000017716              -0.000697424               0.999999992               0.000023637              -0.000723066               0.999999992               0.000029473              -0.000750502               0.999999992               0.000035144              -0.000779263               0.999999992               0.000040381              -0.000809013               0.999999992               0.000044963              -0.000839566               0.999999992               0.000048490              -0.000870741               0.999999992               0.000050523              -0.000902234               0.999999992               0.000050600              -0.000933848               0.999999992               0.000048023              -0.000965562               0.999999992               0.000024906              -0.000652815               0.999999992               0.000007188              -0.000650970               0.999999992              -0.000000174              -0.000650955               0.999999992              -0.000002023              -0.000655975               0.999999992              -0.000000928              -0.000666251               0.999999992               0.000001584              -0.000681129               0.999999992               0.000004826              -0.000699927               0.999999992               0.000008497              -0.000721942               0.999999992               0.000012462              -0.000746574               0.999999992               0.000016458              -0.000773120               0.999999992               0.000020414              -0.000801159               0.999999992               0.000024027              -0.000830375               0.999999992               0.000027006              -0.000860510               0.999999992               0.000029055              -0.000891452               0.999999992               0.000029803              -0.000922947               0.999999992               0.000028633              -0.000954667               0.999999992               0.000024855              -0.000986440               0.999999992               0.000012544              -0.000662585               0.999999992               0.000003400              -0.000665400               0.999999992              -0.000000578              -0.000667822               0.999999992              -0.000001783              -0.000673810               0.999999992              -0.000001363              -0.000684247               0.999999992              -0.000000238              -0.000698825               0.999999992               0.000001302              -0.000717045               0.999999992               0.000003078              -0.000738349               0.999999992               0.000005109              -0.000762178               0.999999992               0.000007138              -0.000788101               0.999999992               0.000009178              -0.000815744               0.999999992               0.000011105              -0.000844802               0.999999992               0.000012624              -0.000875103               0.999999992               0.000013497              -0.000906338               0.999999992               0.000013525              -0.000938234               0.999999992               0.000012381              -0.000970455               0.999999992               0.000009611              -0.001002647               0.999999992               0.000000000              -0.000665886               0.999999992              -0.000000000              -0.000670273               0.999999992              -0.000000000              -0.000673576               0.999999992               0.000000000              -0.000679949               0.999999992              -0.000000000              -0.000690462               0.999999992              -0.000000000              -0.000705011               0.999999992              -0.000000000              -0.000723030               0.999999992              -0.000000000              -0.000744047               0.999999992              -0.000000000              -0.000767614               0.999999992               0.000000000              -0.000793313               0.999999992              -0.000000000              -0.000820832               0.999999992              -0.000000000              -0.000849874               0.999999992               0.000000000              -0.000880245               0.999999992               0.000000000              -0.000911739               0.999999992              -0.000000000              -0.000943928               0.999999992              -0.000000000              -0.000976390               0.999999992               0.000000000              -0.001008790               0.999999992               0.000129534              -0.000000000               0.999999992               0.000155685              -0.000000000               0.999999992               0.000167833              -0.000000000               0.999999992               0.000174742               0.000000000               0.999999992               0.000180066               0.000000000               0.999999992               0.000185260              -0.000000000               0.999999992               0.000190820               0.000000000               0.999999992               0.000197122              -0.000000000               0.999999992               0.000204333               0.000000000               0.999999992               0.000212502               0.000000000               0.999999992               0.000221567              -0.000000000               0.999999992               0.000231547              -0.000000000               0.999999992               0.000242422               0.000000000               0.999999992               0.000254220               0.000000000               0.999999992               0.000266984               0.000000000               0.999999992               0.000280548               0.000000000               0.999999992               0.000294685               0.000000000               0.999999992               0.000128744               0.000065879               0.999999992               0.000153547               0.000057006               0.999999992               0.000164907               0.000054185               0.999999992               0.000171451               0.000054730               0.999999992               0.000176617               0.000057203               0.999999992               0.000181705               0.000060821               0.999999992               0.000187234               0.000065061               0.999999992               0.000193539               0.000069884               0.999999992               0.000200747               0.000075070               0.999999992               0.000208889               0.000080447               0.999999992               0.000217955               0.000085976               0.999999992               0.000227921               0.000091604               0.999999992               0.000238764               0.000097275               0.999999992               0.000250500               0.000102930               0.999999992               0.000263078               0.000108355               0.999999992               0.000276407               0.000113273               0.999999992               0.000290297               0.000117020               0.999999992               0.000126336               0.000131005               0.999999992               0.000147213               0.000113468               0.999999992               0.000156427               0.000108192               0.999999992               0.000161914               0.000109572               0.999999992               0.000166668               0.000114671               0.999999992               0.000171676               0.000121875               0.999999992               0.000177312               0.000130369               0.999999992               0.000183841               0.000139927               0.999999992               0.000191298               0.000150274               0.999999992               0.000199674               0.000161087               0.999999992               0.000208985               0.000172081               0.999999992               0.000219206               0.000183260               0.999999992               0.000230246               0.000194592               0.999999992               0.000242054               0.000205813               0.999999992               0.000254483               0.000216591               0.999999992               0.000267446               0.000226561               0.999999992               0.000280832               0.000235120               0.999999992               0.000122515               0.000194643               0.999999992               0.000137230               0.000168843               0.999999992               0.000143378               0.000161798               0.999999992               0.000147604               0.000164449               0.999999992               0.000151998               0.000172426               0.999999992               0.000157148               0.000183330               0.999999992               0.000163217               0.000196184               0.999999992               0.000170301               0.000210553               0.999999992               0.000178383               0.000225933               0.999999992               0.000187385               0.000241921               0.999999992               0.000197232               0.000258264               0.999999992               0.000207857               0.000274983               0.999999992               0.000219150               0.000291869               0.999999992               0.000231049               0.000308563               0.999999992               0.000243400               0.000324794               0.999999992               0.000256018               0.000340098               0.999999992               0.000268830               0.000353940               0.999999992               0.000117475               0.000256165               0.999999992               0.000124339               0.000222686               0.999999992               0.000127145               0.000214715               0.999999992               0.000130322               0.000219156               0.999999992               0.000134705               0.000230223               0.999999992               0.000140366               0.000245109               0.999999992               0.000147195               0.000262481               0.999999992               0.000155229               0.000281615               0.999999992               0.000164293               0.000301889               0.999999992               0.000174140               0.000322888               0.999999992               0.000184682               0.000344417               0.999999992               0.000195825               0.000366533               0.999999992               0.000207417               0.000388858               0.999999992               0.000219337               0.000410974               0.999999992               0.000231478               0.000432613               0.999999992               0.000243742               0.000453383               0.999999992               0.000256148               0.000473030               0.999999992               0.000111290               0.000314954               0.999999992               0.000109116               0.000274837               0.999999992               0.000108859               0.000266816               0.999999992               0.000111495               0.000273589               0.999999992               0.000116376               0.000288045               0.999999992               0.000123088               0.000306991               0.999999992               0.000131295               0.000328785               0.999999992               0.000140691               0.000352448               0.999999992               0.000150954               0.000377394               0.999999992               0.000161805               0.000403276               0.999999992               0.000173185               0.000429871               0.999999992               0.000184941               0.000457047               0.999999992               0.000196908               0.000484494               0.999999992               0.000209026               0.000511618               0.999999992               0.000221188               0.000538285               0.999999992               0.000233405               0.000564278               0.999999992               0.000245670               0.000589601               0.999999992               0.000103984               0.000370392               0.999999992               0.000092355               0.000325179               0.999999992               0.000089871               0.000317838               0.999999992               0.000092841               0.000327194               0.999999992               0.000099030               0.000345064               0.999999992               0.000107361               0.000367898               0.999999992               0.000117196               0.000393994               0.999999992               0.000128041               0.000422081               0.999999992               0.000139567               0.000451580               0.999999992               0.000151548               0.000482035               0.999999992               0.000163840               0.000513355               0.999999992               0.000176268               0.000545315               0.999999992               0.000188743               0.000577328               0.999999992               0.000201133               0.000608941               0.999999992               0.000213434               0.000640175               0.999999992               0.000225568               0.000670805               0.999999992               0.000237416               0.000700753               0.999999992               0.000095640               0.000421935               0.999999992               0.000075130               0.000373506               0.999999992               0.000071587               0.000367277               0.999999992               0.000075806               0.000379188               0.999999992               0.000083760               0.000400355               0.999999992               0.000093879               0.000427058               0.999999992               0.000105428               0.000457403               0.999999992               0.000117826               0.000489704               0.999999992               0.000130625               0.000523430               0.999999992               0.000143610               0.000558342               0.999999992               0.000156673               0.000594090               0.999999992               0.000169648               0.000630269               0.999999992               0.000182399               0.000666391               0.999999992               0.000194851               0.000702096               0.999999992               0.000206956               0.000737374               0.999999992               0.000218682               0.000772142               0.999999992               0.000229936               0.000806053               0.999999992               0.000086944               0.000468600               0.999999992               0.000058153               0.000419724               0.999999992               0.000055054               0.000414646               0.999999992               0.000061045               0.000428934               0.999999992               0.000071011               0.000453320               0.999999992               0.000083081               0.000483787               0.999999992               0.000096381               0.000518091               0.999999992               0.000110097               0.000554552               0.999999992               0.000123827               0.000592530               0.999999992               0.000137549               0.000631617               0.999999992               0.000151056               0.000671440               0.999999992               0.000164205               0.000711471               0.999999992               0.000176896               0.000751256               0.999999992               0.000189071               0.000790707               0.999999992               0.000200909               0.000829723               0.999999992               0.000212425               0.000868071               0.999999992               0.000223699               0.000905680               0.999999992               0.000078711               0.000512008               0.999999992               0.000045100               0.000468519               0.999999992               0.000039531               0.000459720               0.999999992               0.000044089               0.000469320               0.999999992               0.000053040               0.000489173               0.999999992               0.000063893               0.000515465               0.999999992               0.000076090               0.000545943               0.999999992               0.000088697               0.000579151               0.999999992               0.000101051               0.000613995               0.999999992               0.000113299               0.000650078               0.999999992               0.000125316               0.000687063               0.999999992               0.000137062               0.000724535               0.999999992               0.000148354               0.000762173               0.999999992               0.000159098               0.000799710               0.999999992               0.000169397               0.000837075               0.999999992               0.000179472               0.000874184               0.999999992               0.000189616               0.000910718               0.999999992               0.000069386               0.000551176               0.999999992               0.000034030               0.000514976               0.999999992               0.000026013               0.000505170               0.999999992               0.000028713               0.000511289               0.999999992               0.000036190               0.000527332               0.999999992               0.000045760               0.000549787               0.999999992               0.000056474               0.000576703               0.999999992               0.000067740               0.000606687               0.999999992               0.000078790               0.000638580               0.999999992               0.000089428               0.000671914               0.999999992               0.000099880               0.000706176               0.999999992               0.000110145               0.000741096               0.999999992               0.000119878               0.000776323               0.999999992               0.000128981               0.000811683               0.999999992               0.000137393               0.000846991               0.999999992               0.000145416               0.000882337               0.999999992               0.000153300               0.000917590               0.999999992               0.000059290               0.000585287               0.999999992               0.000024850               0.000557981               0.999999992               0.000015118               0.000549112               0.999999992               0.000015885               0.000553312               0.999999992               0.000021586               0.000566442               0.999999992               0.000029490               0.000585868               0.999999992               0.000038512               0.000609710               0.999999992               0.000048122               0.000636821               0.999999992               0.000057607               0.000666132               0.999999992               0.000066764               0.000696915               0.999999992               0.000075708               0.000728745               0.999999992               0.000084396               0.000761339               0.999999992               0.000092495               0.000794482               0.999999992               0.000099646               0.000827910               0.999999992               0.000105848               0.000861396               0.999999992               0.000110995               0.000894925               0.999999992               0.000115450               0.000928585               0.999999992               0.000048462               0.000613876               0.999999992               0.000017484               0.000596011               0.999999992               0.000007162               0.000589532               0.999999992               0.000006360               0.000593143               0.999999992               0.000010210               0.000604449               0.999999992               0.000016297               0.000621577               0.999999992               0.000023375               0.000643125               0.999999992               0.000031061               0.000667936               0.999999992               0.000038880               0.000695124               0.999999992               0.000046488               0.000723892               0.999999992               0.000053852               0.000753858               0.999999992               0.000060815               0.000784691               0.999999992               0.000067102               0.000816198               0.999999992               0.000072354               0.000848227               0.999999992               0.000076287               0.000880430               0.999999992               0.000078558               0.000912673               0.999999992               0.000079082               0.000945051               0.999999992               0.000036929               0.000636560               0.999999992               0.000011725               0.000627496               0.999999992               0.000002179               0.000624205               0.999999992               0.000000451               0.000628251               0.999999992               0.000002722               0.000638701               0.999999992               0.000006891               0.000654359               0.999999992               0.000011994               0.000674245               0.999999992               0.000017716               0.000697424               0.999999992               0.000023637               0.000723066               0.999999992               0.000029473               0.000750502               0.999999992               0.000035144               0.000779263               0.999999992               0.000040381               0.000809013               0.999999992               0.000044963               0.000839566               0.999999992               0.000048490               0.000870741               0.999999992               0.000050523               0.000902234               0.999999992               0.000050600               0.000933848               0.999999992               0.000048023               0.000965562               0.999999992               0.000024906               0.000652815               0.999999992               0.000007188               0.000650970               0.999999992              -0.000000174               0.000650955               0.999999992              -0.000002023               0.000655975               0.999999992              -0.000000928               0.000666251               0.999999992               0.000001584               0.000681129               0.999999992               0.000004826               0.000699927               0.999999992               0.000008497               0.000721942               0.999999992               0.000012462               0.000746574               0.999999992               0.000016458               0.000773120               0.999999992               0.000020414               0.000801159               0.999999992               0.000024027               0.000830375               0.999999992               0.000027006               0.000860510               0.999999992               0.000029055               0.000891452               0.999999992               0.000029803               0.000922947               0.999999992               0.000028633               0.000954667               0.999999992               0.000024855               0.000986440               0.999999992               0.000012544               0.000662585               0.999999992               0.000003400               0.000665400               0.999999992              -0.000000578               0.000667822               0.999999992              -0.000001783               0.000673810               0.999999992              -0.000001363               0.000684247               0.999999992              -0.000000238               0.000698825               0.999999992               0.000001302               0.000717045               0.999999992               0.000003078               0.000738349               0.999999992               0.000005109               0.000762178               0.999999992               0.000007138               0.000788101               0.999999992               0.000009178               0.000815744               0.999999992               0.000011105               0.000844802               0.999999992               0.000012624               0.000875103               0.999999992               0.000013497               0.000906338               0.999999992               0.000013525               0.000938234               0.999999992               0.000012381               0.000970455               0.999999992               0.000009611               0.001002647               0.999999992               0.000000000               0.000665886               0.999999992              -0.000000000               0.000670273               0.999999992               0.000000000               0.000673576               0.999999992              -0.000000000               0.000679949               0.999999992               0.000000000               0.000690462               0.999999992               0.000000000               0.000705011               0.999999992               0.000000000               0.000723030               0.999999992               0.000000000               0.000744047               0.999999992               0.000000000               0.000767614               0.999999992              -0.000000000               0.000793313               0.999999992              -0.000000000               0.000820832               0.999999992              -0.000000000               0.000849874               0.999999992               0.000000000               0.000880245               0.999999992              -0.000000000               0.000911739               0.999999992              -0.000000000               0.000943928               0.999999992              -0.000000000               0.000976390               0.999999992               0.000000000               0.001008790               0.999999992 </DataArray>
<DataArray type="Float64"                                    Name="defo"                                                      NumberOfComponents=" 3" format="ascii">
             -0.000129534               0.000000000               0.999999992              -0.000155685               0.000000000               0.999999992              -0.000167833               0.000000000               0.999999992              -0.000174742               0.000000000               0.999999992              -0.000180066              -0.000000000               0.999999992              -0.000185260              -0.000000000               0.999999992              -0.000190820              -0.000000000               0.999999992              -0.000197122               0.000000000               0.999999992              -0.000204333               0.000000000               0.999999992              -0.000212502               0.000000000               0.999999992              -0.000221567              -0.000000000               0.999999992              -0.000231547               0.000000000               0.999999992              -0.000242422               0.000000000               0.999999992              -0.000254220               0.000000000               0.999999992              -0.000266984               0.000000000               0.999999992              -0.000280548               0.000000000               0.999999992              -0.000294685               0.000000000               0.999999992              -0.000128744               0.000065879               0.999999992              -0.000153547               0.000057006               0.999999992              -0.000164907               0.000054185               0.999999992              -0.000171451               0.000054730               0.999999992              -0.000176617               0.000057203               0.999999992              -0.000181705               0.000060821               0.999999992              -0.000187234               0.000065061               0.999999992              -0.000193539               0.000069884               0.999999992              -0.000200747               0.000075070               0.999999992              -0.000208889               0.000080447               0.999999992              -0.000217955               0.000085976               0.999999992              -0.000227921               0.000091604               0.999999992              -0.000238764               0.000097275               0.999999992              -0.000250500               0.000102930               0.999999992              -0.000263078               0.000108355               0.999999992              -0.000276407               0.000113273               0.999999992              -0.000290297               0.000117020               0.999999992              -0.000126336               0.000131005               0.999999992              -0.000147213               0.000113468               0.999999992              -0.000156427               0.000108192               0.999999992              -0.000161914               0.000109572               0.999999992              -0.000166668               0.000114671               0.999999992              -0.000171676               0.000121875               0.999999992              -0.000177312               0.000130369               0.999999992              -0.000183841               0.000139927               0.999999992              -0.000191298               0.000150274               0.999999992              -0.000199674               0.000161087               0.999999992              -0.000208985               0.000172081               0.999999992              -0.000219206               0.000183260               0.999999992              -0.000230246               0.000194592               0.999999992              -0.000242054               0.000205813               0.999999992              -0.000254483               0.000216591               0.999999992              -0.000267446               0.000226561               0.999999992              -0.000280832               0.000235120               0.999999992              -0.000122515               0.000194643               0.999999992              -0.000137230               0.000168843               0.999999992              -0.000143378               0.000161798               0.999999992              -0.000147604               0.000164449               0.999999992              -0.000151998               0.000172426               0.999999992              -0.000157148               0.000183330               0.999999992              -0.000163217               0.000196184               0.999999992              -0.000170301               0.000210553               0.999999992              -0.000178383               0.000225933               0.999999992              -0.000187385               0.000241921               0.999999992              -0.000197232               0.000258264               0.999999992              -0.000207857               0.000274983               0.999999992              -0.000219150               0.000291869               0.999999992              -0.000231049               0.000308563               0.999999992              -0.000243400               0.000324794               0.999999992              -0.000256018               0.000340098               0.999999992              -0.000268830               0.000353940               0.999999992              -0.000117475               0.000256165               0.999999992              -0.000124339               0.000222686               0.999999992              -0.000127145               0.000214715               0.999999992              -0.000130322               0.000219156               0.999999992              -0.000134705               0.000230223               0.999999992              -0.000140366               0.000245109               0.999999992              -0.000147195               0.000262481               0.999999992              -0.000155229               0.000281615               0.999999992              -0.000164293               0.000301889               0.999999992              -0.000174140               0.000322888               0.999999992              -0.000184682               0.000344417               0.999999992              -0.000195825               0.000366533               0.999999992              -0.000207417               0.000388858               0.999999992              -0.000219337               0.000410974               0.999999992              -0.000231478               0.000432613               0.999999992              -0.000243742               0.000453383               0.999999992              -0.000256148               0.000473030               0.999999992              -0.000111290               0.000314954               0.999999992              -0.000109116               0.000274837               0.999999992              -0.000108859               0.000266816               0.999999992              -0.000111495               0.000273589               0.999999992              -0.000116376               0.000288045               0.999999992              -0.000123088               0.000306991               0.999999992              -0.000131295               0.000328785               0.999999992              -0.000140691               0.000352448               0.999999992              -0.000150954               0.000377394               0.999999992              -0.000161805               0.000403276               0.999999992              -0.000173185               0.000429871               0.999999992              -0.000184941               0.000457047               0.999999992              -0.000196908               0.000484494               0.999999992              -0.000209026               0.000511618               0.999999992              -0.000221188               0.000538285               0.999999992              -0.000233405               0.000564278               0.999999992              -0.000245670               0.000589601               0.999999992              -0.000103984               0.000370392               0.999999992              -0.000092355               0.000325179               0.999999992              -0.000089871               0.000317838               0.999999992              -0.000092841               0.000327194               0.999999992              -0.000099030               0.000345064               0.999999992              -0.000107361               0.000367898               0.999999992              -0.000117196               0.000393994               0.999999992              -0.000128041               0.000422081               0.999999992              -0.000139567               0.000451580               0.999999992              -0.000151548               0.000482035               0.999999992              -0.000163840               0.000513355               0.999999992              -0.000176268               0.000545315               0.999999992              -0.000188743               0.000577328               0.999999992              -0.000201133               0.000608941               0.999999992              -0.000213434               0.000640175               0.999999992              -0.000225568               0.000670805               0.999999992              -0.000237416               0.000700753               0.999999992              -0.000095640               0.000421935               0.999999992              -0.000075130               0.000373506               0.999999992              -0.000071587               0.000367277               0.999999992              -0.000075806               0.000379188               0.999999992              -0.000083760               0.000400355               0.999999992              -0.000093879               0.000427058               0.999999992              -0.000105428               0.000457403               0.999999992              -0.000117826               0.000489704               0.999999992              -0.000130625               0.000523430               0.999999992              -0.000143610               0.000558342               0.999999992              -0.000156673               0.000594090               0.999999992              -0.000169648               0.000630269               0.999999992              -0.000182399               0.000666391               0.999999992              -0.000194851               0.000702096               0.999999992              -0.000206956               0.000737374               0.999999992              -0.000218682               0.000772142               0.999999992              -0.000229936               0.000806053               0.999999992              -0.000086944               0.000468600               0.999999992              -0.000058153               0.000419724               0.999999992              -0.000055054               0.000414646               0.999999992              -0.000061045               0.000428934               0.999999992              -0.000071011               0.000453320               0.999999992              -0.000083081               0.000483787               0.999999992              -0.000096381               0.000518091               0.999999992              -0.000110097               0.000554552               0.999999992              -0.000123827               0.000592530               0.999999992              -0.000137549               0.000631617               0.999999992              -0.000151056               0.000671440               0.999999992              -0.000164205               0.000711471               0.999999992              -0.000176896               0.000751256               0.999999992              -0.000189071               0.000790707               0.999999992              -0.000200909               0.000829723               0.999999992              -0.000212425               0.000868071               0.999999992              -0.000223699               0.000905680               0.999999992              -0.000078711               0.000512008               0.999999992              -0.000045100               0.000468519               0.999999992              -0.000039531               0.000459720               0.999999992              -0.000044089               0.000469320               0.999999992              -0.000053040               0.000489173               0.999999992              -0.000063893               0.000515465               0.999999992              -0.000076090               0.000545943               0.999999992              -0.000088697               0.000579151               0.999999992              -0.000101051               0.000613995               0.999999992              -0.000113299               0.000650078               0.999999992              -0.000125316               0.000687063               0.999999992              -0.000137062               0.000724535               0.999999992              -0.000148354               0.000762173               0.999999992              -0.000159098               0.000799710               0.999999992              -0.000169397               0.000837075               0.999999992              -0.000179472               0.000874184               0.999999992              -0.000189616               0.000910718               0.999999992              -0.000069386               0.000551176               0.999999992              -0.000034030               0.000514976               0.999999992              -0.000026013               0.000505170               0.999999992              -0.000028713               0.000511289               0.999999992              -0.000036190               0.000527332               0.999999992              -0.000045760               0.000549787               0.999999992              -0.000056474               0.000576703               0.999999992              -0.000067740               0.000606687               0.999999992              -0.000078790               0.000638580               0.999999992              -0.000089428               0.000671914               0.999999992              -0.000099880               0.000706176               0.999999992              -0.000110145               0.000741096               0.999999992              -0.000119878               0.000776323               0.999999992              -0.000128981               0.000811683               0.999999992              -0.000137393               0.000846991               0.999999992              -0.000145416               0.000882337               0.999999992              -0.000153300               0.000917590               0.999999992              -0.000059290               0.000585287               0.999999992              -0.000024850               0.000557981               0.999999992              -0.000015118               0.000549112               0.999999992              -0.000015885               0.000553312               0.999999992              -0.000021586               0.000566442               0.999999992              -0.000029490               0.000585868               0.999999992              -0.000038512               0.000609710               0.999999992              -0.000048122               0.000636821               0.999999992              -0.000057607               0.000666132               0.999999992              -0.000066764               0.000696915               0.999999992              -0.000075708               0.000728745               0.999999992              -0.000084396               0.000761339               0.999999992              -0.000092495               0.000794482               0.999999992              -0.000099646               0.000827910               0.999999992              -0.000105848               0.000861396               0.999999992              -0.000110995               0.000894925               0.999999992              -0.000115450               0.000928585               0.999999992              -0.000048462               0.000613876               0.999999992              -0.000017484               0.000596011               0.999999992              -0.000007162               0.000589532               0.999999992              -0.000006360               0.000593143               0.999999992              -0.000010210               0.000604449               0.999999992              -0.000016297               0.000621577               0.999999992              -0.000023375               0.000643125               0.999999992              -0.000031061               0.000667936               0.999999992              -0.000038880               0.000695124               0.999999992              -0.000046488               0.000723892               0.999999992              -0.000053852               0.000753858               0.999999992              -0.000060815               0.000784691               0.999999992              -0.000067102               0.000816198               0.999999992              -0.000072354               0.000848227               0.999999992              -0.000076287               0.000880430               0.999999992              -0.000078558               0.000912673               0.999999992              -0.000079082               0.000945051               0.999999992              -0.000036929               0.000636560               0.999999992              -0.000011725               0.000627496               0.999999992              -0.000002179               0.000624205               0.999999992              -0.000000451               0.000628251               0.999999992              -0.000002722               0.000638701               0.999999992              -0.000006891               0.000654359               0.999999992              -0.000011994               0.000674245               0.999999992              -0.000017716               0.000697424               0.999999992              -0.000023637               0.000723066               0.999999992              -0.000029473               0.000750502               0.999999992              -0.000035144               0.000779263               0.999999992              -0.000040381               0.000809013               0.999999992              -0.000044963               0.000839566               0.999999992              -0.000048490               0.000870741               0.999999992              -0.000050523               0.000902234               0.999999992              -0.000050600               0.000933848               0.999999992              -0.000048023               0.000965562               0.999999992              -0.000024906               0.000652815               0.999999992              -0.000007188               0.000650970               0.999999992               0.000000174               0.000650955               0.999999992               0.000002023               0.000655975               0.999999992               0.000000928               0.000666251               0.999999992              -0.000001584               0.000681129               0.999999992              -0.000004826               0.000699927               0.999999992              -0.000008497               0.000721942               0.999999992              -0.000012462               0.000746574               0.999999992              -0.000016458               0.000773120               0.999999992              -0.000020414               0.000801159               0.999999992              -0.000024027               0.000830375               0.999999992              -0.000027006               0.000860510               0.999999992              -0.000029055               0.000891452               0.999999992              -0.000029803               0.000922947               0.999999992              -0.000028633               0.000954667               0.999999992              -0.000024855               0.000986440               0.999999992              -0.000012544               0.000662585               0.999999992              -0.000003400               0.000665400               0.999999992               0.000000578               0.000667822               0.999999992               0.000001783               0.000673810               0.999999992               0.000001363               0.000684247               0.999999992               0.000000238               0.000698825               0.999999992              -0.000001302               0.000717045               0.999999992              -0.000003078               0.000738349               0.999999992              -0.000005109               0.000762178               0.999999992              -0.000007138               0.000788101               0.999999992              -0.000009178               0.000815744               0.999999992              -0.000011105               0.000844802               0.999999992              -0.000012624               0.000875103               0.999999992              -0.000013497               0.000906338               0.999999992              -0.000013525               0.000938234               0.999999992              -0.000012381               0.000970455               0.999999992              -0.000009611               0.001002647               0.999999992               0.000000000               0.000665886               0.999999992              -0.000000000               0.000670273               0.999999992               0.000000000               0.000673576               0.999999992              -0.000000000               0.000679949               0.999999992               0.000000000               0.000690462               0.999999992               0.000000000               0.000705011               0.999999992               0.000000000               0.000723030               0.999999992               0.000000000               0.000744047               0.999999992               0.000000000               0.000767614               0.999999992              -0.000000000               0.000793313               0.999999992              -0.000000000               0.000820832               0.999999992              -0.000000000               0.000849874               0.999999992               0.000000000               0.000880245               0.999999992              -0.000000000               0.000911739               0.999999992              -0.000000000               0.000943928               0.999999992              -0.000000000               0.000976390               0.999999992               0.000000000               0.001008790               0.999999992              -0.000129534               0.000000000               0.999999992              -0.000155685               0.000000000               0.999999992              -0.000167833               0.000000000               0.999999992              -0.000174742               0.000000000               0.999999992              -0.000180066              -0.000000000               0.999999992              -0.000185260              -0.000000000               0.999999992              -0.000190820              -0.000000000               0.999999992              -0.000197122               0.000000000               0.999999992              -0.000204333               0.000000000               0.999999992              -0.000212502               0.000000000               0.999999992              -0.000221567              -0.000000000               0.999999992              -0.000231547               0.000000000               0.999999992              -0.000242422               0.000000000               0.999999992              -0.000254220               0.000000000               0.999999992              -0.000266984               0.000000000               0.999999992              -0.000280548               0.000000000               0.999999992              -0.000294685               0.000000000               0.999999992              -0.000128744              -0.000065879               0.999999992              -0.000153547              -0.000057006               0.999999992              -0.000164907              -0.000054185               0.999999992              -0.000171451              -0.000054730               0.999999992              -0.000176617              -0.000057203               0.999999992              -0.000181705              -0.000060821               0.999999992              -0.000187234              -0.000065061               0.999999992              -0.000193539              -0.000069884               0.999999992              -0.000200747              -0.000075070               0.999999992              -0.000208889              -0.000080447               0.999999992              -0.000217955              -0.000085976               0.999999992              -0.000227921              -0.000091604               0.999999992              -0.000238764              -0.000097275               0.999999992              -0.000250500              -0.000102930               0.999999992              -0.000263078              -0.000108355               0.999999992              -0.000276407              -0.000113273               0.999999992              -0.000290297              -0.000117020               0.999999992              -0.000126336              -0.000131005               0.999999992              -0.000147213              -0.000113468               0.999999992              -0.000156427              -0.000108192               0.999999992              -0.000161914              -0.000109572               0.999999992              -0.000166668              -0.000114671               0.999999992              -0.000171676              -0.000121875               0.999999992              -0.000177312              -0.000130369               0.999999992              -0.000183841              -0.000139927               0.999999992              -0.000191298              -0.000150274               0.999999992              -0.000199674              -0.000161087               0.999999992              -0.000208985              -0.000172081               0.999999992              -0.000219206              -0.000183260               0.999999992              -0.000230246              -0.000194592               0.999999992              -0.000242054              -0.000205813               0.999999992              -0.000254483              -0.000216591               0.999999992              -0.000267446              -0.000226561               0.999999992              -0.000280832              -0.000235120               0.999999992              -0.000122515              -0.000194643               0.999999992              -0.000137230              -0.000168843               0.999999992              -0.000143378              -0.000161798               0.999999992              -0.000147604              -0.000164449               0.999999992              -0.000151998              -0.000172426               0.999999992              -0.000157148              -0.000183330               0.999999992              -0.000163217              -0.000196184               0.999999992              -0.000170301              -0.000210553               0.999999992              -0.000178383              -0.000225933               0.999999992              -0.000187385              -0.000241921               0.999999992              -0.000197232              -0.000258264               0.999999992              -0.000207857              -0.000274983               0.999999992              -0.000219150              -0.000291869               0.999999992              -0.000231049              -0.000308563               0.999999992              -0.000243400              -0.000324794               0.999999992              -0.000256018              -0.000340098               0.999999992              -0.000268830              -0.000353940               0.999999992              -0.000117475              -0.000256165               0.999999992              -0.000124339              -0.000222686               0.999999992              -0.000127145              -0.000214715               0.999999992              -0.000130322              -0.000219156               0.999999992              -0.000134705              -0.000230223               0.999999992              -0.000140366              -0.000245109               0.999999992              -0.000147195              -0.000262481               0.999999992              -0.000155229              -0.000281615               0.999999992              -0.000164293              -0.000301889               0.999999992              -0.000174140              -0.000322888               0.999999992              -0.000184682              -0.000344417               0.999999992              -0.000195825              -0.000366533               0.999999992              -0.000207417              -0.000388858               0.999999992              -0.000219337              -0.000410974               0.999999992              -0.000231478              -0.000432613               0.999999992              -0.000243742              -0.000453383               0.999999992              -0.000256148              -0.000473030               0.999999992              -0.000111290              -0.000314954               0.999999992              -0.000109116              -0.000274837               0.999999992              -0.000108859              -0.000266816               0.999999992              -0.000111495              -0.000273589               0.999999992              -0.000116376              -0.000288045               0.999999992              -0.000123088              -0.000306991               0.999999992              -0.000131295              -0.000328785               0.999999992              -0.000140691              -0.000352448               0.999999992              -0.000150954              -0.000377394               0.999999992              -0.000161805              -0.000403276               0.999999992              -0.000173185              -0.000429871               0.999999992              -0.000184941              -0.000457047               0.999999992              -0.000196908              -0.000484494               0.999999992              -0.000209026              -0.000511618               0.999999992              -0.000221188              -0.000538285               0.999999992              -0.000233405              -0.000564278               0.999999992              -0.000245670              -0.000589601               0.999999992              -0.000103984              -0.000370392               0.999999992              -0.000092355              -0.000325179               0.999999992              -0.000089871              -0.000317838               0.999999992              -0.000092841              -0.000327194               0.999999992              -0.000099030              -0.000345064               0.999999992              -0.000107361              -0.000367898               0.999999992              -0.000117196              -0.000393994               0.999999992              -0.000128041              -0.000422081               0.999999992              -0.000139567              -0.000451580               0.999999992              -0.000151548              -0.000482035               0.999999992              -0.000163840              -0.000513355               0.999999992              -0.000176268              -0.000545315               0.999999992              -0.000188743              -0.000577328               0.999999992              -0.000201133              -0.000608941               0.999999992              -0.000213434              -0.000640175               0.999999992              -0.000225568              -0.000670805               0.999999992              -0.000237416              -0.000700753               0.999999992              -0.000095640              -0.000421935               0.999999992              -0.000075130              -0.000373506               0.999999992              -0.000071587              -0.000367277               0.999999992              -0.000075806              -0.000379188               0.999999992              -0.000083760              -0.000400355               0.999999992              -0.000093879              -0.000427058               0.999999992              -0.000105428              -0.000457403               0.999999992              -0.000117826              -0.000489704               0.999999992              -0.000130625              -0.000523430               0.999999992              -0.000143610              -0.000558342               0.999999992              -0.000156673              -0.000594090               0.999999992              -0.000169648              -0.000630269               0.999999992              -0.000182399              -0.000666391               0.999999992              -0.000194851              -0.000702096               0.999999992              -0.000206956              -0.000737374               0.999999992              -0.000218682              -0.000772142               0.999999992              -0.000229936              -0.000806053               0.999999992              -0.000086944              -0.000468600               0.999999992              -0.000058153              -0.000419724               0.999999992              -0.000055054              -0.000414646               0.999999992              -0.000061045              -0.000428934               0.999999992              -0.000071011              -0.000453320               0.999999992              -0.000083081              -0.000483787               0.999999992              -0.000096381              -0.000518091               0.999999992              -0.000110097              -0.000554552               0.999999992              -0.000123827              -0.000592530               0.999999992              -0.000137549              -0.000631617               0.999999992              -0.000151056              -0.000671440               0.999999992              -0.000164205              -0.000711471               0.999999992              -0.000176896              -0.000751256               0.999999992              -0.000189071              -0.000790707               0.999999992              -0.000200909              -0.000829723               0.999999992              -0.000212425              -0.000868071               0.999999992              -0.000223699              -0.000905680               0.999999992              -0.000078711              -0.000512008               0.999999992              -0.000045100              -0.000468519               0.999999992              -0.000039531              -0.000459720               0.999999992              -0.000044089              -0.000469320               0.999999992              -0.000053040              -0.000489173               0.999999992              -0.000063893              -0.000515465               0.999999992              -0.000076090              -0.000545943               0.999999992              -0.000088697              -0.000579151               0.999999992              -0.000101051              -0.000613995               0.999999992              -0.000113299              -0.000650078               0.999999992              -0.000125316              -0.000687063               0.999999992              -0.000137062              -0.000724535               0.999999992              -0.000148354              -0.000762173               0.999999992              -0.000159098              -0.000799710               0.999999992              -0.000169397              -0.000837075               0.999999992              -0.000179472              -0.000874184               0.999999992              -0.000189616              -0.000910718               0.999999992              -0.000069386              -0.000551176               0.999999992              -0.000034030              -0.000514976               0.999999992              -0.000026013              -0.000505170               0.999999992              -0.000028713              -0.000511289               0.999999992              -0.000036190              -0.000527332               0.999999992              -0.000045760              -0.000549787               0.999999992              -0.000056474              -0.000576703               0.999999992              -0.000067740              -0.000606687               0.999999992              -0.000078790              -0.000638580               0.999999992              -0.000089428              -0.000671914               0.999999992              -0.000099880              -0.000706176               0.999999992              -0.000110145              -0.000741096               0.999999992              -0.000119878              -0.000776323               0.999999992              -0.000128981              -0.000811683               0.999999992              -0.000137393              -0.000846991               0.999999992              -0.000145416              -0.000882337               0.999999992              -0.000153300              -0.000917590               0.999999992              -0.000059290              -0.000585287               0.999999992              -0.000024850              -0.000557981               0.999999992              -0.000015118              -0.000549112               0.999999992              -0.000015885              -0.000553312               0.999999992              -0.000021586              -0.000566442               0.999999992              -0.000029490              -0.000585868               0.999999992              -0.000038512              -0.000609710               0.999999992              -0.000048122              -0.000636821               0.999999992              -0.000057607              -0.000666132               0.999999992              -0.000066764              -0.000696915               0.999999992              -0.000075708              -0.000728745               0.999999992              -0.000084396              -0.000761339               0.999999992              -0.000092495              -0.000794482               0.999999992              -0.000099646              -0.000827910               0.999999992              -0.000105848              -0.000861396               0.999999992              -0.000110995              -0.000894925               0.999999992              -0.000115450              -0.000928585               0.999999992              -0.000048462              -0.000613876               0.999999992              -0.000017484              -0.000596011               0.999999992              -0.000007162              -0.000589532               0.999999992              -0.000006360              -0.000593143               0.999999992              -0.000010210              -0.000604449               0.999999992              -0.000016297              -0.000621577               0.999999992              -0.000023375              -0.000643125               0.999999992              -0.000031061              -0.000667936               0.999999992              -0.000038880              -0.000695124               0.999999992              -0.000046488              -0.000723892               0.999999992              -0.000053852              -0.000753858               0.999999992              -0.000060815              -0.000784691               0.999999992              -0.000067102              -0.000816198               0.999999992              -0.000072354              -0.000848227               0.999999992              -0.000076287              -0.000880430               0.999999992              -0.000078558              -0.000912673               0.999999992              -0.000079082              -0.000945051               0.999999992              -0.000036929              -0.000636560               0.999999992              -0.000011725              -0.000627496               0.999999992              -0.000002179              -0.000624205               0.999999992              -0.000000451              -0.000628251               0.999999992              -0.000002722              -0.000638701               0.999999992              -0.000006891              -0.000654359               0.999999992              -0.000011994              -0.000674245               0.999999992              -0.000017716              -0.000697424               0.999999992              -0.000023637              -0.000723066               0.999999992              -0.000029473              -0.000750502               0.999999992              -0.000035144              -0.000779263               0.999999992              -0.000040381              -0.000809013               0.999999992              -0.000044963              -0.000839566               0.999999992              -0.000048490              -0.000870741               0.999999992              -0.000050523              -0.000902234               0.999999992              -0.000050600              -0.000933848               0.999999992              -0.000048023              -0.000965562               0.999999992              -0.000024906              -0.000652815               0.999999992              -0.000007188              -0.000650970               0.999999992               0.000000174              -0.000650955               0.999999992               0.000002023              -0.000655975               0.999999992               0.000000928              -0.000666251               0.999999992              -0.000001584              -0.000681129               0.999999992              -0.000004826              -0.000699927               0.999999992              -0.000008497              -0.000721942               0.999999992              -0.000012462              -0.000746574               0.999999992              -0.000016458              -0.000773120               0.999999992              -0.000020414              -0.000801159               0.999999992              -0.000024027              -0.000830375               0.999999992              -0.000027006              -0.000860510               0.999999992              -0.000029055              -0.000891452               0.999999992              -0.000029803              -0.000922947               0.999999992              -0.000028633              -0.000954667               0.999999992              -0.000024855              -0.000986440               0.999999992              -0.000012544              -0.000662585               0.999999992              -0.000003400              -0.000665400               0.999999992               0.000000578              -0.000667822               0.999999992               0.000001783              -0.000673810               0.999999992               0.000001363              -0.000684247               0.999999992               0.000000238              -0.000698825               0.999999992              -0.000001302              -0.000717045               0.999999992              -0.000003078              -0.000738349               0.999999992              -0.000005109              -0.000762178               0.999999992              -0.000007138              -0.000788101               0.999999992              -0.000009178              -0.000815744               0.999999992              -0.000011105              -0.000844802               0.999999992              -0.000012624              -0.000875103               0.999999992              -0.000013497              -0.000906338               0.999999992              -0.000013525              -0.000938234               0.999999992              -0.000012381              -0.000970455               0.999999992              -0.000009611              -0.001002647               0.999999992               0.000000000              -0.000665886               0.999999992              -0.000000000              -0.000670273               0.999999992              -0.000000000              -0.000673576               0.999999992               0.000000000              -0.000679949               0.999999992              -0.000000000              -0.000690462               0.999999992              -0.000000000              -0.000705011               0.999999992              -0.000000000              -0.000723030               0.999999992              -0.000000000              -0.000744047               0.999999992              -0.000000000              -0.000767614               0.999999992               0.000000000              -0.000793313               0.999999992              -0.000000000              -0.000820832               0.999999992              -0.000000000              -0.000849874               0.999999992               0.000000000              -0.000880245               0.999999992               0.000000000              -0.000911739               0.999999992              -0.000000000              -0.000943928               0.999999992              -0.000000000              -0.000976390               0.999999992               0.000000000              -0.001008790               0.999999992               0.000129534              -0.000000000               0.999999992               0.000155685              -0.000000000               0.999999992               0.000167833              -0.000000000               0.999999992               0.000174742               0.000000000               0.999999992               0.000180066               0.000000000               0.999999992               0.000185260              -0.000000000               0.999999992               0.000190820               0.000000000               0.999999992               0.000197122              -0.000000000               0.999999992               0.000204333               0.000000000               0.999999992               0.000212502               0.000000000               0.999999992               0.000221567              -0.000000000               0.999999992               0.000231547              -0.000000000               0.999999992               0.000242422               0.000000000               0.999999992               0.000254220               0.000000000               0.999999992               0.000266984               0.000000000               0.999999992               0.000280548               0.000000000               0.999999992               0.000294685               0.000000000               0.999999992               0.000128744              -0.000065879               0.999999992               0.000153547              -0.000057006               0.999999992               0.000164907              -0.000054185               0.999999992               0.000171451              -0.000054730               0.999999992               0.000176617              -0.000057203               0.999999992               0.000181705              -0.000060821               0.999999992               0.000187234              -0.000065061               0.999999992               0.000193539              -0.000069884               0.999999992               0.000200747              -0.000075070               0.999999992               0.000208889              -0.000080447               0.999999992               0.000217955              -0.000085976               0.999999992               0.000227921              -0.000091604               0.999999992               0.000238764              -0.000097275               0.999999992               0.000250500              -0.000102930               0.999999992               0.000263078              -0.000108355               0.999999992               0.000276407              -0.000113273               0.999999992               0.000290297              -0.000117020               0.999999992               0.000126336              -0.000131005               0.999999992               0.000147213              -0.000113468               0.999999992               0.000156427              -0.000108192               0.999999992               0.000161914              -0.000109572               0.999999992               0.000166668              -0.000114671               0.999999992               0.000171676              -0.000121875               0.999999992               0.000177312              -0.000130369               0.999999992               0.000183841              -0.000139927               0.999999992               0.000191298              -0.000150274               0.999999992               0.000199674              -0.000161087               0.999999992               0.000208985              -0.000172081               0.999999992               0.000219206              -0.000183260               0.999999992               0.000230246              -0.000194592               0.999999992               0.000242054              -0.000205813               0.999999992               0.000254483              -0.000216591               0.999999992               0.000267446              -0.000226561               0.999999992               0.000280832              -0.000235120               0.999999992               0.000122515              -0.000194643               0.999999992               0.000137230              -0.000168843               0.999999992               0.000143378              -0.000161798               0.999999992               0.000147604              -0.000164449               0.999999992               0.000151998              -0.000172426               0.999999992               0.000157148              -0.000183330               0.999999992               0.000163217              -0.000196184               0.999999992               0.000170301              -0.000210553               0.999999992               0.000178383              -0.000225933               0.999999992               0.000187385              -0.000241921               0.999999992               0.000197232              -0.000258264               0.999999992               0.000207857              -0.000274983               0.999999992               0.000219150              -0.000291869               0.999999992               0.000231049              -0.000308563               0.999999992               0.000243400              -0.000324794               0.999999992               0.000256018              -0.000340098               0.999999992               0.000268830              -0.000353940               0.999999992               0.000117475              -0.000256165               0.999999992               0.000124339              -0.000222686               0.999999992               0.000127145              -0.000214715               0.999999992               0.000130322              -0.000219156               0.999999992               0.000134705              -0.000230223               0.999999992               0.000140366              -0.000245109               0.999999992               0.000147195              -0.000262481               0.999999992               0.000155229              -0.000281615               0.999999992               0.000164293              -0.000301889               0.999999992               0.000174140              -0.000322888               0.999999992               0.000184682              -0.000344417               0.999999992               0.000195825              -0.000366533               0.999999992               0.000207417              -0.000388858               0.999999992               0.000219337              -0.000410974               0.999999992               0.000231478              -0.000432613               0.999999992               0.000243742              -0.000453383               0.999999992               0.000256148              -0.000473030               0.999999992               0.000111290              -0.000314954               0.999999992               0.000109116              -0.000274837               0.999999992               0.000108859              -0.000266816               0.999999992               0.000111495              -0.000273589               0.999999992               0.000116376              -0.000288045               0.999999992               0.000123088              -0.000306991               0.999999992               0.000131295              -0.000328785               0.999999992               0.000140691              -0.000352448               0.999999992               0.000150954              -0.000377394               0.999999992               0.000161805              -0.000403276               0.999999992               0.000173185              -0.000429871               0.999999992               0.000184941              -0.000457047               0.999999992               0.000196908              -0.000484494               0.999999992               0.000209026              -0.000511618               0.999999992               0.000221188              -0.000538285               0.999999992               0.000233405              -0.000564278               0.999999992               0.000245670              -0.000589601               0.999999992               0.000103984              -0.000370392               0.999999992               0.000092355              -0.000325179               0.999999992               0.000089871              -0.000317838               0.999999992               0.000092841              -0.000327194               0.999999992               0.000099030              -0.000345064               0.999999992               0.000107361              -0.000367898               0.999999992               0.000117196              -0.000393994               0.999999992               0.000128041              -0.000422081               0.999999992               0.000139567              -0.000451580               0.999999992               0.000151548              -0.000482035               0.999999992               0.000163840              -0.000513355               0.999999992               0.000176268              -0.000545315               0.999999992               0.000188743              -0.000577328               0.999999992               0.000201133              -0.000608941               0.999999992               0.000213434              -0.000640175               0.999999992               0.000225568              -0.000670805               0.999999992               0.000237416              -0.000700753               0.999999992               0.000095640              -0.000421935               0.999999992               0.000075130              -0.000373506               0.999999992               0.000071587              -0.000367277               0.999999992               0.000075806              -0.000379188               0.999999992               0.000083760              -0.000400355               0.999999992               0.000093879              -0.000427058               0.999999992               0.000105428              -0.000457403               0.999999992               0.000117826              -0.000489704               0.999999992               0.000130625              -0.000523430               0.999999992               0.000143610              -0.000558342               0.999999992               0.000156673              -0.000594090               0.999999992               0.000169648              -0.000630269               0.999999992               0.000182399              -0.000666391               0.999999992               0.000194851              -0.000702096               0.999999992               0.000206956              -0.000737374               0.999999992               0.000218682              -0.000772142               0.999999992               0.000229936              -0.000806053               0.999999992               0.000086944              -0.000468600               0.999999992               0.000058153              -0.000419724               0.999999992               0.000055054              -0.000414646               0.999999992               0.000061045              -0.000428934               0.999999992               0.000071011              -0.000453320               0.999999992               0.000083081              -0.000483787               0.999999992               0.000096381              -0.000518091               0.999999992               0.000110097              -0.000554552               0.999999992               0.000123827              -0.000592530               0.999999992               0.000137549              -0.000631617               0.999999992               0.000151056              -0.000671440               0.999999992               0.000164205              -0.000711471               0.999999992               0.000176896              -0.000751256               0.999999992               0.000189071              -0.000790707               0.999999992               0.000200909              -0.000829723               0.999999992               0.000212425              -0.000868071               0.999999992               0.000223699              -0.000905680               0.999999992               0.000078711              -0.000512008               0.999999992               0.000045100              -0.000468519               0.999999992               0.000039531              -0.000459720               0.999999992               0.000044089              -0.000469320               0.999999992               0.000053040              -0.000489173               0.999999992               0.000063893              -0.000515465               0.999999992               0.000076090              -0.000545943               0.999999992               0.000088697              -0.000579151               0.999999992               0.000101051              -0.000613995               0.999999992               0.000113299              -0.000650078               0.999999992               0.000125316              -0.000687063               0.999999992               0.000137062              -0.000724535               0.999999992               0.000148354              -0.000762173               0.999999992               0.000159098              -0.000799710               0.999999992               0.000169397              -0.000837075               0.999999992               0.000179472              -0.000874184               0.999999992               0.000189616              -0.000910718               0.999999992               0.000069386              -0.000551176               0.999999992               0.000034030              -0.000514976               0.999999992               0.000026013              -0.000505170               0.999999992               0.000028713              -0.000511289               0.999999992               0.000036190              -0.000527332               0.999999992               0.000045760              -0.000549787               0.999999992               0.000056474              -0.000576703               0.999999992               0.000067740              -0.000606687               0.999999992               0.000078790              -0.000638580               0.999999992               0.000089428              -0.000671914               0.999999992               0.000099880              -0.000706176               0.999999992               0.000110145              -0.000741096               0.999999992               0.000119878              -0.000776323               0.999999992               0.000128981              -0.000811683               0.999999992               0.000137393              -0.000846991               0.999999992               0.000145416              -0.000882337               0.999999992               0.000153300              -0.000917590               0.999999992               0.000059290              -0.000585287               0.999999992               0.000024850              -0.000557981               0.999999992               0.000015118              -0.000549112               0.999999992               0.000015885              -0.000553312               0.999999992               0.000021586              -0.000566442               0.999999992               0.000029490              -0.000585868               0.999999992               0.000038512              -0.000609710               0.999999992               0.000048122              -0.000636821               0.999999992               0.000057607              -0.000666132               0.999999992               0.000066764              -0.000696915               0.999999992               0.000075708              -0.000728745               0.999999992               0.000084396              -0.000761339               0.999999992               0.000092495              -0.000794482               0.999999992               0.000099646              -0.000827910               0.999999992               0.000105848              -0.000861396               0.999999992               0.000110995              -0.000894925               0.999999992               0.000115450              -0.000928585               0.999999992               0.000048462              -0.000613876               0.999999992               0.000017484              -0.000596011               0.999999992               0.000007162              -0.000589532               0.999999992               0.000006360              -0.000593143               0.999999992               0.000010210              -0.000604449               0.999999992               0.000016297              -0.000621577               0.999999992               0.000023375              -0.000643125               0.999999992               0.000031061              -0.000667936               0.999999992               0.000038880              -0.000695124               0.999999992               0.000046488              -0.000723892               0.999999992               0.000053852              -0.000753858               0.999999992               0.000060815              -0.000784691               0.999999992               0.000067102              -0.000816198               0.999999992               0.000072354              -0.000848227               0.999999992               0.000076287              -0.000880430               0.999999992               0.000078558              -0.000912673               0.999999992               0.000079082              -0.000945051               0.999999992               0.000036929              -0.000636560               0.999999992               0.000011725              -0.000627496               0.999999992               0.000002179              -0.000624205               0.999999992               0.000000451              -0.000628251               0.999999992               0.000002722              -0.000638701               0.999999992               0.000006891              -0.000654359               0.999999992               0.000011994              -0.000674245               0.999999992               0.000017716              -0.000697424               0.999999992               0.000023637              -0.000723066               0.999999992               0.000029473              -0.000750502               0.999999992               0.000035144              -0.000779263               0.999999992               0.000040381              -0.000809013               0.999999992               0.000044963              -0.000839566               0.999999992               0.000048490              -0.000870741               0.999999992               0.000050523              -0.000902234               0.999999992               0.000050600              -0.000933848               0.999999992               0.000048023              -0.000965562               0.999999992               0.000024906              -0.000652815               0.999999992               0.000007188              -0.000650970               0.999999992              -0.000000174              -0.000650955               0.999999992              -0.000002023              -0.000655975               0.999999992              -0.000000928              -0.000666251               0.999999992               0.000001584              -0.000681129               0.999999992               0.000004826              -0.000699927               0.999999992               0.000008497              -0.000721942               0.999999992               0.000012462              -0.000746574               0.999999992               0.000016458              -0.000773120               0.999999992               0.000020414              -0.000801159               0.999999992               0.000024027              -0.000830375               0.999999992               0.000027006              -0.000860510               0.999999992               0.000029055              -0.000891452               0.999999992               0.000029803              -0.000922947               0.999999992               0.000028633              -0.000954667               0.999999992               0.000024855              -0.000986440               0.999999992               0.000012544              -0.000662585               0.999999992               0.000003400              -0.000665400               0.999999992              -0.000000578              -0.000667822               0.999999992              -0.000001783              -0.000673810               0.999999992              -0.000001363              -0.000684247               0.999999992              -0.000000238              -0.000698825               0.999999992               0.000001302              -0.000717045               0.999999992               0.000003078              -0.000738349               0.999999992               0.000005109              -0.000762178               0.999999992               0.000007138              -0.000788101               0.999999992               0.000009178              -0.000815744               0.999999992               0.000011105              -0.000844802               0.999999992               0.000012624              -0.000875103               0.999999992               0.000013497              -0.000906338               0.999999992               0.000013525              -0.000938234               0.999999992               0.000012381              -0.000970455               0.999999992               0.000009611              -0.001002647               0.999999992               0.000000000              -0.000665886               0.999999992              -0.000000000              -0.000670273               0.999999992              -0.000000000              -0.000673576               0.999999992               0.000000000              -0.000679949               0.999999992              -0.000000000              -0.000690462               0.999999992              -0.000000000              -0.000705011               0.999999992              -0.000000000              -0.000723030               0.999999992              -0.000000000              -0.000744047               0.999999992              -0.000000000              -0.000767614               0.999999992               0.000000000              -0.000793313               0.999999992              -0.000000000              -0.000820832               0.999999992              -0.000000000              -0.000849874               0.999999992               0.000000000              -0.000880245               0.999999992               0.000000000              -0.000911739               0.999999992              -0.000000000              -0.000943928               0.999999992              -0.000000000              -0.000976390               0.999999992               0.000000000              -0.001008790               0.999999992               0.000129534              -0.000000000               0.999999992               0.000155685              -0.000000000               0.999999992               0.000167833              -0.000000000               0.999999992               0.000174742               0.000000000               0.999999992               0.000180066               0.000000000               0.999999992               0.000185260              -0.000000000               0.999999992               0.000190820               0.000000000               0.999999992               0.000197122              -0.000000000               0.999999992               0.000204333               0.000000000               0.999999992               0.000212502               0.000000000               0.999999992               0.000221567              -0.000000000               0.999999992               0.000231547              -0.000000000               0.999999992               0.000242422               0.000000000               0.999999992               0.000254220               0.000000000               0.999999992               0.000266984               0.000000000               0.999999992               0.000280548               0.000000000               0.999999992               0.000294685               0.000000000               0.999999992               0.000128744               0.000065879               0.999999992               0.000153547               0.000057006               0.999999992               0.000164907               0.000054185               0.999999992               0.000171451               0.000054730               0.999999992               0.000176617               0.000057203               0.999999992               0.000181705               0.000060821               0.999999992               0.000187234               0.000065061               0.999999992               0.000193539               0.000069884               0.999999992               0.000200747               0.000075070               0.999999992               0.000208889               0.000080447               0.999999992               0.000217955               0.000085976               0.999999992               0.000227921               0.000091604               0.999999992               0.000238764               0.000097275               0.999999992               0.000250500               0.000102930               0.999999992               0.000263078               0.000108355               0.999999992               0.000276407               0.000113273               0.999999992               0.000290297               0.000117020               0.999999992               0.000126336               0.000131005               0.999999992               0.000147213               0.000113468               0.999999992               0.000156427               0.000108192               0.999999992               0.000161914               0.000109572               0.999999992               0.000166668               0.000114671               0.999999992               0.000171676               0.000121875               0.999999992               0.000177312               0.000130369               0.999999992               0.000183841               0.000139927               0.999999992               0.000191298               0.000150274               0.999999992               0.000199674               0.000161087               0.999999992               0.000208985               0.000172081               0.999999992               0.000219206               0.000183260               0.999999992               0.000230246               0.000194592               0.999999992               0.000242054               0.000205813               0.999999992               0.000254483               0.000216591               0.999999992               0.000267446               0.000226561               0.999999992               0.000280832               0.000235120               0.999999992               0.000122515               0.000194643               0.999999992               0.000137230               0.000168843               0.999999992               0.000143378               0.000161798               0.999999992               0.000147604               0.000164449               0.999999992               0.000151998               0.000172426               0.999999992               0.000157148               0.000183330               0.999999992               0.000163217               0.000196184               0.999999992               0.000170301               0.000210553               0.999999992               0.000178383               0.000225933               0.999999992               0.000187385               0.000241921               0.999999992               0.000197232               0.000258264               0.999999992               0.000207857               0.000274983               0.999999992               0.000219150               0.000291869               0.999999992               0.000231049               0.000308563               0.999999992               0.000243400               0.000324794               0.999999992               0.000256018               0.000340098               0.999999992               0.000268830               0.000353940               0.999999992               0.000117475               0.000256165               0.999999992               0.000124339               0.000222686               0.999999992               0.000127145               0.000214715               0.999999992               0.000130322               0.000219156               0.999999992               0.000134705               0.000230223               0.999999992               0.000140366               0.000245109               0.999999992               0.000147195               0.000262481               0.999999992               0.000155229               0.000281615               0.999999992               0.000164293               0.000301889               0.999999992               0.000174140               0.000322888               0.999999992               0.000184682               0.000344417               0.999999992               0.000195825               0.000366533               0.999999992               0.000207417               0.000388858               0.999999992               0.000219337               0.000410974               0.999999992               0.000231478               0.000432613               0.999999992               0.000243742               0.000453383               0.999999992               0.000256148               0.000473030               0.999999992               0.000111290               0.000314954               0.999999992               0.000109116               0.000274837               0.999999992               0.000108859               0.000266816               0.999999992               0.000111495               0.000273589               0.999999992               0.000116376               0.000288045               0.999999992               0.000123088               0.000306991               0.999999992               0.000131295               0.000328785               0.999999992               0.000140691               0.000352448               0.999999992               0.000150954               0.000377394               0.999999992               0.000161805               0.000403276               0.999999992               0.000173185               0.000429871               0.999999992               0.000184941               0.000457047               0.999999992               0.000196908               0.000484494               0.999999992               0.000209026               0.000511618               0.999999992               0.000221188               0.000538285               0.999999992               0.000233405               0.000564278               0.999999992               0.000245670               0.000589601               0.999999992               0.000103984               0.000370392               0.999999992               0.000092355               0.000325179               0.999999992               0.000089871               0.000317838               0.999999992               0.000092841               0.000327194               0.999999992               0.000099030               0.000345064               0.999999992               0.000107361               0.000367898               0.999999992               0.000117196               0.000393994               0.999999992               0.000128041               0.000422081               0.999999992               0.000139567               0.000451580               0.999999992               0.000151548               0.000482035               0.999999992               0.000163840               0.000513355               0.999999992               0.000176268               0.000545315               0.999999992               0.000188743               0.000577328               0.999999992               0.000201133               0.000608941               0.999999992               0.000213434               0.000640175               0.999999992               0.000225568               0.000670805               0.999999992               0.000237416               0.000700753               0.999999992               0.000095640               0.000421935               0.999999992               0.000075130               0.000373506               0.999999992               0.000071587               0.000367277               0.999999992               0.000075806               0.000379188               0.999999992               0.000083760               0.000400355               0.999999992               0.000093879               0.000427058               0.999999992               0.000105428               0.000457403               0.999999992               0.000117826               0.000489704               0.999999992               0.000130625               0.000523430               0.999999992               0.000143610               0.000558342               0.999999992               0.000156673               0.000594090               0.999999992               0.000169648               0.000630269               0.999999992               0.000182399               0.000666391               0.999999992               0.000194851               0.000702096               0.999999992               0.000206956               0.000737374               0.999999992               0.000218682               0.000772142               0.999999992               0.000229936               0.000806053               0.999999992               0.000086944               0.000468600               0.999999992               0.000058153               0.000419724               0.999999992               0.000055054               0.000414646               0.999999992               0.000061045               0.000428934               0.999999992               0.000071011               0.000453320               0.999999992               0.000083081               0.000483787               0.999999992               0.000096381               0.000518091               0.999999992               0.000110097               0.000554552               0.999999992               0.000123827               0.000592530               0.999999992               0.000137549               0.000631617               0.999999992               0.000151056               0.000671440               0.999999992               0.000164205               0.000711471               0.999999992               0.000176896               0.000751256               0.999999992               0.000189071               0.000790707               0.999999992               0.000200909               0.000829723               0.999999992               0.000212425               0.000868071               0.999999992               0.000223699               0.000905680               0.999999992               0.000078711               0.000512008               0.999999992               0.000045100               0.000468519               0.999999992               0.000039531               0.000459720               0.999999992               0.000044089               0.000469320               0.999999992               0.000053040               0.000489173               0.999999992               0.000063893               0.000515465               0.999999992               0.000076090               0.000545943               0.999999992               0.000088697               0.000579151               0.999999992               0.000101051               0.000613995               0.999999992               0.000113299               0.000650078               0.999999992               0.000125316               0.000687063               0.999999992               0.000137062               0.000724535               0.999999992               0.000148354               0.000762173               0.999999992               0.000159098               0.000799710               0.999999992               0.000169397               0.000837075               0.999999992               0.000179472               0.000874184               0.999999992               0.000189616               0.000910718               0.999999992               0.000069386               0.000551176               0.999999992               0.000034030               0.000514976               0.999999992               0.000026013               0.000505170               0.999999992               0.000028713               0.000511289               0.999999992               0.000036190               0.000527332               0.999999992               0.000045760               0.000549787               0.999999992               0.000056474               0.000576703               0.999999992               0.000067740               0.000606687               0.999999992               0.000078790               0.000638580               0.999999992               0.000089428               0.000671914               0.999999992               0.000099880               0.000706176               0.999999992               0.000110145               0.000741096               0.999999992               0.000119878               0.000776323               0.999999992               0.000128981               0.000811683               0.999999992               0.000137393               0.000846991               0.999999992               0.000145416               0.000882337               0.999999992               0.000153300               0.000917590               0.999999992               0.000059290               0.000585287               0.999999992               0.000024850               0.000557981               0.999999992               0.000015118               0.000549112               0.999999992               0.000015885               0.000553312               0.999999992               0.000021586               0.000566442               0.999999992               0.000029490               0.000585868               0.999999992               0.000038512               0.000609710               0.999999992               0.000048122               0.000636821               0.999999992               0.000057607               0.000666132               0.999999992               0.000066764               0.000696915               0.999999992               0.000075708               0.000728745               0.999999992               0.000084396               0.000761339               0.999999992               0.000092495               0.000794482               0.999999992               0.000099646               0.000827910               0.999999992               0.000105848               0.000861396               0.999999992               0.000110995               0.000894925               0.999999992               0.000115450               0.000928585               0.999999992               0.000048462               0.000613876               0.999999992               0.000017484               0.000596011               0.999999992               0.000007162               0.000589532               0.999999992               0.000006360               0.000593143               0.999999992               0.000010210               0.000604449               0.999999992               0.000016297               0.000621577               0.999999992               0.000023375               0.000643125               0.999999992               0.000031061               0.000667936               0.999999992               0.000038880               0.000695124               0.999999992               0.000046488               0.000723892               0.999999992               0.000053852               0.000753858               0.999999992               0.000060815               0.000784691               0.999999992               0.000067102               0.000816198               0.999999992               0.000072354               0.000848227               0.999999992               0.000076287               0.000880430               0.999999992               0.000078558               0.000912673               0.999999992               0.000079082               0.000945051               0.999999992               0.000036929               0.000636560               0.999999992               0.000011725               0.000627496               0.999999992               0.000002179               0.000624205               0.999999992               0.000000451               0.000628251               0.999999992               0.000002722               0.000638701               0.999999992               0.000006891               0.000654359               0.999999992               0.000011994               0.000674245               0.999999992               0.000017716               0.000697424               0.999999992               0.000023637               0.000723066               0.999999992               0.000029473               0.000750502               0.999999992               0.000035144               0.000779263               0.999999992               0.000040381               0.000809013               0.999999992               0.000044963               0.000839566               0.999999992               0.000048490               0.000870741               0.999999992               0.000050523               0.000902234               0.999999992               0.000050600               0.000933848               0.999999992               0.000048023               0.000965562               0.999999992               0.000024906               0.000652815               0.999999992               0.000007188               0.000650970               0.999999992              -0.000000174               0.000650955               0.999999992              -0.000002023               0.000655975               0.999999992              -0.000000928               0.000666251               0.999999992               0.000001584               0.000681129               0.999999992               0.000004826               0.000699927               0.999999992               0.000008497               0.000721942               0.999999992               0.000012462               0.000746574               0.999999992               0.000016458               0.000773120               0.999999992               0.000020414               0.000801159               0.999999992               0.000024027               0.000830375               0.999999992               0.000027006               0.000860510               0.999999992               0.000029055               0.000891452               0.999999992               0.000029803               0.000922947               0.999999992               0.000028633               0.000954667               0.999999992               0.000024855               0.000986440               0.999999992               0.000012544               0.000662585               0.999999992               0.000003400               0.000665400               0.999999992              -0.000000578               0.000667822               0.999999992              -0.000001783               0.000673810               0.999999992              -0.000001363               0.000684247               0.999999992              -0.000000238               0.000698825               0.999999992               0.000001302               0.000717045               0.999999992               0.000003078               0.000738349               0.999999992               0.000005109               0.000762178               0.999999992               0.000007138               0.000788101               0.999999992               0.000009178               0.000815744               0.999999992               0.000011105               0.000844802               0.999999992               0.000012624               0.000875103               0.999999992               0.000013497               0.000906338               0.999999992               0.000013525               0.000938234               0.999999992               0.000012381               0.000970455               0.999999992               0.000009611               0.001002647               0.999999992               0.000000000               0.000665886               0.999999992              -0.000000000               0.000670273               0.999999992               0.000000000               0.000673576               0.999999992              -0.000000000               0.000679949               0.999999992               0.000000000               0.000690462               0.999999992               0.000000000               0.000705011               0.999999992               0.000000000               0.000723030               0.999999992               0.000000000               0.000744047               0.999999992               0.000000000               0.000767614               0.999999992              -0.000000000               0.000793313               0.999999992              -0.000000000               0.000820832               0.999999992              -0.000000000               0.000849874               0.999999992               0.000000000               0.000880245               0.999999992              -0.000000000               0.000911739               0.999999992              -0.000000000               0.000943928               0.999999992              -0.000000000               0.000976390               0.999999992               0.000000000               0.001008790               0.999999992 </DataArray>
<DataArray type="Float64"                                    Name="stress"                                                      NumberOfComponents="10" format="ascii">
              0.001093720               0.012253740               0.000000000              -0.001121570               0.004458396               0.003336826               0.000000000               0.000000000               0.000000000               0.000000000               0.001176064               0.009960106               0.000000000              -0.000803987               0.003587998               0.002784011               0.000000000               0.000000000               0.000000000               0.000000000               0.001623347               0.008125937               0.000000000              -0.000406986               0.002844281               0.002437295               0.000000000               0.000000000               0.000000000               0.000000000               0.001663122               0.007128871               0.000000000              -0.000267437               0.002465412               0.002197975               0.000000000               0.000000000               0.000000000               0.000000000               0.001559318               0.006542031               0.000000000              -0.000233009               0.002258325               0.002025316               0.000000000               0.000000000               0.000000000               0.000000000               0.001420553               0.006173802               0.000000000              -0.000239017               0.002137586               0.001898568               0.000000000               0.000000000               0.000000000               0.000000000               0.001271539               0.005924158               0.000000000              -0.000263692               0.002062597               0.001798905               0.000000000               0.000000000               0.000000000               0.000000000               0.001118442               0.005751162               0.000000000              -0.000299479               0.002016861               0.001717382               0.000000000               0.000000000               0.000000000               0.000000000               0.000969749               0.005625687               0.000000000              -0.000339554               0.001988395               0.001648841               0.000000000               0.000000000               0.000000000               0.000000000               0.000830572               0.005528708               0.000000000              -0.000379623               0.001969425               0.001589802               0.000000000               0.000000000               0.000000000               0.000000000               0.000699968               0.005450753              -0.000000000              -0.000418855               0.001956518               0.001537663               0.000000000               0.000000000               0.000000000               0.000000000               0.000574023               0.005384425               0.000000000              -0.000457793               0.001947388               0.001489595               0.000000000               0.000000000               0.000000000               0.000000000               0.000449581               0.005323850              -0.000000000              -0.000496887               0.001940228               0.001443341               0.000000000               0.000000000               0.000000000               0.000000000               0.000322755               0.005262587              -0.000000000              -0.000536789               0.001933108               0.001396319               0.000000000               0.000000000               0.000000000               0.000000000               0.000200780               0.005193662              -0.000000000              -0.000573914               0.001922508               0.001348594               0.000000000               0.000000000               0.000000000               0.000000000               0.000093459               0.005106899              -0.000000000              -0.000603314               0.001903387               0.001300073               0.000000000               0.000000000               0.000000000               0.000000000               0.000036864               0.005034702              -0.000000000              -0.000615512               0.001883388               0.001267876               0.000000000               0.000000000               0.000000000               0.000000000               0.001147972               0.012028252              -0.000887421              -0.001073039               0.004367057               0.003294017               0.000000000               0.000000000               0.000000000               0.000000000               0.001178637               0.009808461              -0.000525407              -0.000784067               0.003530810               0.002746743               0.000000000               0.000000000               0.000000000               0.000000000               0.001568066               0.008049634              -0.000155895              -0.000418179               0.002822577               0.002404399               0.000000000               0.000000000               0.000000000               0.000000000               0.001583757               0.007090014               0.000009528              -0.000292342               0.002460762               0.002168419               0.000000000               0.000000000               0.000000000               0.000000000               0.001475624               0.006520345               0.000082736              -0.000261683               0.002260654               0.001998971               0.000000000               0.000000000               0.000000000               0.000000000               0.001338437               0.006156662               0.000112836              -0.000267668               0.002141423               0.001873754               0.000000000               0.000000000               0.000000000               0.000000000               0.001192803               0.005908973               0.000125413              -0.000291320               0.002066745               0.001775425               0.000000000               0.000000000               0.000000000               0.000000000               0.001045662               0.005735882               0.000130572              -0.000324861               0.002020229               0.001695368               0.000000000               0.000000000               0.000000000               0.000000000               0.000905346               0.005612141               0.000128702              -0.000362012               0.001991366               0.001629354               0.000000000               0.000000000               0.000000000               0.000000000               0.000772715               0.005517554               0.000123360              -0.000399925               0.001972475               0.001572550               0.000000000               0.000000000               0.000000000               0.000000000               0.000646366               0.005438891               0.000117093              -0.000437473               0.001958770               0.001521297               0.000000000               0.000000000               0.000000000               0.000000000               0.000526045               0.005372000               0.000110617              -0.000474232               0.001948726               0.001474494               0.000000000               0.000000000               0.000000000               0.000000000               0.000408631               0.005312328               0.000103320              -0.000510803               0.001941026               0.001430223               0.000000000               0.000000000               0.000000000               0.000000000               0.000292631               0.005252355               0.000092708              -0.000546806               0.001933036               0.001386230               0.000000000               0.000000000               0.000000000               0.000000000               0.000182016               0.005185856               0.000076274              -0.000579974               0.001921926               0.001341952               0.000000000               0.000000000               0.000000000               0.000000000               0.000082928               0.005107332               0.000045819              -0.000607317               0.001904866               0.001297549               0.000000000               0.000000000               0.000000000               0.000000000               0.000032447               0.005048972               0.000026709              -0.000618952               0.001889291               0.001270339               0.000000000               0.000000000               0.000000000               0.000000000               0.001294066               0.011380448              -0.001671807              -0.000937280               0.004105871               0.003168591               0.000000000               0.000000000               0.000000000               0.000000000               0.001179976               0.009371717              -0.000996072              -0.000728972               0.003366865               0.002637893               0.000000000               0.000000000               0.000000000               0.000000000               0.001412724               0.007829517              -0.000310178              -0.000448917               0.002759452               0.002310535               0.000000000               0.000000000               0.000000000               0.000000000               0.001368016               0.006974353              -0.000008638              -0.000358787               0.002444357               0.002085569               0.000000000               0.000000000               0.000000000               0.000000000               0.001245363               0.006452476               0.000122119              -0.000339548               0.002263986               0.001924439               0.000000000               0.000000000               0.000000000               0.000000000               0.001113074               0.006108497               0.000175239              -0.000346159               0.002151532               0.001805373               0.000000000               0.000000000               0.000000000               0.000000000               0.000981078               0.005873086               0.000197116              -0.000366231               0.002079753               0.001713522               0.000000000               0.000000000               0.000000000               0.000000000               0.000851888               0.005705860               0.000205541              -0.000393774               0.002033192               0.001639419               0.000000000               0.000000000               0.000000000               0.000000000               0.000731345               0.005582428               0.000202615              -0.000423548               0.002001973               0.001578425               0.000000000               0.000000000               0.000000000               0.000000000               0.000616100               0.005485348               0.000191359              -0.000454630               0.001979974               0.001525344               0.000000000               0.000000000               0.000000000               0.000000000               0.000504246               0.005404523               0.000178943              -0.000486472               0.001963647               0.001477175               0.000000000               0.000000000               0.000000000               0.000000000               0.000400085               0.005338469               0.000168762              -0.000517276               0.001951897               0.001434621               0.000000000               0.000000000               0.000000000               0.000000000               0.000302140               0.005280575               0.000156038              -0.000546768               0.001942430               0.001395662               0.000000000               0.000000000               0.000000000               0.000000000               0.000211339               0.005224284               0.000136291              -0.000573782               0.001932671               0.001358889               0.000000000               0.000000000               0.000000000               0.000000000               0.000130710               0.005168140               0.000107149              -0.000597000               0.001921696               0.001324696               0.000000000               0.000000000               0.000000000               0.000000000               0.000058911               0.005109960               0.000061976              -0.000616652               0.001908854               0.001292202               0.000000000               0.000000000               0.000000000               0.000000000               0.000023318               0.005073980               0.000035623              -0.000625502               0.001899810               0.001274309               0.000000000               0.000000000               0.000000000               0.000000000               0.001489178               0.010394883              -0.002279263              -0.000740918               0.003711899               0.002970980               0.000000000               0.000000000               0.000000000               0.000000000               0.001169728               0.008707173              -0.001374532              -0.000649748               0.003118945               0.002469197               0.000000000               0.000000000               0.000000000               0.000000000               0.001180835               0.007491138              -0.000464518              -0.000493578               0.002661547               0.002167969               0.000000000               0.000000000               0.000000000               0.000000000               0.001062411               0.006788741              -0.000075931              -0.000450187               0.002412953               0.001962766               0.000000000               0.000000000               0.000000000               0.000000000               0.000929106               0.006339082               0.000091802              -0.000443969               0.002260996               0.001817027               0.000000000               0.000000000               0.000000000               0.000000000               0.000810939               0.006036922               0.000162094              -0.000450512               0.002162458               0.001711946               0.000000000               0.000000000               0.000000000               0.000000000               0.000702984               0.005826799               0.000193235              -0.000464730               0.002097157               0.001632427               0.000000000               0.000000000               0.000000000               0.000000000               0.000600191               0.005669770               0.000204486              -0.000483649               0.002051121               0.001567472               0.000000000               0.000000000               0.000000000               0.000000000               0.000505665               0.005544353               0.000201652              -0.000503418               0.002015905               0.001512487               0.000000000               0.000000000               0.000000000               0.000000000               0.000417166               0.005441525               0.000191597              -0.000523752               0.001988407               0.001464656               0.000000000               0.000000000               0.000000000               0.000000000               0.000333356               0.005359572               0.000182810              -0.000544937               0.001968152               0.001423215               0.000000000               0.000000000               0.000000000               0.000000000               0.000257350               0.005295895               0.000175486              -0.000565479               0.001953774               0.001388295               0.000000000               0.000000000               0.000000000               0.000000000               0.000186805               0.005240086               0.000162190              -0.000584957               0.001941664               0.001356706               0.000000000               0.000000000               0.000000000               0.000000000               0.000123116               0.005188199               0.000141349              -0.000602355               0.001930167               0.001327812               0.000000000               0.000000000               0.000000000               0.000000000               0.000073307               0.005143056               0.000109847              -0.000615390               0.001919465               0.001304075               0.000000000               0.000000000               0.000000000               0.000000000               0.000033985               0.005104783               0.000061759              -0.000625352               0.001910028               0.001284676               0.000000000               0.000000000               0.000000000               0.000000000               0.000015391               0.005085918               0.000033936              -0.000629966               0.001905278               0.001275311               0.000000000               0.000000000               0.000000000               0.000000000               0.001666846               0.009186069              -0.002662289              -0.000523193               0.003236389               0.002713197               0.000000000               0.000000000               0.000000000               0.000000000               0.001125976               0.007903493              -0.001634605              -0.000565695               0.002823036               0.002257341               0.000000000               0.000000000               0.000000000               0.000000000               0.000899077               0.007084033              -0.000610325              -0.000548349               0.002544104               0.001995755               0.000000000               0.000000000               0.000000000               0.000000000               0.000719936               0.006563272              -0.000186127              -0.000550432               0.002371213               0.001820781               0.000000000               0.000000000               0.000000000               0.000000000               0.000591924               0.006202455               0.000000105              -0.000553334               0.002251909               0.001698575               0.000000000               0.000000000               0.000000000               0.000000000               0.000500543               0.005949286               0.000082362              -0.000555956               0.002168394               0.001612439               0.000000000               0.000000000               0.000000000               0.000000000               0.000423870               0.005761236               0.000119346              -0.000561202               0.002107460               0.001546258               0.000000000               0.000000000               0.000000000               0.000000000               0.000351192               0.005607787               0.000134703              -0.000569275               0.002059002               0.001489727               0.000000000               0.000000000               0.000000000               0.000000000               0.000290507               0.005482184               0.000138094              -0.000576331               0.002019487               0.001443155               0.000000000               0.000000000               0.000000000               0.000000000               0.000236979               0.005381067               0.000136939              -0.000583765               0.001988259               0.001404494               0.000000000               0.000000000               0.000000000               0.000000000               0.000185805               0.005300207               0.000138328              -0.000592848               0.001964334               0.001371486               0.000000000               0.000000000               0.000000000               0.000000000               0.000140751               0.005233983               0.000139363              -0.000601465               0.001945132               0.001343667               0.000000000               0.000000000               0.000000000               0.000000000               0.000101509               0.005176288               0.000130435              -0.000608968               0.001928401               0.001319433               0.000000000               0.000000000               0.000000000               0.000000000               0.000066925               0.005122699               0.000112993              -0.000615239               0.001912629               0.001297390               0.000000000               0.000000000               0.000000000               0.000000000               0.000040048               0.005076779               0.000086055              -0.000619578               0.001898769               0.001279191               0.000000000               0.000000000               0.000000000               0.000000000               0.000019064               0.005043886               0.000046195              -0.000623335               0.001889057               0.001265722               0.000000000               0.000000000               0.000000000               0.000000000               0.000010163               0.005032859               0.000023249              -0.000625295               0.001886034               0.001260740               0.000000000               0.000000000               0.000000000               0.000000000               0.001767106               0.007870825              -0.002808458              -0.000321190               0.002730645               0.002409454               0.000000000               0.000000000               0.000000000               0.000000000               0.001035950               0.007048060              -0.001775096              -0.000492526               0.002513505               0.002020978               0.000000000               0.000000000               0.000000000               0.000000000               0.000601003               0.006649995              -0.000748064              -0.000605872               0.002418600               0.001812728               0.000000000               0.000000000               0.000000000               0.000000000               0.000394384               0.006310247              -0.000331043              -0.000640886               0.002317023               0.001676138               0.000000000               0.000000000               0.000000000               0.000000000               0.000291034               0.006035676              -0.000143032              -0.000645320               0.002226979               0.001581659               0.000000000               0.000000000               0.000000000               0.000000000               0.000229487               0.005819960              -0.000052219              -0.000641436               0.002153779               0.001512343               0.000000000               0.000000000               0.000000000               0.000000000               0.000186753               0.005648695              -0.000006805              -0.000636053               0.002094897               0.001458844               0.000000000               0.000000000               0.000000000               0.000000000               0.000151460               0.005503376               0.000019282              -0.000631123               0.002044815               0.001413692               0.000000000               0.000000000               0.000000000               0.000000000               0.000126446               0.005382643               0.000036883              -0.000625412               0.002002667               0.001377255               0.000000000               0.000000000               0.000000000               0.000000000               0.000104901               0.005282586               0.000050769              -0.000620984               0.001967839               0.001346855               0.000000000               0.000000000               0.000000000               0.000000000               0.000083479               0.005200295               0.000064362              -0.000618731               0.001939658               0.001320927               0.000000000               0.000000000               0.000000000               0.000000000               0.000066142               0.005128195               0.000074670              -0.000616220               0.001914788               0.001298568               0.000000000               0.000000000               0.000000000               0.000000000               0.000050305               0.005058676               0.000072559              -0.000613468               0.001890698               0.001277230               0.000000000               0.000000000               0.000000000               0.000000000               0.000035348               0.004992311               0.000061477              -0.000610782               0.001867681               0.001256899               0.000000000               0.000000000               0.000000000               0.000000000               0.000022664               0.004935217               0.000044353              -0.000608401               0.001847856               0.001239455               0.000000000               0.000000000               0.000000000               0.000000000               0.000010546               0.004890144               0.000021470              -0.000607312               0.001832469               0.001225157               0.000000000               0.000000000               0.000000000               0.000000000               0.000002563               0.004867128               0.000011082              -0.000607429               0.001824836               0.001217407               0.000000000               0.000000000               0.000000000               0.000000000               0.001750555               0.006552107              -0.002747404              -0.000162558               0.002238199               0.002075641               0.000000000               0.000000000               0.000000000               0.000000000               0.000906357               0.006199769              -0.001822512              -0.000435088               0.002211598               0.001776510               0.000000000               0.000000000               0.000000000               0.000000000               0.000325885               0.006198676              -0.000890259              -0.000652626               0.002283747               0.001631120               0.000000000               0.000000000               0.000000000               0.000000000               0.000125061               0.006014580              -0.000504692              -0.000704923               0.002239814               0.001534891               0.000000000               0.000000000               0.000000000               0.000000000               0.000058254               0.005814074              -0.000317023              -0.000704912               0.002172976               0.001468064               0.000000000               0.000000000               0.000000000               0.000000000               0.000033005               0.005639226              -0.000211655              -0.000692525               0.002110565               0.001418040               0.000000000               0.000000000               0.000000000               0.000000000               0.000025109               0.005492461              -0.000149613              -0.000677140               0.002056516               0.001379375               0.000000000               0.000000000               0.000000000               0.000000000               0.000023288               0.005359473              -0.000107615              -0.000661199               0.002006873               0.001345673               0.000000000               0.000000000               0.000000000               0.000000000               0.000023440               0.005242392              -0.000072965              -0.000646507               0.001962949               0.001316442               0.000000000               0.000000000               0.000000000               0.000000000               0.000022695               0.005142447              -0.000042196              -0.000634294               0.001925563               0.001291269               0.000000000               0.000000000               0.000000000               0.000000000               0.000021273               0.005054539              -0.000012969              -0.000623839               0.001892776               0.001268937               0.000000000               0.000000000               0.000000000               0.000000000               0.000019102               0.004969674               0.000007822              -0.000614044               0.001861223               0.001247179               0.000000000               0.000000000               0.000000000               0.000000000               0.000015383               0.004884464               0.000014852              -0.000604788               0.001829734               0.001224946               0.000000000               0.000000000               0.000000000               0.000000000               0.000010131               0.004804524               0.000015969              -0.000596765               0.001800413               0.001203649               0.000000000               0.000000000               0.000000000               0.000000000               0.000003960               0.004733461               0.000014150              -0.000590196               0.001774537               0.001184340               0.000000000               0.000000000               0.000000000               0.000000000               0.000001918               0.004673001               0.000007106              -0.000583404               0.001752119               0.001168715               0.000000000               0.000000000               0.000000000               0.000000000              -0.000004488               0.004633428               0.000007190              -0.000580860               0.001738081               0.001157221               0.000000000               0.000000000               0.000000000               0.000000000               0.001624303               0.005302389              -0.002528794              -0.000053689               0.001785341               0.001731652               0.000000000               0.000000000               0.000000000               0.000000000               0.000748330               0.005401600              -0.001803701              -0.000394577               0.001932041               0.001537463               0.000000000               0.000000000               0.000000000               0.000000000               0.000102344               0.005740845              -0.001036601              -0.000679225               0.002140004               0.001460779               0.000000000               0.000000000               0.000000000               0.000000000              -0.000063785               0.005688563              -0.000683331              -0.000734988               0.002141165               0.001406176               0.000000000               0.000000000               0.000000000               0.000000000              -0.000088611               0.005560441              -0.000486924              -0.000728283               0.002096223               0.001367940               0.000000000               0.000000000               0.000000000               0.000000000              -0.000079453               0.005430207              -0.000362137              -0.000708569               0.002046241               0.001337672               0.000000000               0.000000000               0.000000000               0.000000000              -0.000061779               0.005304310              -0.000281320              -0.000686204               0.001996820               0.001310616               0.000000000               0.000000000               0.000000000               0.000000000              -0.000041628               0.005184002              -0.000222528              -0.000663609               0.001949187               0.001285577               0.000000000               0.000000000               0.000000000               0.000000000              -0.000026195               0.005074519              -0.000167987              -0.000644136               0.001906202               0.001262065               0.000000000               0.000000000               0.000000000               0.000000000              -0.000017589               0.004974723              -0.000118286              -0.000628435               0.001867703               0.001239268               0.000000000               0.000000000               0.000000000               0.000000000              -0.000013889               0.004877100              -0.000074995              -0.000614844               0.001830632               0.001215787               0.000000000               0.000000000               0.000000000               0.000000000              -0.000013041               0.004776135              -0.000041736              -0.000601906               0.001792664               0.001190759               0.000000000               0.000000000               0.000000000               0.000000000              -0.000014172               0.004676686              -0.000020133              -0.000589899               0.001755513               0.001165614               0.000000000               0.000000000               0.000000000               0.000000000              -0.000016821               0.004586570              -0.000004925              -0.000579628               0.001722051               0.001142423               0.000000000               0.000000000               0.000000000               0.000000000              -0.000018874               0.004505286               0.000006215              -0.000570237               0.001691826               0.001121589               0.000000000               0.000000000               0.000000000               0.000000000              -0.000013392               0.004433472               0.000007796              -0.000559205               0.001664211               0.001105006               0.000000000               0.000000000               0.000000000               0.000000000              -0.000013019               0.004388184               0.000009530              -0.000553404               0.001647181               0.001093777               0.000000000               0.000000000               0.000000000               0.000000000               0.001448633               0.004217813              -0.002208290               0.000016007               0.001400587               0.001416594               0.000000000               0.000000000               0.000000000               0.000000000               0.000611155               0.004683173              -0.001749438              -0.000356214               0.001679779               0.001323565               0.000000000               0.000000000               0.000000000               0.000000000              -0.000042020               0.005309886              -0.001199076              -0.000679492               0.001996441               0.001316949               0.000000000               0.000000000               0.000000000               0.000000000              -0.000168806               0.005392827              -0.000870179              -0.000737404               0.002043392               0.001305988               0.000000000               0.000000000               0.000000000               0.000000000              -0.000160059               0.005342536              -0.000660654              -0.000727838               0.002023440               0.001295602               0.000000000               0.000000000               0.000000000               0.000000000              -0.000128441               0.005256423              -0.000515869              -0.000705216               0.001987196               0.001281979               0.000000000               0.000000000               0.000000000               0.000000000              -0.000091303               0.005152726              -0.000412718              -0.000678328               0.001943667               0.001265340               0.000000000               0.000000000               0.000000000               0.000000000              -0.000054916               0.005050136              -0.000331359              -0.000651859               0.001900648               0.001248789               0.000000000               0.000000000               0.000000000               0.000000000              -0.000035101               0.004950323              -0.000258650              -0.000631952               0.001860742               0.001228790               0.000000000               0.000000000               0.000000000               0.000000000              -0.000026584               0.004851849              -0.000194247              -0.000616449               0.001822750               0.001206301               0.000000000               0.000000000               0.000000000               0.000000000              -0.000023992               0.004748791              -0.000138268              -0.000602594               0.001783779               0.001181185               0.000000000               0.000000000               0.000000000               0.000000000              -0.000025907               0.004637584              -0.000092674              -0.000589412               0.001742317               0.001152905               0.000000000               0.000000000               0.000000000               0.000000000              -0.000030120               0.004528501              -0.000055323              -0.000577356               0.001701937               0.001124581               0.000000000               0.000000000               0.000000000               0.000000000              -0.000038855               0.004428630              -0.000025315              -0.000568148               0.001665578               0.001097430               0.000000000               0.000000000               0.000000000               0.000000000              -0.000050770               0.004334384              -0.000004645              -0.000560835               0.001631725               0.001070890               0.000000000               0.000000000               0.000000000               0.000000000              -0.000058058               0.004244603               0.000004321              -0.000552346               0.001598969               0.001046623               0.000000000               0.000000000               0.000000000               0.000000000              -0.000057935               0.004195764               0.000006600              -0.000546195               0.001580639               0.001034444               0.000000000               0.000000000               0.000000000               0.000000000               0.001195164               0.003194744              -0.001841069               0.000048840               0.001048623               0.001097463               0.000000000               0.000000000               0.000000000               0.000000000               0.000521889               0.003861994              -0.001673940              -0.000287042               0.001382998               0.001095957               0.000000000               0.000000000               0.000000000               0.000000000              -0.000077203               0.004694379              -0.001378970              -0.000615748               0.001770026               0.001154278               0.000000000               0.000000000               0.000000000               0.000000000              -0.000193570               0.004950572              -0.001090564              -0.000691409               0.001880644               0.001189235               0.000000000               0.000000000               0.000000000               0.000000000              -0.000174544               0.005014770              -0.000869986              -0.000692299               0.001902339               0.001210041               0.000000000               0.000000000               0.000000000               0.000000000              -0.000133489               0.005005071              -0.000703354              -0.000675691               0.001893571               0.001217880               0.000000000               0.000000000               0.000000000               0.000000000              -0.000095925               0.004957920              -0.000576063              -0.000655710               0.001871194               0.001215483               0.000000000               0.000000000               0.000000000               0.000000000              -0.000059198               0.004890418              -0.000468663              -0.000633500               0.001841290               0.001207790               0.000000000               0.000000000               0.000000000               0.000000000              -0.000037526               0.004811859              -0.000375864              -0.000615553               0.001809121               0.001193568               0.000000000               0.000000000               0.000000000               0.000000000              -0.000032010               0.004733078              -0.000297169              -0.000603637               0.001778889               0.001175252               0.000000000               0.000000000               0.000000000               0.000000000              -0.000033829               0.004645572              -0.000229382              -0.000593381               0.001746302               0.001152921               0.000000000               0.000000000               0.000000000               0.000000000              -0.000038869               0.004548805              -0.000170112              -0.000583175               0.001710645               0.001127470               0.000000000               0.000000000               0.000000000               0.000000000              -0.000049590               0.004447569              -0.000115442              -0.000574541               0.001674022               0.001099481               0.000000000               0.000000000               0.000000000               0.000000000              -0.000066671               0.004348391              -0.000067373              -0.000568549               0.001638966               0.001070416               0.000000000               0.000000000               0.000000000               0.000000000              -0.000091021               0.004254542              -0.000029359              -0.000565949               0.001606816               0.001040867               0.000000000               0.000000000               0.000000000               0.000000000              -0.000119030               0.004160032              -0.000007038              -0.000564639               0.001574876               0.001010238               0.000000000               0.000000000               0.000000000               0.000000000              -0.000133838               0.004107485               0.000000769              -0.000563624               0.001557023               0.000993399               0.000000000               0.000000000               0.000000000               0.000000000               0.000798993               0.002251733              -0.001444906               0.000018154               0.000744518               0.000762672               0.000000000               0.000000000               0.000000000               0.000000000               0.000414002               0.003047308              -0.001550159              -0.000225664               0.001090980               0.000865316               0.000000000               0.000000000               0.000000000               0.000000000              -0.000043368               0.004005927              -0.001512848              -0.000517004               0.001507629               0.000990626               0.000000000               0.000000000               0.000000000               0.000000000              -0.000149146               0.004424938              -0.001299467              -0.000609046               0.001677980               0.001068933               0.000000000               0.000000000               0.000000000               0.000000000              -0.000139790               0.004614377              -0.001087049              -0.000629218               0.001747849               0.001118632               0.000000000               0.000000000               0.000000000               0.000000000              -0.000101327               0.004699664              -0.000907402              -0.000625454               0.001775024               0.001149569               0.000000000               0.000000000               0.000000000               0.000000000              -0.000070461               0.004727252              -0.000760612              -0.000617328               0.001781511               0.001164183               0.000000000               0.000000000               0.000000000               0.000000000              -0.000042570               0.004712684              -0.000634469              -0.000605048               0.001772561               0.001167514               0.000000000               0.000000000               0.000000000               0.000000000              -0.000019428               0.004675507              -0.000523913              -0.000591722               0.001755728               0.001164005               0.000000000               0.000000000               0.000000000               0.000000000              -0.000010357               0.004624368              -0.000431868              -0.000581929               0.001735417               0.001153488               0.000000000               0.000000000               0.000000000               0.000000000              -0.000010839               0.004559724              -0.000356234              -0.000574029               0.001711236               0.001137207               0.000000000               0.000000000               0.000000000               0.000000000              -0.000016816               0.004485792              -0.000285862              -0.000567029               0.001684259               0.001117230               0.000000000               0.000000000               0.000000000               0.000000000              -0.000031628               0.004403164              -0.000215632              -0.000562255               0.001655125               0.001092870               0.000000000               0.000000000               0.000000000               0.000000000              -0.000060081               0.004313857              -0.000147780              -0.000561761               0.001625192               0.001063430               0.000000000               0.000000000               0.000000000               0.000000000              -0.000101949               0.004226746              -0.000086492              -0.000566573               0.001597759               0.001031186               0.000000000               0.000000000               0.000000000               0.000000000              -0.000159777               0.004142712              -0.000036836              -0.000577754               0.001573475               0.000995721               0.000000000               0.000000000               0.000000000               0.000000000              -0.000204038               0.004091029              -0.000010769              -0.000587892               0.001559627               0.000971735               0.000000000               0.000000000               0.000000000               0.000000000               0.000293199               0.001443015              -0.001037921              -0.000070428               0.000504476               0.000434047               0.000000000               0.000000000               0.000000000               0.000000000               0.000249630               0.002274299              -0.001357420              -0.000190677               0.000821650               0.000630973               0.000000000               0.000000000               0.000000000               0.000000000               0.000018934               0.003247381              -0.001537410              -0.000398823               0.001215390               0.000816567               0.000000000               0.000000000               0.000000000               0.000000000              -0.000040548               0.003781367              -0.001417768              -0.000487876               0.001423068               0.000935192               0.000000000               0.000000000               0.000000000               0.000000000              -0.000035028               0.004088840              -0.001236545              -0.000524240               0.001537679               0.001013439               0.000000000               0.000000000               0.000000000               0.000000000              -0.000008965               0.004275747              -0.001060623              -0.000537830               0.001604511               0.001066681               0.000000000               0.000000000               0.000000000               0.000000000               0.000010407               0.004387426              -0.000908997              -0.000544525               0.001643969               0.001099444               0.000000000               0.000000000               0.000000000               0.000000000               0.000025361               0.004444114              -0.000776056              -0.000546003               0.001663357               0.001117355               0.000000000               0.000000000               0.000000000               0.000000000               0.000040960               0.004458979              -0.000659137              -0.000542011               0.001666982               0.001124971               0.000000000               0.000000000               0.000000000               0.000000000               0.000051753               0.004446494              -0.000561969              -0.000536403               0.001660951               0.001124548               0.000000000               0.000000000               0.000000000               0.000000000               0.000053738               0.004419163              -0.000480982              -0.000532242               0.001650454               0.001118211               0.000000000               0.000000000               0.000000000               0.000000000               0.000046501               0.004381848              -0.000403181              -0.000530292               0.001637365               0.001107073               0.000000000               0.000000000               0.000000000               0.000000000               0.000030744               0.004335423              -0.000321798              -0.000530397               0.001621926               0.001091528               0.000000000               0.000000000               0.000000000               0.000000000              -0.000000738               0.004273674              -0.000239310              -0.000534485               0.001602705               0.001068221               0.000000000               0.000000000               0.000000000               0.000000000              -0.000052098               0.004202149              -0.000156199              -0.000544804               0.001582304               0.001037500               0.000000000               0.000000000               0.000000000               0.000000000              -0.000129370               0.004131110              -0.000074901              -0.000564901               0.001565323               0.001000422               0.000000000               0.000000000               0.000000000               0.000000000              -0.000195519               0.004083135              -0.000028937              -0.000583710               0.001555601               0.000971891               0.000000000               0.000000000               0.000000000               0.000000000              -0.000284960               0.000809751              -0.000664055              -0.000208079               0.000339273               0.000131194               0.000000000               0.000000000               0.000000000               0.000000000               0.000040212               0.001577370              -0.001111389              -0.000182092               0.000586481               0.000404389               0.000000000               0.000000000               0.000000000               0.000000000               0.000090697               0.002471273              -0.001439478              -0.000274899               0.000915382               0.000640483               0.000000000               0.000000000               0.000000000               0.000000000               0.000112528               0.003068312              -0.001408619              -0.000341341               0.001136540               0.000795199               0.000000000               0.000000000               0.000000000               0.000000000               0.000130065               0.003470819              -0.001273688              -0.000385078               0.001285287               0.000900209               0.000000000               0.000000000               0.000000000               0.000000000               0.000145570               0.003753362              -0.001117256              -0.000414581               0.001389302               0.000974720               0.000000000               0.000000000               0.000000000               0.000000000               0.000152842               0.003952288              -0.000974832              -0.000436720               0.001462989               0.001026270               0.000000000               0.000000000               0.000000000               0.000000000               0.000155012               0.004084438              -0.000850946              -0.000452425               0.001512274               0.001059849               0.000000000               0.000000000               0.000000000               0.000000000               0.000158191               0.004161905              -0.000741220              -0.000460916               0.001540926               0.001080011               0.000000000               0.000000000               0.000000000               0.000000000               0.000160759               0.004203573              -0.000647994              -0.000465161               0.001556230               0.001091069               0.000000000               0.000000000               0.000000000               0.000000000               0.000159403               0.004225056              -0.000567089              -0.000468355               0.001564456               0.001096101               0.000000000               0.000000000               0.000000000               0.000000000               0.000151091               0.004231716              -0.000488292              -0.000472304               0.001567993               0.001095688               0.000000000               0.000000000               0.000000000               0.000000000               0.000138922               0.004229890              -0.000405261              -0.000476639               0.001568829               0.001092190               0.000000000               0.000000000               0.000000000               0.000000000               0.000116751               0.004208582              -0.000316626              -0.000482290               0.001563610               0.001081320               0.000000000               0.000000000               0.000000000               0.000000000               0.000074993               0.004164651              -0.000219350              -0.000492458               0.001552356               0.001059898               0.000000000               0.000000000               0.000000000               0.000000000               0.000009884               0.004115699              -0.000112398              -0.000510755               0.001542137               0.001031383               0.000000000               0.000000000               0.000000000               0.000000000              -0.000051821               0.004079193              -0.000050332              -0.000529331               0.001536161               0.001006830               0.000000000               0.000000000               0.000000000               0.000000000              -0.000867980               0.000351422              -0.000362493              -0.000369420               0.000240279              -0.000129141               0.000000000               0.000000000               0.000000000               0.000000000              -0.000191717               0.000994041              -0.000832592              -0.000196149               0.000396726               0.000200577               0.000000000               0.000000000               0.000000000               0.000000000               0.000156695               0.001751218              -0.001215902              -0.000160143               0.000637113               0.000476971               0.000000000               0.000000000               0.000000000               0.000000000               0.000281377               0.002363683              -0.001250676              -0.000189945               0.000851201               0.000661256               0.000000000               0.000000000               0.000000000               0.000000000               0.000326428               0.002831101              -0.001164088              -0.000231478               0.001020850               0.000789372               0.000000000               0.000000000               0.000000000               0.000000000               0.000339962               0.003191158              -0.001040841              -0.000271409               0.001154178               0.000882769               0.000000000               0.000000000               0.000000000               0.000000000               0.000339793               0.003468293              -0.000921643              -0.000306114               0.001258124               0.000952010               0.000000000               0.000000000               0.000000000               0.000000000               0.000329883               0.003672992              -0.000816569              -0.000335418               0.001336124               0.001000707               0.000000000               0.000000000               0.000000000               0.000000000               0.000318846               0.003817302              -0.000723334              -0.000357595               0.001391619               0.001034024               0.000000000               0.000000000               0.000000000               0.000000000               0.000309917               0.003917555              -0.000643517              -0.000373475               0.001430330               0.001056855               0.000000000               0.000000000               0.000000000               0.000000000               0.000303302               0.003989421              -0.000572373              -0.000384939               0.001458107               0.001073168               0.000000000               0.000000000               0.000000000               0.000000000               0.000297057               0.004042867              -0.000502359              -0.000393961               0.001478929               0.001084968               0.000000000               0.000000000               0.000000000               0.000000000               0.000291413               0.004084771              -0.000428036              -0.000401316               0.001495348               0.001094033               0.000000000               0.000000000               0.000000000               0.000000000               0.000283005               0.004106537              -0.000344702              -0.000407189               0.001504562               0.001097372               0.000000000               0.000000000               0.000000000               0.000000000               0.000266775               0.004103184              -0.000248832              -0.000412856               0.001505333               0.001092477               0.000000000               0.000000000               0.000000000               0.000000000               0.000239502               0.004086921              -0.000132762              -0.000421051               0.001502644               0.001081593               0.000000000               0.000000000               0.000000000               0.000000000               0.000212045               0.004071026              -0.000065413              -0.000429360               0.001500115               0.001070755               0.000000000               0.000000000               0.000000000               0.000000000              -0.001366153               0.000065223              -0.000156615              -0.000520460               0.000195226              -0.000325234               0.000000000               0.000000000               0.000000000               0.000000000              -0.000408156               0.000565824              -0.000543268              -0.000223786               0.000263201               0.000039414               0.000000000               0.000000000               0.000000000               0.000000000               0.000205555               0.001169030              -0.000878708              -0.000069047               0.000412688               0.000343641               0.000000000               0.000000000               0.000000000               0.000000000               0.000434921               0.001760645              -0.000940952              -0.000056986               0.000605871               0.000548884               0.000000000               0.000000000               0.000000000               0.000000000               0.000515552               0.002263249              -0.000896322              -0.000089575               0.000784267               0.000694692               0.000000000               0.000000000               0.000000000               0.000000000               0.000536207               0.002675340              -0.000814118              -0.000133340               0.000936218               0.000802877               0.000000000               0.000000000               0.000000000               0.000000000               0.000532105               0.003009886              -0.000728016              -0.000176697               0.001062184               0.000885487               0.000000000               0.000000000               0.000000000               0.000000000               0.000514258               0.003275224              -0.000650215              -0.000216556               0.001163916               0.000947359               0.000000000               0.000000000               0.000000000               0.000000000               0.000493326               0.003477769              -0.000581099              -0.000249724               0.001242486               0.000992762               0.000000000               0.000000000               0.000000000               0.000000000               0.000472440               0.003629644              -0.000521490              -0.000276540               0.001302049               0.001025509               0.000000000               0.000000000               0.000000000               0.000000000               0.000456934               0.003749935              -0.000468711              -0.000297391               0.001349096               0.001051705               0.000000000               0.000000000               0.000000000               0.000000000               0.000449915               0.003848825              -0.000415762              -0.000312384               0.001387057               0.001074673               0.000000000               0.000000000               0.000000000               0.000000000               0.000450826               0.003933869              -0.000359451              -0.000322673               0.001418834               0.001096161               0.000000000               0.000000000               0.000000000               0.000000000               0.000459428               0.004001439              -0.000296043              -0.000327893               0.001443097               0.001115204               0.000000000               0.000000000               0.000000000               0.000000000               0.000474944               0.004041784              -0.000219312              -0.000327118               0.001456287               0.001129169               0.000000000               0.000000000               0.000000000               0.000000000               0.000499868               0.004059429              -0.000120853              -0.000319977               0.001459789               0.001139811               0.000000000               0.000000000               0.000000000               0.000000000               0.000523699               0.004066179              -0.000065527              -0.000311884               0.001459341               0.001147456               0.000000000               0.000000000               0.000000000               0.000000000              -0.001703394              -0.000081274              -0.000049206              -0.000628613               0.000182445              -0.000446168               0.000000000               0.000000000               0.000000000               0.000000000              -0.000563128               0.000309797              -0.000265354              -0.000249897               0.000186563              -0.000063334               0.000000000               0.000000000               0.000000000               0.000000000               0.000232328               0.000792603              -0.000459206              -0.000011953               0.000268182               0.000256230               0.000000000               0.000000000               0.000000000               0.000000000               0.000544428               0.001354136              -0.000505248               0.000034893               0.000439743               0.000474636               0.000000000               0.000000000               0.000000000               0.000000000               0.000654975               0.001869241              -0.000488781               0.000011960               0.000619088               0.000631047               0.000000000               0.000000000               0.000000000               0.000000000               0.000684057               0.002308260              -0.000448511              -0.000032012               0.000780083               0.000748071               0.000000000               0.000000000               0.000000000               0.000000000               0.000679559               0.002674821              -0.000403599              -0.000079518               0.000918104               0.000838586               0.000000000               0.000000000               0.000000000               0.000000000               0.000658198               0.002974487              -0.000362317              -0.000124986               0.001033148               0.000908162               0.000000000               0.000000000               0.000000000               0.000000000               0.000627749               0.003215310              -0.000324286              -0.000166507               0.001127262               0.000960754               0.000000000               0.000000000               0.000000000               0.000000000               0.000597116               0.003410940              -0.000290973              -0.000202449               0.001204451               0.001002003               0.000000000               0.000000000               0.000000000               0.000000000               0.000570995               0.003572329              -0.000263449              -0.000232418               0.001268237               0.001035819               0.000000000               0.000000000               0.000000000               0.000000000               0.000558075               0.003712406              -0.000235478              -0.000254772               0.001322380               0.001067608               0.000000000               0.000000000               0.000000000               0.000000000               0.000563560               0.003834924              -0.000204602              -0.000268030               0.001367638               0.001099609               0.000000000               0.000000000               0.000000000               0.000000000               0.000588609               0.003933317              -0.000170194              -0.000270935               0.001401404               0.001130469               0.000000000               0.000000000               0.000000000               0.000000000               0.000636474               0.004002787              -0.000127979              -0.000261670               0.001421472               0.001159802               0.000000000               0.000000000               0.000000000               0.000000000               0.000715445               0.004044196              -0.000072189              -0.000237232               0.001427129               0.001189897               0.000000000               0.000000000               0.000000000               0.000000000               0.000789270               0.004067036              -0.000041448              -0.000212403               0.001426466               0.001214063               0.000000000               0.000000000               0.000000000               0.000000000              -0.001823202              -0.000127354              -0.000000000              -0.000667781               0.000180141              -0.000487640               0.000000000               0.000000000               0.000000000               0.000000000              -0.000619011               0.000224342              -0.000000000              -0.000260172               0.000161503              -0.000098668               0.000000000               0.000000000               0.000000000               0.000000000               0.000239744               0.000662210               0.000000000               0.000007128               0.000218359               0.000225486               0.000000000               0.000000000               0.000000000               0.000000000               0.000584229               0.001209822              -0.000000000               0.000067857               0.000380651               0.000448508               0.000000000               0.000000000               0.000000000               0.000000000               0.000706066               0.001727965              -0.000000000               0.000048778               0.000559723               0.000608502               0.000000000               0.000000000               0.000000000               0.000000000               0.000740030               0.002175116               0.000000000               0.000005621               0.000723158               0.000728779               0.000000000               0.000000000               0.000000000               0.000000000               0.000735860               0.002549633               0.000000000              -0.000042757               0.000864121               0.000821365               0.000000000               0.000000000               0.000000000               0.000000000               0.000713148               0.002861374               0.000000000              -0.000090241               0.000983862               0.000893621               0.000000000               0.000000000               0.000000000               0.000000000               0.000677776               0.003116991              -0.000000000              -0.000135458               0.001084139               0.000948681               0.000000000               0.000000000               0.000000000               0.000000000               0.000643627               0.003329973              -0.000000000              -0.000174886               0.001168275               0.000993389               0.000000000               0.000000000               0.000000000               0.000000000               0.000613419               0.003508255               0.000000000              -0.000208499               0.001238906               0.001030407               0.000000000               0.000000000               0.000000000               0.000000000               0.000595162               0.003662928               0.000000000              -0.000234680               0.001299190               0.001064511               0.000000000               0.000000000               0.000000000               0.000000000               0.000601280               0.003801253              -0.000000000              -0.000249676               0.001350297               0.001100621               0.000000000               0.000000000               0.000000000               0.000000000               0.000635300               0.003913356              -0.000000000              -0.000250931               0.001388083               0.001137151               0.000000000               0.000000000               0.000000000               0.000000000               0.000699150               0.003990810              -0.000000000              -0.000236669               0.001409147               0.001172477               0.000000000               0.000000000               0.000000000               0.000000000               0.000802765               0.004038873              -0.000000000              -0.000203822               0.001414218               0.001210396               0.000000000               0.000000000               0.000000000               0.000000000               0.000899046               0.004068030               0.000000000              -0.000171361               0.001413117               0.001241756               0.000000000               0.000000000               0.000000000               0.000000000               0.000000000               0.000000000               0.000000000               0.000000000               0.000000000               0.000000000               0.000000000               0.000000000               0.000000000               0.000000000               0.000000000               0.000000000               0.000000000               0.000000000               0.000000000               0.000000000               0.000000000               0.000000000               0.000000000               0.000000000               0.000000000               0.000000000               0.000000000               0.000000000               0.000000000               0.000000000               0.000000000               0.000000000               0.000000000               0.000000000               0.000000000               0.000000000               0.000000000               0.000000000               0.000000000               0.000000000               0.000000000               0.000000000               0.000000000               0.000000000               0.000000000               0.000000000               0.000000000               0.000000000               0.000000000               0.000000000               0.000000000               0.000000000               0.000000000               0.000000000               0.000000000               0.000000000               0.000000000               0.000000000               0.000000000               0.000000000               0.000000000               0.000000000               0.000000000               0.000000000               0.000000000               0.000000000               0.000000000               0.000000000               0.000000000               0.000000000               0.000000000               0.000000000               0.000000000               0.000000000               0.000000000               0.000000000               0.000000000               0.000000000               0.000000000               0.000000000               0.000000000               0.000000000               0.000000000               0.000000000               0.000000000               0.000000000               0.000000000               0.000000000               0.000000000               0.000000000               0.000000000               0.000000000               0.000000000               0.000000000               0.000000000               0.000000000               0.000000000               0.000000000               0.000000000               0.000000000               0.000000000               0.000000000               0.000000000               0.000000000               0.000000000               0.000000000               0.000000000               0.000000000               0.000000000               0.000000000               0.000000000               0.000000000               0.000000000               0.000000000               0.000000000               0.000000000               0.000000000               0.000000000               0.000000000               0.000000000               0.000000000               0.000000000               0.000000000               0.000000000               0.000000000               0.000000000               0.000000000               0.000000000               0.000000000               0.000000000               0.000000000               0.000000000               0.000000000               0.000000000               0.000000000               0.000000000               0.000000000               0.000000000               0.000000000               0.000000000               0.000000000               0.000000000               0.000000000               0.000000000               0.000000000               0.000000000               0.000000000               0.000000000               0.000000000               0.000000000               0.000000000               0.000000000               0.000000000               0.000000000               0.000000000               0.000000000               0.000000000               0.000000000               0.000000000               0.000000000               0.000000000               0.000000000               0.000000000               0.000000000               0.000000000               0.000000000               0.000000000               0.000000000               0.000000000               0.000000000               0.000000000               0.000000000               0.000000000               0.000000000               0.001147972               0.012028252               0.000887421              -0.001073039               0.004367057               0.003294017               0.000000000               0.000000000               0.000000000               0.000000000               0.001178637               0.009808461               0.000525407              -0.000784067               0.003530810               0.002746743               0.000000000               0.000000000               0.000000000               0.000000000               0.001568066               0.008049634               0.000155895              -0.000418179               0.002822577               0.002404399               0.000000000               0.000000000               0.000000000               0.000000000               0.001583757               0.007090014              -0.000009528              -0.000292342               0.002460762               0.002168419               0.000000000               0.000000000               0.000000000               0.000000000               0.001475624               0.006520345              -0.000082736              -0.000261683               0.002260654               0.001998971               0.000000000               0.000000000               0.000000000               0.000000000               0.001338437               0.006156662              -0.000112836              -0.000267668               0.002141423               0.001873754               0.000000000               0.000000000               0.000000000               0.000000000               0.001192803               0.005908973              -0.000125413              -0.000291320               0.002066745               0.001775425               0.000000000               0.000000000               0.000000000               0.000000000               0.001045662               0.005735882              -0.000130572              -0.000324861               0.002020229               0.001695368               0.000000000               0.000000000               0.000000000               0.000000000               0.000905346               0.005612141              -0.000128702              -0.000362012               0.001991366               0.001629354               0.000000000               0.000000000               0.000000000               0.000000000               0.000772715               0.005517554              -0.000123360              -0.000399925               0.001972475               0.001572550               0.000000000               0.000000000               0.000000000               0.000000000               0.000646366               0.005438891              -0.000117093              -0.000437473               0.001958770               0.001521297               0.000000000               0.000000000               0.000000000               0.000000000               0.000526045               0.005372000              -0.000110617              -0.000474232               0.001948726               0.001474494               0.000000000               0.000000000               0.000000000               0.000000000               0.000408631               0.005312328              -0.000103320              -0.000510803               0.001941026               0.001430223               0.000000000               0.000000000               0.000000000               0.000000000               0.000292631               0.005252355              -0.000092708              -0.000546806               0.001933036               0.001386230               0.000000000               0.000000000               0.000000000               0.000000000               0.000182016               0.005185856              -0.000076274              -0.000579974               0.001921926               0.001341952               0.000000000               0.000000000               0.000000000               0.000000000               0.000082928               0.005107332              -0.000045819              -0.000607317               0.001904866               0.001297549               0.000000000               0.000000000               0.000000000               0.000000000               0.000032447               0.005048972              -0.000026709              -0.000618952               0.001889291               0.001270339               0.000000000               0.000000000               0.000000000               0.000000000               0.001294066               0.011380448               0.001671807              -0.000937280               0.004105871               0.003168591               0.000000000               0.000000000               0.000000000               0.000000000               0.001179976               0.009371717               0.000996072              -0.000728972               0.003366865               0.002637893               0.000000000               0.000000000               0.000000000               0.000000000               0.001412724               0.007829517               0.000310178              -0.000448917               0.002759452               0.002310535               0.000000000               0.000000000               0.000000000               0.000000000               0.001368016               0.006974353               0.000008638              -0.000358787               0.002444357               0.002085569               0.000000000               0.000000000               0.000000000               0.000000000               0.001245363               0.006452476              -0.000122119              -0.000339548               0.002263986               0.001924439               0.000000000               0.000000000               0.000000000               0.000000000               0.001113074               0.006108497              -0.000175239              -0.000346159               0.002151532               0.001805373               0.000000000               0.000000000               0.000000000               0.000000000               0.000981078               0.005873086              -0.000197116              -0.000366231               0.002079753               0.001713522               0.000000000               0.000000000               0.000000000               0.000000000               0.000851888               0.005705860              -0.000205541              -0.000393774               0.002033192               0.001639419               0.000000000               0.000000000               0.000000000               0.000000000               0.000731345               0.005582428              -0.000202615              -0.000423548               0.002001973               0.001578425               0.000000000               0.000000000               0.000000000               0.000000000               0.000616100               0.005485348              -0.000191359              -0.000454630               0.001979974               0.001525344               0.000000000               0.000000000               0.000000000               0.000000000               0.000504246               0.005404523              -0.000178943              -0.000486472               0.001963647               0.001477175               0.000000000               0.000000000               0.000000000               0.000000000               0.000400085               0.005338469              -0.000168762              -0.000517276               0.001951897               0.001434621               0.000000000               0.000000000               0.000000000               0.000000000               0.000302140               0.005280575              -0.000156038              -0.000546768               0.001942430               0.001395662               0.000000000               0.000000000               0.000000000               0.000000000               0.000211339               0.005224284              -0.000136291              -0.000573782               0.001932671               0.001358889               0.000000000               0.000000000               0.000000000               0.000000000               0.000130710               0.005168140              -0.000107149              -0.000597000               0.001921696               0.001324696               0.000000000               0.000000000               0.000000000               0.000000000               0.000058911               0.005109960              -0.000061976              -0.000616652               0.001908854               0.001292202               0.000000000               0.000000000               0.000000000               0.000000000               0.000023318               0.005073980              -0.000035623              -0.000625502               0.001899810               0.001274309               0.000000000               0.000000000               0.000000000               0.000000000               0.001489178               0.010394883               0.002279263              -0.000740918               0.003711899               0.002970980               0.000000000               0.000000000               0.000000000               0.000000000               0.001169728               0.008707173               0.001374532              -0.000649748               0.003118945               0.002469197               0.000000000               0.000000000               0.000000000               0.000000000               0.001180835               0.007491138               0.000464518              -0.000493578               0.002661547               0.002167969               0.000000000               0.000000000               0.000000000               0.000000000               0.001062411               0.006788741               0.000075931              -0.000450187               0.002412953               0.001962766               0.000000000               0.000000000               0.000000000               0.000000000               0.000929106               0.006339082              -0.000091802              -0.000443969               0.002260996               0.001817027               0.000000000               0.000000000               0.000000000               0.000000000               0.000810939               0.006036922              -0.000162094              -0.000450512               0.002162458               0.001711946               0.000000000               0.000000000               0.000000000               0.000000000               0.000702984               0.005826799              -0.000193235              -0.000464730               0.002097157               0.001632427               0.000000000               0.000000000               0.000000000               0.000000000               0.000600191               0.005669770              -0.000204486              -0.000483649               0.002051121               0.001567472               0.000000000               0.000000000               0.000000000               0.000000000               0.000505665               0.005544353              -0.000201652              -0.000503418               0.002015905               0.001512487               0.000000000               0.000000000               0.000000000               0.000000000               0.000417166               0.005441525              -0.000191597              -0.000523752               0.001988407               0.001464656               0.000000000               0.000000000               0.000000000               0.000000000               0.000333356               0.005359572              -0.000182810              -0.000544937               0.001968152               0.001423215               0.000000000               0.000000000               0.000000000               0.000000000               0.000257350               0.005295895              -0.000175486              -0.000565479               0.001953774               0.001388295               0.000000000               0.000000000               0.000000000               0.000000000               0.000186805               0.005240086              -0.000162190              -0.000584957               0.001941664               0.001356706               0.000000000               0.000000000               0.000000000               0.000000000               0.000123116               0.005188199              -0.000141349              -0.000602355               0.001930167               0.001327812               0.000000000               0.000000000               0.000000000               0.000000000               0.000073307               0.005143056              -0.000109847              -0.000615390               0.001919465               0.001304075               0.000000000               0.000000000               0.000000000               0.000000000               0.000033985               0.005104783              -0.000061759              -0.000625352               0.001910028               0.001284676               0.000000000               0.000000000               0.000000000               0.000000000               0.000015391               0.005085918              -0.000033936              -0.000629966               0.001905278               0.001275311               0.000000000               0.000000000               0.000000000               0.000000000               0.001666846               0.009186069               0.002662289              -0.000523193               0.003236389               0.002713197               0.000000000               0.000000000               0.000000000               0.000000000               0.001125976               0.007903493               0.001634605              -0.000565695               0.002823036               0.002257341               0.000000000               0.000000000               0.000000000               0.000000000               0.000899077               0.007084033               0.000610325              -0.000548349               0.002544104               0.001995755               0.000000000               0.000000000               0.000000000               0.000000000               0.000719936               0.006563272               0.000186127              -0.000550432               0.002371213               0.001820781               0.000000000               0.000000000               0.000000000               0.000000000               0.000591924               0.006202455              -0.000000105              -0.000553334               0.002251909               0.001698575               0.000000000               0.000000000               0.000000000               0.000000000               0.000500543               0.005949286              -0.000082362              -0.000555956               0.002168394               0.001612439               0.000000000               0.000000000               0.000000000               0.000000000               0.000423870               0.005761236              -0.000119346              -0.000561202               0.002107460               0.001546258               0.000000000               0.000000000               0.000000000               0.000000000               0.000351192               0.005607787              -0.000134703              -0.000569275               0.002059002               0.001489727               0.000000000               0.000000000               0.000000000               0.000000000               0.000290507               0.005482184              -0.000138094              -0.000576331               0.002019487               0.001443155               0.000000000               0.000000000               0.000000000               0.000000000               0.000236979               0.005381067              -0.000136939              -0.000583765               0.001988259               0.001404494               0.000000000               0.000000000               0.000000000               0.000000000               0.000185805               0.005300207              -0.000138328              -0.000592848               0.001964334               0.001371486               0.000000000               0.000000000               0.000000000               0.000000000               0.000140751               0.005233983              -0.000139363              -0.000601465               0.001945132               0.001343667               0.000000000               0.000000000               0.000000000               0.000000000               0.000101509               0.005176288              -0.000130435              -0.000608968               0.001928401               0.001319433               0.000000000               0.000000000               0.000000000               0.000000000               0.000066925               0.005122699              -0.000112993              -0.000615239               0.001912629               0.001297390               0.000000000               0.000000000               0.000000000               0.000000000               0.000040048               0.005076779              -0.000086055              -0.000619578               0.001898769               0.001279191               0.000000000               0.000000000               0.000000000               0.000000000               0.000019064               0.005043886              -0.000046195              -0.000623335               0.001889057               0.001265722               0.000000000               0.000000000               0.000000000               0.000000000               0.000010163               0.005032859              -0.000023249              -0.000625295               0.001886034               0.001260740               0.000000000               0.000000000               0.000000000               0.000000000               0.001767106               0.007870825               0.002808458              -0.000321190               0.002730645               0.002409454               0.000000000               0.000000000               0.000000000               0.000000000               0.001035950               0.007048060               0.001775096              -0.000492526               0.002513505               0.002020978               0.000000000               0.000000000               0.000000000               0.000000000               0.000601003               0.006649995               0.000748064              -0.000605872               0.002418600               0.001812728               0.000000000               0.000000000               0.000000000               0.000000000               0.000394384               0.006310247               0.000331043              -0.000640886               0.002317023               0.001676138               0.000000000               0.000000000               0.000000000               0.000000000               0.000291034               0.006035676               0.000143032              -0.000645320               0.002226979               0.001581659               0.000000000               0.000000000               0.000000000               0.000000000               0.000229487               0.005819960               0.000052219              -0.000641436               0.002153779               0.001512343               0.000000000               0.000000000               0.000000000               0.000000000               0.000186753               0.005648695               0.000006805              -0.000636053               0.002094897               0.001458844               0.000000000               0.000000000               0.000000000               0.000000000               0.000151460               0.005503376              -0.000019282              -0.000631123               0.002044815               0.001413692               0.000000000               0.000000000               0.000000000               0.000000000               0.000126446               0.005382643              -0.000036883              -0.000625412               0.002002667               0.001377255               0.000000000               0.000000000               0.000000000               0.000000000               0.000104901               0.005282586              -0.000050769              -0.000620984               0.001967839               0.001346855               0.000000000               0.000000000               0.000000000               0.000000000               0.000083479               0.005200295              -0.000064362              -0.000618731               0.001939658               0.001320927               0.000000000               0.000000000               0.000000000               0.000000000               0.000066142               0.005128195              -0.000074670              -0.000616220               0.001914788               0.001298568               0.000000000               0.000000000               0.000000000               0.000000000               0.000050305               0.005058676              -0.000072559              -0.000613468               0.001890698               0.001277230               0.000000000               0.000000000               0.000000000               0.000000000               0.000035348               0.004992311              -0.000061477              -0.000610782               0.001867681               0.001256899               0.000000000               0.000000000               0.000000000               0.000000000               0.000022664               0.004935217              -0.000044353              -0.000608401               0.001847856               0.001239455               0.000000000               0.000000000               0.000000000               0.000000000               0.000010546               0.004890144              -0.000021470              -0.000607312               0.001832469               0.001225157               0.000000000               0.000000000               0.000000000               0.000000000               0.000002563               0.004867128              -0.000011082              -0.000607429               0.001824836               0.001217407               0.000000000               0.000000000               0.000000000               0.000000000               0.001750555               0.006552107               0.002747404              -0.000162558               0.002238199               0.002075641               0.000000000               0.000000000               0.000000000               0.000000000               0.000906357               0.006199769               0.001822512              -0.000435088               0.002211598               0.001776510               0.000000000               0.000000000               0.000000000               0.000000000               0.000325885               0.006198676               0.000890259              -0.000652626               0.002283747               0.001631120               0.000000000               0.000000000               0.000000000               0.000000000               0.000125061               0.006014580               0.000504692              -0.000704923               0.002239814               0.001534891               0.000000000               0.000000000               0.000000000               0.000000000               0.000058254               0.005814074               0.000317023              -0.000704912               0.002172976               0.001468064               0.000000000               0.000000000               0.000000000               0.000000000               0.000033005               0.005639226               0.000211655              -0.000692525               0.002110565               0.001418040               0.000000000               0.000000000               0.000000000               0.000000000               0.000025109               0.005492461               0.000149613              -0.000677140               0.002056516               0.001379375               0.000000000               0.000000000               0.000000000               0.000000000               0.000023288               0.005359473               0.000107615              -0.000661199               0.002006873               0.001345673               0.000000000               0.000000000               0.000000000               0.000000000               0.000023440               0.005242392               0.000072965              -0.000646507               0.001962949               0.001316442               0.000000000               0.000000000               0.000000000               0.000000000               0.000022695               0.005142447               0.000042196              -0.000634294               0.001925563               0.001291269               0.000000000               0.000000000               0.000000000               0.000000000               0.000021273               0.005054539               0.000012969              -0.000623839               0.001892776               0.001268937               0.000000000               0.000000000               0.000000000               0.000000000               0.000019102               0.004969674              -0.000007822              -0.000614044               0.001861223               0.001247179               0.000000000               0.000000000               0.000000000               0.000000000               0.000015383               0.004884464              -0.000014852              -0.000604788               0.001829734               0.001224946               0.000000000               0.000000000               0.000000000               0.000000000               0.000010131               0.004804524              -0.000015969              -0.000596765               0.001800413               0.001203649               0.000000000               0.000000000               0.000000000               0.000000000               0.000003960               0.004733461              -0.000014150              -0.000590196               0.001774537               0.001184340               0.000000000               0.000000000               0.000000000               0.000000000               0.000001918               0.004673001              -0.000007106              -0.000583404               0.001752119               0.001168715               0.000000000               0.000000000               0.000000000               0.000000000              -0.000004488               0.004633428              -0.000007190              -0.000580860               0.001738081               0.001157221               0.000000000               0.000000000               0.000000000               0.000000000               0.001624303               0.005302389               0.002528794              -0.000053689               0.001785341               0.001731652               0.000000000               0.000000000               0.000000000               0.000000000               0.000748330               0.005401600               0.001803701              -0.000394577               0.001932041               0.001537463               0.000000000               0.000000000               0.000000000               0.000000000               0.000102344               0.005740845               0.001036601              -0.000679225               0.002140004               0.001460779               0.000000000               0.000000000               0.000000000               0.000000000              -0.000063785               0.005688563               0.000683331              -0.000734988               0.002141165               0.001406176               0.000000000               0.000000000               0.000000000               0.000000000              -0.000088611               0.005560441               0.000486924              -0.000728283               0.002096223               0.001367940               0.000000000               0.000000000               0.000000000               0.000000000              -0.000079453               0.005430207               0.000362137              -0.000708569               0.002046241               0.001337672               0.000000000               0.000000000               0.000000000               0.000000000              -0.000061779               0.005304310               0.000281320              -0.000686204               0.001996820               0.001310616               0.000000000               0.000000000               0.000000000               0.000000000              -0.000041628               0.005184002               0.000222528              -0.000663609               0.001949187               0.001285577               0.000000000               0.000000000               0.000000000               0.000000000              -0.000026195               0.005074519               0.000167987              -0.000644136               0.001906202               0.001262065               0.000000000               0.000000000               0.000000000               0.000000000              -0.000017589               0.004974723               0.000118286              -0.000628435               0.001867703               0.001239268               0.000000000               0.000000000               0.000000000               0.000000000              -0.000013889               0.004877100               0.000074995              -0.000614844               0.001830632               0.001215787               0.000000000               0.000000000               0.000000000               0.000000000              -0.000013041               0.004776135               0.000041736              -0.000601906               0.001792664               0.001190759               0.000000000               0.000000000               0.000000000               0.000000000              -0.000014172               0.004676686               0.000020133              -0.000589899               0.001755513               0.001165614               0.000000000               0.000000000               0.000000000               0.000000000              -0.000016821               0.004586570               0.000004925              -0.000579628               0.001722051               0.001142423               0.000000000               0.000000000               0.000000000               0.000000000              -0.000018874               0.004505286              -0.000006215              -0.000570237               0.001691826               0.001121589               0.000000000               0.000000000               0.000000000               0.000000000              -0.000013392               0.004433472              -0.000007796              -0.000559205               0.001664211               0.001105006               0.000000000               0.000000000               0.000000000               0.000000000              -0.000013019               0.004388184              -0.000009530              -0.000553404               0.001647181               0.001093777               0.000000000               0.000000000               0.000000000               0.000000000               0.001448633               0.004217813               0.002208290               0.000016007               0.001400587               0.001416594               0.000000000               0.000000000               0.000000000               0.000000000               0.000611155               0.004683173               0.001749438              -0.000356214               0.001679779               0.001323565               0.000000000               0.000000000               0.000000000               0.000000000              -0.000042020               0.005309886               0.001199076              -0.000679492               0.001996441               0.001316949               0.000000000               0.000000000               0.000000000               0.000000000              -0.000168806               0.005392827               0.000870179              -0.000737404               0.002043392               0.001305988               0.000000000               0.000000000               0.000000000               0.000000000              -0.000160059               0.005342536               0.000660654              -0.000727838               0.002023440               0.001295602               0.000000000               0.000000000               0.000000000               0.000000000              -0.000128441               0.005256423               0.000515869              -0.000705216               0.001987196               0.001281979               0.000000000               0.000000000               0.000000000               0.000000000              -0.000091303               0.005152726               0.000412718              -0.000678328               0.001943667               0.001265340               0.000000000               0.000000000               0.000000000               0.000000000              -0.000054916               0.005050136               0.000331359              -0.000651859               0.001900648               0.001248789               0.000000000               0.000000000               0.000000000               0.000000000              -0.000035101               0.004950323               0.000258650              -0.000631952               0.001860742               0.001228790               0.000000000               0.000000000               0.000000000               0.000000000              -0.000026584               0.004851849               0.000194247              -0.000616449               0.001822750               0.001206301               0.000000000               0.000000000               0.000000000               0.000000000              -0.000023992               0.004748791               0.000138268              -0.000602594               0.001783779               0.001181185               0.000000000               0.000000000               0.000000000               0.000000000              -0.000025907               0.004637584               0.000092674              -0.000589412               0.001742317               0.001152905               0.000000000               0.000000000               0.000000000               0.000000000              -0.000030120               0.004528501               0.000055323              -0.000577356               0.001701937               0.001124581               0.000000000               0.000000000               0.000000000               0.000000000              -0.000038855               0.004428630               0.000025315              -0.000568148               0.001665578               0.001097430               0.000000000               0.000000000               0.000000000               0.000000000              -0.000050770               0.004334384               0.000004645              -0.000560835               0.001631725               0.001070890               0.000000000               0.000000000               0.000000000               0.000000000              -0.000058058               0.004244603              -0.000004321              -0.000552346               0.001598969               0.001046623               0.000000000               0.000000000               0.000000000               0.000000000              -0.000057935               0.004195764              -0.000006600              -0.000546195               0.001580639               0.001034444               0.000000000               0.000000000               0.000000000               0.000000000               0.001195164               0.003194744               0.001841069               0.000048840               0.001048623               0.001097463               0.000000000               0.000000000               0.000000000               0.000000000               0.000521889               0.003861994               0.001673940              -0.000287042               0.001382998               0.001095957               0.000000000               0.000000000               0.000000000               0.000000000              -0.000077203               0.004694379               0.001378970              -0.000615748               0.001770026               0.001154278               0.000000000               0.000000000               0.000000000               0.000000000              -0.000193570               0.004950572               0.001090564              -0.000691409               0.001880644               0.001189235               0.000000000               0.000000000               0.000000000               0.000000000              -0.000174544               0.005014770               0.000869986              -0.000692299               0.001902339               0.001210041               0.000000000               0.000000000               0.000000000               0.000000000              -0.000133489               0.005005071               0.000703354              -0.000675691               0.001893571               0.001217880               0.000000000               0.000000000               0.000000000               0.000000000              -0.000095925               0.004957920               0.000576063              -0.000655710               0.001871194               0.001215483               0.000000000               0.000000000               0.000000000               0.000000000              -0.000059198               0.004890418               0.000468663              -0.000633500               0.001841290               0.001207790               0.000000000               0.000000000               0.000000000               0.000000000              -0.000037526               0.004811859               0.000375864              -0.000615553               0.001809121               0.001193568               0.000000000               0.000000000               0.000000000               0.000000000              -0.000032010               0.004733078               0.000297169              -0.000603637               0.001778889               0.001175252               0.000000000               0.000000000               0.000000000               0.000000000              -0.000033829               0.004645572               0.000229382              -0.000593381               0.001746302               0.001152921               0.000000000               0.000000000               0.000000000               0.000000000              -0.000038869               0.004548805               0.000170112              -0.000583175               0.001710645               0.001127470               0.000000000               0.000000000               0.000000000               0.000000000              -0.000049590               0.004447569               0.000115442              -0.000574541               0.001674022               0.001099481               0.000000000               0.000000000               0.000000000               0.000000000              -0.000066671               0.004348391               0.000067373              -0.000568549               0.001638966               0.001070416               0.000000000               0.000000000               0.000000000               0.000000000              -0.000091021               0.004254542               0.000029359              -0.000565949               0.001606816               0.001040867               0.000000000               0.000000000               0.000000000               0.000000000              -0.000119030               0.004160032               0.000007038              -0.000564639               0.001574876               0.001010238               0.000000000               0.000000000               0.000000000               0.000000000              -0.000133838               0.004107485              -0.000000769              -0.000563624               0.001557023               0.000993399               0.000000000               0.000000000               0.000000000               0.000000000               0.000798993               0.002251733               0.001444906               0.000018154               0.000744518               0.000762672               0.000000000               0.000000000               0.000000000               0.000000000               0.000414002               0.003047308               0.001550159              -0.000225664               0.001090980               0.000865316               0.000000000               0.000000000               0.000000000               0.000000000              -0.000043368               0.004005927               0.001512848              -0.000517004               0.001507629               0.000990626               0.000000000               0.000000000               0.000000000               0.000000000              -0.000149146               0.004424938               0.001299467              -0.000609046               0.001677980               0.001068933               0.000000000               0.000000000               0.000000000               0.000000000              -0.000139790               0.004614377               0.001087049              -0.000629218               0.001747849               0.001118632               0.000000000               0.000000000               0.000000000               0.000000000              -0.000101327               0.004699664               0.000907402              -0.000625454               0.001775024               0.001149569               0.000000000               0.000000000               0.000000000               0.000000000              -0.000070461               0.004727252               0.000760612              -0.000617328               0.001781511               0.001164183               0.000000000               0.000000000               0.000000000               0.000000000              -0.000042570               0.004712684               0.000634469              -0.000605048               0.001772561               0.001167514               0.000000000               0.000000000               0.000000000               0.000000000              -0.000019428               0.004675507               0.000523913              -0.000591722               0.001755728               0.001164005               0.000000000               0.000000000               0.000000000               0.000000000              -0.000010357               0.004624368               0.000431868              -0.000581929               0.001735417               0.001153488               0.000000000               0.000000000               0.000000000               0.000000000              -0.000010839               0.004559724               0.000356234              -0.000574029               0.001711236               0.001137207               0.000000000               0.000000000               0.000000000               0.000000000              -0.000016816               0.004485792               0.000285862              -0.000567029               0.001684259               0.001117230               0.000000000               0.000000000               0.000000000               0.000000000              -0.000031628               0.004403164               0.000215632              -0.000562255               0.001655125               0.001092870               0.000000000               0.000000000               0.000000000               0.000000000              -0.000060081               0.004313857               0.000147780              -0.000561761               0.001625192               0.001063430               0.000000000               0.000000000               0.000000000               0.000000000              -0.000101949               0.004226746               0.000086492              -0.000566573               0.001597759               0.001031186               0.000000000               0.000000000               0.000000000               0.000000000              -0.000159777               0.004142712               0.000036836              -0.000577754               0.001573475               0.000995721               0.000000000               0.000000000               0.000000000               0.000000000              -0.000204038               0.004091029               0.000010769              -0.000587892               0.001559627               0.000971735               0.000000000               0.000000000               0.000000000               0.000000000               0.000293199               0.001443015               0.001037921              -0.000070428               0.000504476               0.000434047               0.000000000               0.000000000               0.000000000               0.000000000               0.000249630               0.002274299               0.001357420              -0.000190677               0.000821650               0.000630973               0.000000000               0.000000000               0.000000000               0.000000000               0.000018934               0.003247381               0.001537410              -0.000398823               0.001215390               0.000816567               0.000000000               0.000000000               0.000000000               0.000000000              -0.000040548               0.003781367               0.001417768              -0.000487876               0.001423068               0.000935192               0.000000000               0.000000000               0.000000000               0.000000000              -0.000035028               0.004088840               0.001236545              -0.000524240               0.001537679               0.001013439               0.000000000               0.000000000               0.000000000               0.000000000              -0.000008965               0.004275747               0.001060623              -0.000537830               0.001604511               0.001066681               0.000000000               0.000000000               0.000000000               0.000000000               0.000010407               0.004387426               0.000908997              -0.000544525               0.001643969               0.001099444               0.000000000               0.000000000               0.000000000               0.000000000               0.000025361               0.004444114               0.000776056              -0.000546003               0.001663357               0.001117355               0.000000000               0.000000000               0.000000000               0.000000000               0.000040960               0.004458979               0.000659137              -0.000542011               0.001666982               0.001124971               0.000000000               0.000000000               0.000000000               0.000000000               0.000051753               0.004446494               0.000561969              -0.000536403               0.001660951               0.001124548               0.000000000               0.000000000               0.000000000               0.000000000               0.000053738               0.004419163               0.000480982              -0.000532242               0.001650454               0.001118211               0.000000000               0.000000000               0.000000000               0.000000000               0.000046501               0.004381848               0.000403181              -0.000530292               0.001637365               0.001107073               0.000000000               0.000000000               0.000000000               0.000000000               0.000030744               0.004335423               0.000321798              -0.000530397               0.001621926               0.001091528               0.000000000               0.000000000               0.000000000               0.000000000              -0.000000738               0.004273674               0.000239310              -0.000534485               0.001602705               0.001068221               0.000000000               0.000000000               0.000000000               0.000000000              -0.000052098               0.004202149               0.000156199              -0.000544804               0.001582304               0.001037500               0.000000000               0.000000000               0.000000000               0.000000000              -0.000129370               0.004131110               0.000074901              -0.000564901               0.001565323               0.001000422               0.000000000               0.000000000               0.000000000               0.000000000              -0.000195519               0.004083135               0.000028937              -0.000583710               0.001555601               0.000971891               0.000000000               0.000000000               0.000000000               0.000000000              -0.000284960               0.000809751               0.000664055              -0.000208079               0.000339273               0.000131194               0.000000000               0.000000000               0.000000000               0.000000000               0.000040212               0.001577370               0.001111389              -0.000182092               0.000586481               0.000404389               0.000000000               0.000000000               0.000000000               0.000000000               0.000090697               0.002471273               0.001439478              -0.000274899               0.000915382               0.000640483               0.000000000               0.000000000               0.000000000               0.000000000               0.000112528               0.003068312               0.001408619              -0.000341341               0.001136540               0.000795199               0.000000000               0.000000000               0.000000000               0.000000000               0.000130065               0.003470819               0.001273688              -0.000385078               0.001285287               0.000900209               0.000000000               0.000000000               0.000000000               0.000000000               0.000145570               0.003753362               0.001117256              -0.000414581               0.001389302               0.000974720               0.000000000               0.000000000               0.000000000               0.000000000               0.000152842               0.003952288               0.000974832              -0.000436720               0.001462989               0.001026270               0.000000000               0.000000000               0.000000000               0.000000000               0.000155012               0.004084438               0.000850946              -0.000452425               0.001512274               0.001059849               0.000000000               0.000000000               0.000000000               0.000000000               0.000158191               0.004161905               0.000741220              -0.000460916               0.001540926               0.001080011               0.000000000               0.000000000               0.000000000               0.000000000               0.000160759               0.004203573               0.000647994              -0.000465161               0.001556230               0.001091069               0.000000000               0.000000000               0.000000000               0.000000000               0.000159403               0.004225056               0.000567089              -0.000468355               0.001564456               0.001096101               0.000000000               0.000000000               0.000000000               0.000000000               0.000151091               0.004231716               0.000488292              -0.000472304               0.001567993               0.001095688               0.000000000               0.000000000               0.000000000               0.000000000               0.000138922               0.004229890               0.000405261              -0.000476639               0.001568829               0.001092190               0.000000000               0.000000000               0.000000000               0.000000000               0.000116751               0.004208582               0.000316626              -0.000482290               0.001563610               0.001081320               0.000000000               0.000000000               0.000000000               0.000000000               0.000074993               0.004164651               0.000219350              -0.000492458               0.001552356               0.001059898               0.000000000               0.000000000               0.000000000               0.000000000               0.000009884               0.004115699               0.000112398              -0.000510755               0.001542137               0.001031383               0.000000000               0.000000000               0.000000000               0.000000000              -0.000051821               0.004079193               0.000050332              -0.000529331               0.001536161               0.001006830               0.000000000               0.000000000               0.000000000               0.000000000              -0.000867980               0.000351422               0.000362493              -0.000369420               0.000240279              -0.000129141               0.000000000               0.000000000               0.000000000               0.000000000              -0.000191717               0.000994041               0.000832592              -0.000196149               0.000396726               0.000200577               0.000000000               0.000000000               0.000000000               0.000000000               0.000156695               0.001751218               0.001215902              -0.000160143               0.000637113               0.000476971               0.000000000               0.000000000               0.000000000               0.000000000               0.000281377               0.002363683               0.001250676              -0.000189945               0.000851201               0.000661256               0.000000000               0.000000000               0.000000000               0.000000000               0.000326428               0.002831101               0.001164088              -0.000231478               0.001020850               0.000789372               0.000000000               0.000000000               0.000000000               0.000000000               0.000339962               0.003191158               0.001040841              -0.000271409               0.001154178               0.000882769               0.000000000               0.000000000               0.000000000               0.000000000               0.000339793               0.003468293               0.000921643              -0.000306114               0.001258124               0.000952010               0.000000000               0.000000000               0.000000000               0.000000000               0.000329883               0.003672992               0.000816569              -0.000335418               0.001336124               0.001000707               0.000000000               0.000000000               0.000000000               0.000000000               0.000318846               0.003817302               0.000723334              -0.000357595               0.001391619               0.001034024               0.000000000               0.000000000               0.000000000               0.000000000               0.000309917               0.003917555               0.000643517              -0.000373475               0.001430330               0.001056855               0.000000000               0.000000000               0.000000000               0.000000000               0.000303302               0.003989421               0.000572373              -0.000384939               0.001458107               0.001073168               0.000000000               0.000000000               0.000000000               0.000000000               0.000297057               0.004042867               0.000502359              -0.000393961               0.001478929               0.001084968               0.000000000               0.000000000               0.000000000               0.000000000               0.000291413               0.004084771               0.000428036              -0.000401316               0.001495348               0.001094033               0.000000000               0.000000000               0.000000000               0.000000000               0.000283005               0.004106537               0.000344702              -0.000407189               0.001504562               0.001097372               0.000000000               0.000000000               0.000000000               0.000000000               0.000266775               0.004103184               0.000248832              -0.000412856               0.001505333               0.001092477               0.000000000               0.000000000               0.000000000               0.000000000               0.000239502               0.004086921               0.000132762              -0.000421051               0.001502644               0.001081593               0.000000000               0.000000000               0.000000000               0.000000000               0.000212045               0.004071026               0.000065413              -0.000429360               0.001500115               0.001070755               0.000000000               0.000000000               0.000000000               0.000000000              -0.001366153               0.000065223               0.000156615              -0.000520460               0.000195226              -0.000325234               0.000000000               0.000000000               0.000000000               0.000000000              -0.000408156               0.000565824               0.000543268              -0.000223786               0.000263201               0.000039414               0.000000000               0.000000000               0.000000000               0.000000000               0.000205555               0.001169030               0.000878708              -0.000069047               0.000412688               0.000343641               0.000000000               0.000000000               0.000000000               0.000000000               0.000434921               0.001760645               0.000940952              -0.000056986               0.000605871               0.000548884               0.000000000               0.000000000               0.000000000               0.000000000               0.000515552               0.002263249               0.000896322              -0.000089575               0.000784267               0.000694692               0.000000000               0.000000000               0.000000000               0.000000000               0.000536207               0.002675340               0.000814118              -0.000133340               0.000936218               0.000802877               0.000000000               0.000000000               0.000000000               0.000000000               0.000532105               0.003009886               0.000728016              -0.000176697               0.001062184               0.000885487               0.000000000               0.000000000               0.000000000               0.000000000               0.000514258               0.003275224               0.000650215              -0.000216556               0.001163916               0.000947359               0.000000000               0.000000000               0.000000000               0.000000000               0.000493326               0.003477769               0.000581099              -0.000249724               0.001242486               0.000992762               0.000000000               0.000000000               0.000000000               0.000000000               0.000472440               0.003629644               0.000521490              -0.000276540               0.001302049               0.001025509               0.000000000               0.000000000               0.000000000               0.000000000               0.000456934               0.003749935               0.000468711              -0.000297391               0.001349096               0.001051705               0.000000000               0.000000000               0.000000000               0.000000000               0.000449915               0.003848825               0.000415762              -0.000312384               0.001387057               0.001074673               0.000000000               0.000000000               0.000000000               0.000000000               0.000450826               0.003933869               0.000359451              -0.000322673               0.001418834               0.001096161               0.000000000               0.000000000               0.000000000               0.000000000               0.000459428               0.004001439               0.000296043              -0.000327893               0.001443097               0.001115204               0.000000000               0.000000000               0.000000000               0.000000000               0.000474944               0.004041784               0.000219312              -0.000327118               0.001456287               0.001129169               0.000000000               0.000000000               0.000000000               0.000000000               0.000499868               0.004059429               0.000120853              -0.000319977               0.001459789               0.001139811               0.000000000               0.000000000               0.000000000               0.000000000               0.000523699               0.004066179               0.000065527              -0.000311884               0.001459341               0.001147456               0.000000000               0.000000000               0.000000000               0.000000000              -0.001703394              -0.000081274               0.000049206              -0.000628613               0.000182445              -0.000446168               0.000000000               0.000000000               0.000000000               0.000000000              -0.000563128               0.000309797               0.000265354              -0.000249897               0.000186563              -0.000063334               0.000000000               0.000000000               0.000000000               0.000000000               0.000232328               0.000792603               0.000459206              -0.000011953               0.000268182               0.000256230               0.000000000               0.000000000               0.000000000               0.000000000               0.000544428               0.001354136               0.000505248               0.000034893               0.000439743               0.000474636               0.000000000               0.000000000               0.000000000               0.000000000               0.000654975               0.001869241               0.000488781               0.000011960               0.000619088               0.000631047               0.000000000               0.000000000               0.000000000               0.000000000               0.000684057               0.002308260               0.000448511              -0.000032012               0.000780083               0.000748071               0.000000000               0.000000000               0.000000000               0.000000000               0.000679559               0.002674821               0.000403599              -0.000079518               0.000918104               0.000838586               0.000000000               0.000000000               0.000000000               0.000000000               0.000658198               0.002974487               0.000362317              -0.000124986               0.001033148               0.000908162               0.000000000               0.000000000               0.000000000               0.000000000               0.000627749               0.003215310               0.000324286              -0.000166507               0.001127262               0.000960754               0.000000000               0.000000000               0.000000000               0.000000000               0.000597116               0.003410940               0.000290973              -0.000202449               0.001204451               0.001002003               0.000000000               0.000000000               0.000000000               0.000000000               0.000570995               0.003572329               0.000263449              -0.000232418               0.001268237               0.001035819               0.000000000               0.000000000               0.000000000               0.000000000               0.000558075               0.003712406               0.000235478              -0.000254772               0.001322380               0.001067608               0.000000000               0.000000000               0.000000000               0.000000000               0.000563560               0.003834924               0.000204602              -0.000268030               0.001367638               0.001099609               0.000000000               0.000000000               0.000000000               0.000000000               0.000588609               0.003933317               0.000170194              -0.000270935               0.001401404               0.001130469               0.000000000               0.000000000               0.000000000               0.000000000               0.000636474               0.004002787               0.000127979              -0.000261670               0.001421472               0.001159802               0.000000000               0.000000000               0.000000000               0.000000000               0.000715445               0.004044196               0.000072189              -0.000237232               0.001427129               0.001189897               0.000000000               0.000000000               0.000000000               0.000000000               0.000789270               0.004067036               0.000041448              -0.000212403               0.001426466               0.001214063               0.000000000               0.000000000               0.000000000               0.000000000              -0.001823202              -0.000127354               0.000000000              -0.000667781               0.000180141              -0.000487640               0.000000000               0.000000000               0.000000000               0.000000000              -0.000619011               0.000224342               0.000000000              -0.000260172               0.000161503              -0.000098668               0.000000000               0.000000000               0.000000000               0.000000000               0.000239744               0.000662210              -0.000000000               0.000007128               0.000218359               0.000225486               0.000000000               0.000000000               0.000000000               0.000000000               0.000584229               0.001209822              -0.000000000               0.000067857               0.000380651               0.000448508               0.000000000               0.000000000               0.000000000               0.000000000               0.000706066               0.001727965               0.000000000               0.000048778               0.000559723               0.000608502               0.000000000               0.000000000               0.000000000               0.000000000               0.000740030               0.002175116               0.000000000               0.000005621               0.000723158               0.000728779               0.000000000               0.000000000               0.000000000               0.000000000               0.000735860               0.002549633              -0.000000000              -0.000042757               0.000864121               0.000821365               0.000000000               0.000000000               0.000000000               0.000000000               0.000713148               0.002861374               0.000000000              -0.000090241               0.000983862               0.000893621               0.000000000               0.000000000               0.000000000               0.000000000               0.000677776               0.003116991               0.000000000              -0.000135458               0.001084139               0.000948681               0.000000000               0.000000000               0.000000000               0.000000000               0.000643627               0.003329973               0.000000000              -0.000174886               0.001168275               0.000993389               0.000000000               0.000000000               0.000000000               0.000000000               0.000613419               0.003508255               0.000000000              -0.000208499               0.001238906               0.001030407               0.000000000               0.000000000               0.000000000               0.000000000               0.000595162               0.003662928               0.000000000              -0.000234680               0.001299190               0.001064511               0.000000000               0.000000000               0.000000000               0.000000000               0.000601280               0.003801253              -0.000000000              -0.000249676               0.001350297               0.001100621               0.000000000               0.000000000               0.000000000               0.000000000               0.000635300               0.003913356               0.000000000              -0.000250931               0.001388083               0.001137151               0.000000000               0.000000000               0.000000000               0.000000000               0.000699150               0.003990810               0.000000000              -0.000236669               0.001409147               0.001172477               0.000000000               0.000000000               0.000000000               0.000000000               0.000802765               0.004038873              -0.000000000              -0.000203822               0.001414218               0.001210396               0.000000000               0.000000000               0.000000000               0.000000000               0.000899046               0.004068030              -0.000000000              -0.000171361               0.001413117               0.001241756               0.000000000               0.000000000               0.000000000               0.000000000               0.001093720               0.012253740              -0.000000000              -0.001121570               0.004458396               0.003336826               0.000000000               0.000000000               0.000000000               0.000000000               0.001176064               0.009960106              -0.000000000              -0.000803987               0.003587998               0.002784011               0.000000000               0.000000000               0.000000000               0.000000000               0.001623347               0.008125937              -0.000000000              -0.000406986               0.002844281               0.002437295               0.000000000               0.000000000               0.000000000               0.000000000               0.001663122               0.007128871              -0.000000000              -0.000267437               0.002465412               0.002197975               0.000000000               0.000000000               0.000000000               0.000000000               0.001559318               0.006542031              -0.000000000              -0.000233009               0.002258325               0.002025316               0.000000000               0.000000000               0.000000000               0.000000000               0.001420553               0.006173802              -0.000000000              -0.000239017               0.002137586               0.001898568               0.000000000               0.000000000               0.000000000               0.000000000               0.001271539               0.005924158               0.000000000              -0.000263692               0.002062597               0.001798905               0.000000000               0.000000000               0.000000000               0.000000000               0.001118442               0.005751162               0.000000000              -0.000299479               0.002016861               0.001717382               0.000000000               0.000000000               0.000000000               0.000000000               0.000969749               0.005625687               0.000000000              -0.000339554               0.001988395               0.001648841               0.000000000               0.000000000               0.000000000               0.000000000               0.000830572               0.005528708               0.000000000              -0.000379623               0.001969425               0.001589802               0.000000000               0.000000000               0.000000000               0.000000000               0.000699968               0.005450753              -0.000000000              -0.000418855               0.001956518               0.001537663               0.000000000               0.000000000               0.000000000               0.000000000               0.000574023               0.005384425              -0.000000000              -0.000457793               0.001947388               0.001489595               0.000000000               0.000000000               0.000000000               0.000000000               0.000449581               0.005323850              -0.000000000              -0.000496887               0.001940228               0.001443341               0.000000000               0.000000000               0.000000000               0.000000000               0.000322755               0.005262587               0.000000000              -0.000536789               0.001933108               0.001396319               0.000000000               0.000000000               0.000000000               0.000000000               0.000200780               0.005193662               0.000000000              -0.000573914               0.001922508               0.001348594               0.000000000               0.000000000               0.000000000               0.000000000               0.000093459               0.005106899               0.000000000              -0.000603314               0.001903387               0.001300073               0.000000000               0.000000000               0.000000000               0.000000000               0.000036864               0.005034702               0.000000000              -0.000615512               0.001883388               0.001267876               0.000000000               0.000000000               0.000000000               0.000000000               0.001147972               0.012028252              -0.000887421              -0.001073039               0.004367057               0.003294017               0.000000000               0.000000000               0.000000000               0.000000000               0.001178637               0.009808461              -0.000525407              -0.000784067               0.003530810               0.002746743               0.000000000               0.000000000               0.000000000               0.000000000               0.001568066               0.008049634              -0.000155895              -0.000418179               0.002822577               0.002404399               0.000000000               0.000000000               0.000000000               0.000000000               0.001583757               0.007090014               0.000009528              -0.000292342               0.002460762               0.002168419               0.000000000               0.000000000               0.000000000               0.000000000               0.001475624               0.006520345               0.000082736              -0.000261683               0.002260654               0.001998971               0.000000000               0.000000000               0.000000000               0.000000000               0.001338437               0.006156662               0.000112836              -0.000267668               0.002141423               0.001873754               0.000000000               0.000000000               0.000000000               0.000000000               0.001192803               0.005908973               0.000125413              -0.000291320               0.002066745               0.001775425               0.000000000               0.000000000               0.000000000               0.000000000               0.001045662               0.005735882               0.000130572              -0.000324861               0.002020229               0.001695368               0.000000000               0.000000000               0.000000000               0.000000000               0.000905346               0.005612141               0.000128702              -0.000362012               0.001991366               0.001629354               0.000000000               0.000000000               0.000000000               0.000000000               0.000772715               0.005517554               0.000123360              -0.000399925               0.001972475               0.001572550               0.000000000               0.000000000               0.000000000               0.000000000               0.000646366               0.005438891               0.000117093              -0.000437473               0.001958770               0.001521297               0.000000000               0.000000000               0.000000000               0.000000000               0.000526045               0.005372000               0.000110617              -0.000474232               0.001948726               0.001474494               0.000000000               0.000000000               0.000000000               0.000000000               0.000408631               0.005312328               0.000103320              -0.000510803               0.001941026               0.001430223               0.000000000               0.000000000               0.000000000               0.000000000               0.000292631               0.005252355               0.000092708              -0.000546806               0.001933036               0.001386230               0.000000000               0.000000000               0.000000000               0.000000000               0.000182016               0.005185856               0.000076274              -0.000579974               0.001921926               0.001341952               0.000000000               0.000000000               0.000000000               0.000000000               0.000082928               0.005107332               0.000045819              -0.000607317               0.001904866               0.001297549               0.000000000               0.000000000               0.000000000               0.000000000               0.000032447               0.005048972               0.000026709              -0.000618952               0.001889291               0.001270339               0.000000000               0.000000000               0.000000000               0.000000000               0.001294066               0.011380448              -0.001671807              -0.000937280               0.004105871               0.003168591               0.000000000               0.000000000               0.000000000               0.000000000               0.001179976               0.009371717              -0.000996072              -0.000728972               0.003366865               0.002637893               0.000000000               0.000000000               0.000000000               0.000000000               0.001412724               0.007829517              -0.000310178              -0.000448917               0.002759452               0.002310535               0.000000000               0.000000000               0.000000000               0.000000000               0.001368016               0.006974353              -0.000008638              -0.000358787               0.002444357               0.002085569               0.000000000               0.000000000               0.000000000               0.000000000               0.001245363               0.006452476               0.000122119              -0.000339548               0.002263986               0.001924439               0.000000000               0.000000000               0.000000000               0.000000000               0.001113074               0.006108497               0.000175239              -0.000346159               0.002151532               0.001805373               0.000000000               0.000000000               0.000000000               0.000000000               0.000981078               0.005873086               0.000197116              -0.000366231               0.002079753               0.001713522               0.000000000               0.000000000               0.000000000               0.000000000               0.000851888               0.005705860               0.000205541              -0.000393774               0.002033192               0.001639419               0.000000000               0.000000000               0.000000000               0.000000000               0.000731345               0.005582428               0.000202615              -0.000423548               0.002001973               0.001578425               0.000000000               0.000000000               0.000000000               0.000000000               0.000616100               0.005485348               0.000191359              -0.000454630               0.001979974               0.001525344               0.000000000               0.000000000               0.000000000               0.000000000               0.000504246               0.005404523               0.000178943              -0.000486472               0.001963647               0.001477175               0.000000000               0.000000000               0.000000000               0.000000000               0.000400085               0.005338469               0.000168762              -0.000517276               0.001951897               0.001434621               0.000000000               0.000000000               0.000000000               0.000000000               0.000302140               0.005280575               0.000156038              -0.000546768               0.001942430               0.001395662               0.000000000               0.000000000               0.000000000               0.000000000               0.000211339               0.005224284               0.000136291              -0.000573782               0.001932671               0.001358889               0.000000000               0.000000000               0.000000000               0.000000000               0.000130710               0.005168140               0.000107149              -0.000597000               0.001921696               0.001324696               0.000000000               0.000000000               0.000000000               0.000000000               0.000058911               0.005109960               0.000061976              -0.000616652               0.001908854               0.001292202               0.000000000               0.000000000               0.000000000               0.000000000               0.000023318               0.005073980               0.000035623              -0.000625502               0.001899810               0.001274309               0.000000000               0.000000000               0.000000000               0.000000000               0.001489178               0.010394883              -0.002279263              -0.000740918               0.003711899               0.002970980               0.000000000               0.000000000               0.000000000               0.000000000               0.001169728               0.008707173              -0.001374532              -0.000649748               0.003118945               0.002469197               0.000000000               0.000000000               0.000000000               0.000000000               0.001180835               0.007491138              -0.000464518              -0.000493578               0.002661547               0.002167969               0.000000000               0.000000000               0.000000000               0.000000000               0.001062411               0.006788741              -0.000075931              -0.000450187               0.002412953               0.001962766               0.000000000               0.000000000               0.000000000               0.000000000               0.000929106               0.006339082               0.000091802              -0.000443969               0.002260996               0.001817027               0.000000000               0.000000000               0.000000000               0.000000000               0.000810939               0.006036922               0.000162094              -0.000450512               0.002162458               0.001711946               0.000000000               0.000000000               0.000000000               0.000000000               0.000702984               0.005826799               0.000193235              -0.000464730               0.002097157               0.001632427               0.000000000               0.000000000               0.000000000               0.000000000               0.000600191               0.005669770               0.000204486              -0.000483649               0.002051121               0.001567472               0.000000000               0.000000000               0.000000000               0.000000000               0.000505665               0.005544353               0.000201652              -0.000503418               0.002015905               0.001512487               0.000000000               0.000000000               0.000000000               0.000000000               0.000417166               0.005441525               0.000191597              -0.000523752               0.001988407               0.001464656               0.000000000               0.000000000               0.000000000               0.000000000               0.000333356               0.005359572               0.000182810              -0.000544937               0.001968152               0.001423215               0.000000000               0.000000000               0.000000000               0.000000000               0.000257350               0.005295895               0.000175486              -0.000565479               0.001953774               0.001388295               0.000000000               0.000000000               0.000000000               0.000000000               0.000186805               0.005240086               0.000162190              -0.000584957               0.001941664               0.001356706               0.000000000               0.000000000               0.000000000               0.000000000               0.000123116               0.005188199               0.000141349              -0.000602355               0.001930167               0.001327812               0.000000000               0.000000000               0.000000000               0.000000000               0.000073307               0.005143056               0.000109847              -0.000615390               0.001919465               0.001304075               0.000000000               0.000000000               0.000000000               0.000000000               0.000033985               0.005104783               0.000061759              -0.000625352               0.001910028               0.001284676               0.000000000               0.000000000               0.000000000               0.000000000               0.000015391               0.005085918               0.000033936              -0.000629966               0.001905278               0.001275311               0.000000000               0.000000000               0.000000000               0.000000000               0.001666846               0.009186069              -0.002662289              -0.000523193               0.003236389               0.002713197               0.000000000               0.000000000               0.000000000               0.000000000               0.001125976               0.007903493              -0.001634605              -0.000565695               0.002823036               0.002257341               0.000000000               0.000000000               0.000000000               0.000000000               0.000899077               0.007084033              -0.000610325              -0.000548349               0.002544104               0.001995755               0.000000000               0.000000000               0.000000000               0.000000000               0.000719936               0.006563272              -0.000186127              -0.000550432               0.002371213               0.001820781               0.000000000               0.000000000               0.000000000               0.000000000               0.000591924               0.006202455               0.000000105              -0.000553334               0.002251909               0.001698575               0.000000000               0.000000000               0.000000000               0.000000000               0.000500543               0.005949286               0.000082362              -0.000555956               0.002168394               0.001612439               0.000000000               0.000000000               0.000000000               0.000000000               0.000423870               0.005761236               0.000119346              -0.000561202               0.002107460               0.001546258               0.000000000               0.000000000               0.000000000               0.000000000               0.000351192               0.005607787               0.000134703              -0.000569275               0.002059002               0.001489727               0.000000000               0.000000000               0.000000000               0.000000000               0.000290507               0.005482184               0.000138094              -0.000576331               0.002019487               0.001443155               0.000000000               0.000000000               0.000000000               0.000000000               0.000236979               0.005381067               0.000136939              -0.000583765               0.001988259               0.001404494               0.000000000               0.000000000               0.000000000               0.000000000               0.000185805               0.005300207               0.000138328              -0.000592848               0.001964334               0.001371486               0.000000000               0.000000000               0.000000000               0.000000000               0.000140751               0.005233983               0.000139363              -0.000601465               0.001945132               0.001343667               0.000000000               0.000000000               0.000000000               0.000000000               0.000101509               0.005176288               0.000130435              -0.000608968               0.001928401               0.001319433               0.000000000               0.000000000               0.000000000               0.000000000               0.000066925               0.005122699               0.000112993              -0.000615239               0.001912629               0.001297390               0.000000000               0.000000000               0.000000000               0.000000000               0.000040048               0.005076779               0.000086055              -0.000619578               0.001898769               0.001279191               0.000000000               0.000000000               0.000000000               0.000000000               0.000019064               0.005043886               0.000046195              -0.000623335               0.001889057               0.001265722               0.000000000               0.000000000               0.000000000               0.000000000               0.000010163               0.005032859               0.000023249              -0.000625295               0.001886034               0.001260740               0.000000000               0.000000000               0.000000000               0.000000000               0.001767106               0.007870825              -0.002808458              -0.000321190               0.002730645               0.002409454               0.000000000               0.000000000               0.000000000               0.000000000               0.001035950               0.007048060              -0.001775096              -0.000492526               0.002513505               0.002020978               0.000000000               0.000000000               0.000000000               0.000000000               0.000601003               0.006649995              -0.000748064              -0.000605872               0.002418600               0.001812728               0.000000000               0.000000000               0.000000000               0.000000000               0.000394384               0.006310247              -0.000331043              -0.000640886               0.002317023               0.001676138               0.000000000               0.000000000               0.000000000               0.000000000               0.000291034               0.006035676              -0.000143032              -0.000645320               0.002226979               0.001581659               0.000000000               0.000000000               0.000000000               0.000000000               0.000229487               0.005819960              -0.000052219              -0.000641436               0.002153779               0.001512343               0.000000000               0.000000000               0.000000000               0.000000000               0.000186753               0.005648695              -0.000006805              -0.000636053               0.002094897               0.001458844               0.000000000               0.000000000               0.000000000               0.000000000               0.000151460               0.005503376               0.000019282              -0.000631123               0.002044815               0.001413692               0.000000000               0.000000000               0.000000000               0.000000000               0.000126446               0.005382643               0.000036883              -0.000625412               0.002002667               0.001377255               0.000000000               0.000000000               0.000000000               0.000000000               0.000104901               0.005282586               0.000050769              -0.000620984               0.001967839               0.001346855               0.000000000               0.000000000               0.000000000               0.000000000               0.000083479               0.005200295               0.000064362              -0.000618731               0.001939658               0.001320927               0.000000000               0.000000000               0.000000000               0.000000000               0.000066142               0.005128195               0.000074670              -0.000616220               0.001914788               0.001298568               0.000000000               0.000000000               0.000000000               0.000000000               0.000050305               0.005058676               0.000072559              -0.000613468               0.001890698               0.001277230               0.000000000               0.000000000               0.000000000               0.000000000               0.000035348               0.004992311               0.000061477              -0.000610782               0.001867681               0.001256899               0.000000000               0.000000000               0.000000000               0.000000000               0.000022664               0.004935217               0.000044353              -0.000608401               0.001847856               0.001239455               0.000000000               0.000000000               0.000000000               0.000000000               0.000010546               0.004890144               0.000021470              -0.000607312               0.001832469               0.001225157               0.000000000               0.000000000               0.000000000               0.000000000               0.000002563               0.004867128               0.000011082              -0.000607429               0.001824836               0.001217407               0.000000000               0.000000000               0.000000000               0.000000000               0.001750555               0.006552107              -0.002747404              -0.000162558               0.002238199               0.002075641               0.000000000               0.000000000               0.000000000               0.000000000               0.000906357               0.006199769              -0.001822512              -0.000435088               0.002211598               0.001776510               0.000000000               0.000000000               0.000000000               0.000000000               0.000325885               0.006198676              -0.000890259              -0.000652626               0.002283747               0.001631120               0.000000000               0.000000000               0.000000000               0.000000000               0.000125061               0.006014580              -0.000504692              -0.000704923               0.002239814               0.001534891               0.000000000               0.000000000               0.000000000               0.000000000               0.000058254               0.005814074              -0.000317023              -0.000704912               0.002172976               0.001468064               0.000000000               0.000000000               0.000000000               0.000000000               0.000033005               0.005639226              -0.000211655              -0.000692525               0.002110565               0.001418040               0.000000000               0.000000000               0.000000000               0.000000000               0.000025109               0.005492461              -0.000149613              -0.000677140               0.002056516               0.001379375               0.000000000               0.000000000               0.000000000               0.000000000               0.000023288               0.005359473              -0.000107615              -0.000661199               0.002006873               0.001345673               0.000000000               0.000000000               0.000000000               0.000000000               0.000023440               0.005242392              -0.000072965              -0.000646507               0.001962949               0.001316442               0.000000000               0.000000000               0.000000000               0.000000000               0.000022695               0.005142447              -0.000042196              -0.000634294               0.001925563               0.001291269               0.000000000               0.000000000               0.000000000               0.000000000               0.000021273               0.005054539              -0.000012969              -0.000623839               0.001892776               0.001268937               0.000000000               0.000000000               0.000000000               0.000000000               0.000019102               0.004969674               0.000007822              -0.000614044               0.001861223               0.001247179               0.000000000               0.000000000               0.000000000               0.000000000               0.000015383               0.004884464               0.000014852              -0.000604788               0.001829734               0.001224946               0.000000000               0.000000000               0.000000000               0.000000000               0.000010131               0.004804524               0.000015969              -0.000596765               0.001800413               0.001203649               0.000000000               0.000000000               0.000000000               0.000000000               0.000003960               0.004733461               0.000014150              -0.000590196               0.001774537               0.001184340               0.000000000               0.000000000               0.000000000               0.000000000               0.000001918               0.004673001               0.000007106              -0.000583404               0.001752119               0.001168715               0.000000000               0.000000000               0.000000000               0.000000000              -0.000004488               0.004633428               0.000007190              -0.000580860               0.001738081               0.001157221               0.000000000               0.000000000               0.000000000               0.000000000               0.001624303               0.005302389              -0.002528794              -0.000053689               0.001785341               0.001731652               0.000000000               0.000000000               0.000000000               0.000000000               0.000748330               0.005401600              -0.001803701              -0.000394577               0.001932041               0.001537463               0.000000000               0.000000000               0.000000000               0.000000000               0.000102344               0.005740845              -0.001036601              -0.000679225               0.002140004               0.001460779               0.000000000               0.000000000               0.000000000               0.000000000              -0.000063785               0.005688563              -0.000683331              -0.000734988               0.002141165               0.001406176               0.000000000               0.000000000               0.000000000               0.000000000              -0.000088611               0.005560441              -0.000486924              -0.000728283               0.002096223               0.001367940               0.000000000               0.000000000               0.000000000               0.000000000              -0.000079453               0.005430207              -0.000362137              -0.000708569               0.002046241               0.001337672               0.000000000               0.000000000               0.000000000               0.000000000              -0.000061779               0.005304310              -0.000281320              -0.000686204               0.001996820               0.001310616               0.000000000               0.000000000               0.000000000               0.000000000              -0.000041628               0.005184002              -0.000222528              -0.000663609               0.001949187               0.001285577               0.000000000               0.000000000               0.000000000               0.000000000              -0.000026195               0.005074519              -0.000167987              -0.000644136               0.001906202               0.001262065               0.000000000               0.000000000               0.000000000               0.000000000              -0.000017589               0.004974723              -0.000118286              -0.000628435               0.001867703               0.001239268               0.000000000               0.000000000               0.000000000               0.000000000              -0.000013889               0.004877100              -0.000074995              -0.000614844               0.001830632               0.001215787               0.000000000               0.000000000               0.000000000               0.000000000              -0.000013041               0.004776135              -0.000041736              -0.000601906               0.001792664               0.001190759               0.000000000               0.000000000               0.000000000               0.000000000              -0.000014172               0.004676686              -0.000020133              -0.000589899               0.001755513               0.001165614               0.000000000               0.000000000               0.000000000               0.000000000              -0.000016821               0.004586570              -0.000004925              -0.000579628               0.001722051               0.001142423               0.000000000               0.000000000               0.000000000               0.000000000              -0.000018874               0.004505286               0.000006215              -0.000570237               0.001691826               0.001121589               0.000000000               0.000000000               0.000000000               0.000000000              -0.000013392               0.004433472               0.000007796              -0.000559205               0.001664211               0.001105006               0.000000000               0.000000000               0.000000000               0.000000000              -0.000013019               0.004388184               0.000009530              -0.000553404               0.001647181               0.001093777               0.000000000               0.000000000               0.000000000               0.000000000               0.001448633               0.004217813              -0.002208290               0.000016007               0.001400587               0.001416594               0.000000000               0.000000000               0.000000000               0.000000000               0.000611155               0.004683173              -0.001749438              -0.000356214               0.001679779               0.001323565               0.000000000               0.000000000               0.000000000               0.000000000              -0.000042020               0.005309886              -0.001199076              -0.000679492               0.001996441               0.001316949               0.000000000               0.000000000               0.000000000               0.000000000              -0.000168806               0.005392827              -0.000870179              -0.000737404               0.002043392               0.001305988               0.000000000               0.000000000               0.000000000               0.000000000              -0.000160059               0.005342536              -0.000660654              -0.000727838               0.002023440               0.001295602               0.000000000               0.000000000               0.000000000               0.000000000              -0.000128441               0.005256423              -0.000515869              -0.000705216               0.001987196               0.001281979               0.000000000               0.000000000               0.000000000               0.000000000              -0.000091303               0.005152726              -0.000412718              -0.000678328               0.001943667               0.001265340               0.000000000               0.000000000               0.000000000               0.000000000              -0.000054916               0.005050136              -0.000331359              -0.000651859               0.001900648               0.001248789               0.000000000               0.000000000               0.000000000               0.000000000              -0.000035101               0.004950323              -0.000258650              -0.000631952               0.001860742               0.001228790               0.000000000               0.000000000               0.000000000               0.000000000              -0.000026584               0.004851849              -0.000194247              -0.000616449               0.001822750               0.001206301               0.000000000               0.000000000               0.000000000               0.000000000              -0.000023992               0.004748791              -0.000138268              -0.000602594               0.001783779               0.001181185               0.000000000               0.000000000               0.000000000               0.000000000              -0.000025907               0.004637584              -0.000092674              -0.000589412               0.001742317               0.001152905               0.000000000               0.000000000               0.000000000               0.000000000              -0.000030120               0.004528501              -0.000055323              -0.000577356               0.001701937               0.001124581               0.000000000               0.000000000               0.000000000               0.000000000              -0.000038855               0.004428630              -0.000025315              -0.000568148               0.001665578               0.001097430               0.000000000               0.000000000               0.000000000               0.000000000              -0.000050770               0.004334384              -0.000004645              -0.000560835               0.001631725               0.001070890               0.000000000               0.000000000               0.000000000               0.000000000              -0.000058058               0.004244603               0.000004321              -0.000552346               0.001598969               0.001046623               0.000000000               0.000000000               0.000000000               0.000000000              -0.000057935               0.004195764               0.000006600              -0.000546195               0.001580639               0.001034444               0.000000000               0.000000000               0.000000000               0.000000000               0.001195164               0.003194744              -0.001841069               0.000048840               0.001048623               0.001097463               0.000000000               0.000000000               0.000000000               0.000000000               0.000521889               0.003861994              -0.001673940              -0.000287042               0.001382998               0.001095957               0.000000000               0.000000000               0.000000000               0.000000000              -0.000077203               0.004694379              -0.001378970              -0.000615748               0.001770026               0.001154278               0.000000000               0.000000000               0.000000000               0.000000000              -0.000193570               0.004950572              -0.001090564              -0.000691409               0.001880644               0.001189235               0.000000000               0.000000000               0.000000000               0.000000000              -0.000174544               0.005014770              -0.000869986              -0.000692299               0.001902339               0.001210041               0.000000000               0.000000000               0.000000000               0.000000000              -0.000133489               0.005005071              -0.000703354              -0.000675691               0.001893571               0.001217880               0.000000000               0.000000000               0.000000000               0.000000000              -0.000095925               0.004957920              -0.000576063              -0.000655710               0.001871194               0.001215483               0.000000000               0.000000000               0.000000000               0.000000000              -0.000059198               0.004890418              -0.000468663              -0.000633500               0.001841290               0.001207790               0.000000000               0.000000000               0.000000000               0.000000000              -0.000037526               0.004811859              -0.000375864              -0.000615553               0.001809121               0.001193568               0.000000000               0.000000000               0.000000000               0.000000000              -0.000032010               0.004733078              -0.000297169              -0.000603637               0.001778889               0.001175252               0.000000000               0.000000000               0.000000000               0.000000000              -0.000033829               0.004645572              -0.000229382              -0.000593381               0.001746302               0.001152921               0.000000000               0.000000000               0.000000000               0.000000000              -0.000038869               0.004548805              -0.000170112              -0.000583175               0.001710645               0.001127470               0.000000000               0.000000000               0.000000000               0.000000000              -0.000049590               0.004447569              -0.000115442              -0.000574541               0.001674022               0.001099481               0.000000000               0.000000000               0.000000000               0.000000000              -0.000066671               0.004348391              -0.000067373              -0.000568549               0.001638966               0.001070416               0.000000000               0.000000000               0.000000000               0.000000000              -0.000091021               0.004254542              -0.000029359              -0.000565949               0.001606816               0.001040867               0.000000000               0.000000000               0.000000000               0.000000000              -0.000119030               0.004160032              -0.000007038              -0.000564639               0.001574876               0.001010238               0.000000000               0.000000000               0.000000000               0.000000000              -0.000133838               0.004107485               0.000000769              -0.000563624               0.001557023               0.000993399               0.000000000               0.000000000               0.000000000               0.000000000               0.000798993               0.002251733              -0.001444906               0.000018154               0.000744518               0.000762672               0.000000000               0.000000000               0.000000000               0.000000000               0.000414002               0.003047308              -0.001550159              -0.000225664               0.001090980               0.000865316               0.000000000               0.000000000               0.000000000               0.000000000              -0.000043368               0.004005927              -0.001512848              -0.000517004               0.001507629               0.000990626               0.000000000               0.000000000               0.000000000               0.000000000              -0.000149146               0.004424938              -0.001299467              -0.000609046               0.001677980               0.001068933               0.000000000               0.000000000               0.000000000               0.000000000              -0.000139790               0.004614377              -0.001087049              -0.000629218               0.001747849               0.001118632               0.000000000               0.000000000               0.000000000               0.000000000              -0.000101327               0.004699664              -0.000907402              -0.000625454               0.001775024               0.001149569               0.000000000               0.000000000               0.000000000               0.000000000              -0.000070461               0.004727252              -0.000760612              -0.000617328               0.001781511               0.001164183               0.000000000               0.000000000               0.000000000               0.000000000              -0.000042570               0.004712684              -0.000634469              -0.000605048               0.001772561               0.001167514               0.000000000               0.000000000               0.000000000               0.000000000              -0.000019428               0.004675507              -0.000523913              -0.000591722               0.001755728               0.001164005               0.000000000               0.000000000               0.000000000               0.000000000              -0.000010357               0.004624368              -0.000431868              -0.000581929               0.001735417               0.001153488               0.000000000               0.000000000               0.000000000               0.000000000              -0.000010839               0.004559724              -0.000356234              -0.000574029               0.001711236               0.001137207               0.000000000               0.000000000               0.000000000               0.000000000              -0.000016816               0.004485792              -0.000285862              -0.000567029               0.001684259               0.001117230               0.000000000               0.000000000               0.000000000               0.000000000              -0.000031628               0.004403164              -0.000215632              -0.000562255               0.001655125               0.001092870               0.000000000               0.000000000               0.000000000               0.000000000              -0.000060081               0.004313857              -0.000147780              -0.000561761               0.001625192               0.001063430               0.000000000               0.000000000               0.000000000               0.000000000              -0.000101949               0.004226746              -0.000086492              -0.000566573               0.001597759               0.001031186               0.000000000               0.000000000               0.000000000               0.000000000              -0.000159777               0.004142712              -0.000036836              -0.000577754               0.001573475               0.000995721               0.000000000               0.000000000               0.000000000               0.000000000              -0.000204038               0.004091029              -0.000010769              -0.000587892               0.001559627               0.000971735               0.000000000               0.000000000               0.000000000               0.000000000               0.000293199               0.001443015              -0.001037921              -0.000070428               0.000504476               0.000434047               0.000000000               0.000000000               0.000000000               0.000000000               0.000249630               0.002274299              -0.001357420              -0.000190677               0.000821650               0.000630973               0.000000000               0.000000000               0.000000000               0.000000000               0.000018934               0.003247381              -0.001537410              -0.000398823               0.001215390               0.000816567               0.000000000               0.000000000               0.000000000               0.000000000              -0.000040548               0.003781367              -0.001417768              -0.000487876               0.001423068               0.000935192               0.000000000               0.000000000               0.000000000               0.000000000              -0.000035028               0.004088840              -0.001236545              -0.000524240               0.001537679               0.001013439               0.000000000               0.000000000               0.000000000               0.000000000              -0.000008965               0.004275747              -0.001060623              -0.000537830               0.001604511               0.001066681               0.000000000               0.000000000               0.000000000               0.000000000               0.000010407               0.004387426              -0.000908997              -0.000544525               0.001643969               0.001099444               0.000000000               0.000000000               0.000000000               0.000000000               0.000025361               0.004444114              -0.000776056              -0.000546003               0.001663357               0.001117355               0.000000000               0.000000000               0.000000000               0.000000000               0.000040960               0.004458979              -0.000659137              -0.000542011               0.001666982               0.001124971               0.000000000               0.000000000               0.000000000               0.000000000               0.000051753               0.004446494              -0.000561969              -0.000536403               0.001660951               0.001124548               0.000000000               0.000000000               0.000000000               0.000000000               0.000053738               0.004419163              -0.000480982              -0.000532242               0.001650454               0.001118211               0.000000000               0.000000000               0.000000000               0.000000000               0.000046501               0.004381848              -0.000403181              -0.000530292               0.001637365               0.001107073               0.000000000               0.000000000               0.000000000               0.000000000               0.000030744               0.004335423              -0.000321798              -0.000530397               0.001621926               0.001091528               0.000000000               0.000000000               0.000000000               0.000000000              -0.000000738               0.004273674              -0.000239310              -0.000534485               0.001602705               0.001068221               0.000000000               0.000000000               0.000000000               0.000000000              -0.000052098               0.004202149              -0.000156199              -0.000544804               0.001582304               0.001037500               0.000000000               0.000000000               0.000000000               0.000000000              -0.000129370               0.004131110              -0.000074901              -0.000564901               0.001565323               0.001000422               0.000000000               0.000000000               0.000000000               0.000000000              -0.000195519               0.004083135              -0.000028937              -0.000583710               0.001555601               0.000971891               0.000000000               0.000000000               0.000000000               0.000000000              -0.000284960               0.000809751              -0.000664055              -0.000208079               0.000339273               0.000131194               0.000000000               0.000000000               0.000000000               0.000000000               0.000040212               0.001577370              -0.001111389              -0.000182092               0.000586481               0.000404389               0.000000000               0.000000000               0.000000000               0.000000000               0.000090697               0.002471273              -0.001439478              -0.000274899               0.000915382               0.000640483               0.000000000               0.000000000               0.000000000               0.000000000               0.000112528               0.003068312              -0.001408619              -0.000341341               0.001136540               0.000795199               0.000000000               0.000000000               0.000000000               0.000000000               0.000130065               0.003470819              -0.001273688              -0.000385078               0.001285287               0.000900209               0.000000000               0.000000000               0.000000000               0.000000000               0.000145570               0.003753362              -0.001117256              -0.000414581               0.001389302               0.000974720               0.000000000               0.000000000               0.000000000               0.000000000               0.000152842               0.003952288              -0.000974832              -0.000436720               0.001462989               0.001026270               0.000000000               0.000000000               0.000000000               0.000000000               0.000155012               0.004084438              -0.000850946              -0.000452425               0.001512274               0.001059849               0.000000000               0.000000000               0.000000000               0.000000000               0.000158191               0.004161905              -0.000741220              -0.000460916               0.001540926               0.001080011               0.000000000               0.000000000               0.000000000               0.000000000               0.000160759               0.004203573              -0.000647994              -0.000465161               0.001556230               0.001091069               0.000000000               0.000000000               0.000000000               0.000000000               0.000159403               0.004225056              -0.000567089              -0.000468355               0.001564456               0.001096101               0.000000000               0.000000000               0.000000000               0.000000000               0.000151091               0.004231716              -0.000488292              -0.000472304               0.001567993               0.001095688               0.000000000               0.000000000               0.000000000               0.000000000               0.000138922               0.004229890              -0.000405261              -0.000476639               0.001568829               0.001092190               0.000000000               0.000000000               0.000000000               0.000000000               0.000116751               0.004208582              -0.000316626              -0.000482290               0.001563610               0.001081320               0.000000000               0.000000000               0.000000000               0.000000000               0.000074993               0.004164651              -0.000219350              -0.000492458               0.001552356               0.001059898               0.000000000               0.000000000               0.000000000               0.000000000               0.000009884               0.004115699              -0.000112398              -0.000510755               0.001542137               0.001031383               0.000000000               0.000000000               0.000000000               0.000000000              -0.000051821               0.004079193              -0.000050332              -0.000529331               0.001536161               0.001006830               0.000000000               0.000000000               0.000000000               0.000000000              -0.000867980               0.000351422              -0.000362493              -0.000369420               0.000240279              -0.000129141               0.000000000               0.000000000               0.000000000               0.000000000              -0.000191717               0.000994041              -0.000832592              -0.000196149               0.000396726               0.000200577               0.000000000               0.000000000               0.000000000               0.000000000               0.000156695               0.001751218              -0.001215902              -0.000160143               0.000637113               0.000476971               0.000000000               0.000000000               0.000000000               0.000000000               0.000281377               0.002363683              -0.001250676              -0.000189945               0.000851201               0.000661256               0.000000000               0.000000000               0.000000000               0.000000000               0.000326428               0.002831101              -0.001164088              -0.000231478               0.001020850               0.000789372               0.000000000               0.000000000               0.000000000               0.000000000               0.000339962               0.003191158              -0.001040841              -0.000271409               0.001154178               0.000882769               0.000000000               0.000000000               0.000000000               0.000000000               0.000339793               0.003468293              -0.000921643              -0.000306114               0.001258124               0.000952010               0.000000000               0.000000000               0.000000000               0.000000000               0.000329883               0.003672992              -0.000816569              -0.000335418               0.001336124               0.001000707               0.000000000               0.000000000               0.000000000               0.000000000               0.000318846               0.003817302              -0.000723334              -0.000357595               0.001391619               0.001034024               0.000000000               0.000000000               0.000000000               0.000000000               0.000309917               0.003917555              -0.000643517              -0.000373475               0.001430330               0.001056855               0.000000000               0.000000000               0.000000000               0.000000000               0.000303302               0.003989421              -0.000572373              -0.000384939               0.001458107               0.001073168               0.000000000               0.000000000               0.000000000               0.000000000               0.000297057               0.004042867              -0.000502359              -0.000393961               0.001478929               0.001084968               0.000000000               0.000000000               0.000000000               0.000000000               0.000291413               0.004084771              -0.000428036              -0.000401316               0.001495348               0.001094033               0.000000000               0.000000000               0.000000000               0.000000000               0.000283005               0.004106537              -0.000344702              -0.000407189               0.001504562               0.001097372               0.000000000               0.000000000               0.000000000               0.000000000               0.000266775               0.004103184              -0.000248832              -0.000412856               0.001505333               0.001092477               0.000000000               0.000000000               0.000000000               0.000000000               0.000239502               0.004086921              -0.000132762              -0.000421051               0.001502644               0.001081593               0.000000000               0.000000000               0.000000000               0.000000000               0.000212045               0.004071026              -0.000065413              -0.000429360               0.001500115               0.001070755               0.000000000               0.000000000               0.000000000               0.000000000              -0.001366153               0.000065223              -0.000156615              -0.000520460               0.000195226              -0.000325234               0.000000000               0.000000000               0.000000000               0.000000000              -0.000408156               0.000565824              -0.000543268              -0.000223786               0.000263201               0.000039414               0.000000000               0.000000000               0.000000000               0.000000000               0.000205555               0.001169030              -0.000878708              -0.000069047               0.000412688               0.000343641               0.000000000               0.000000000               0.000000000               0.000000000               0.000434921               0.001760645              -0.000940952              -0.000056986               0.000605871               0.000548884               0.000000000               0.000000000               0.000000000               0.000000000               0.000515552               0.002263249              -0.000896322              -0.000089575               0.000784267               0.000694692               0.000000000               0.000000000               0.000000000               0.000000000               0.000536207               0.002675340              -0.000814118              -0.000133340               0.000936218               0.000802877               0.000000000               0.000000000               0.000000000               0.000000000               0.000532105               0.003009886              -0.000728016              -0.000176697               0.001062184               0.000885487               0.000000000               0.000000000               0.000000000               0.000000000               0.000514258               0.003275224              -0.000650215              -0.000216556               0.001163916               0.000947359               0.000000000               0.000000000               0.000000000               0.000000000               0.000493326               0.003477769              -0.000581099              -0.000249724               0.001242486               0.000992762               0.000000000               0.000000000               0.000000000               0.000000000               0.000472440               0.003629644              -0.000521490              -0.000276540               0.001302049               0.001025509               0.000000000               0.000000000               0.000000000               0.000000000               0.000456934               0.003749935              -0.000468711              -0.000297391               0.001349096               0.001051705               0.000000000               0.000000000               0.000000000               0.000000000               0.000449915               0.003848825              -0.000415762              -0.000312384               0.001387057               0.001074673               0.000000000               0.000000000               0.000000000               0.000000000               0.000450826               0.003933869              -0.000359451              -0.000322673               0.001418834               0.001096161               0.000000000               0.000000000               0.000000000               0.000000000               0.000459428               0.004001439              -0.000296043              -0.000327893               0.001443097               0.001115204               0.000000000               0.000000000               0.000000000               0.000000000               0.000474944               0.004041784              -0.000219312              -0.000327118               0.001456287               0.001129169               0.000000000               0.000000000               0.000000000               0.000000000               0.000499868               0.004059429              -0.000120853              -0.000319977               0.001459789               0.001139811               0.000000000               0.000000000               0.000000000               0.000000000               0.000523699               0.004066179              -0.000065527              -0.000311884               0.001459341               0.001147456               0.000000000               0.000000000               0.000000000               0.000000000              -0.001703394              -0.000081274              -0.000049206              -0.000628613               0.000182445              -0.000446168               0.000000000               0.000000000               0.000000000               0.000000000              -0.000563128               0.000309797              -0.000265354              -0.000249897               0.000186563              -0.000063334               0.000000000               0.000000000               0.000000000               0.000000000               0.000232328               0.000792603              -0.000459206              -0.000011953               0.000268182               0.000256230               0.000000000               0.000000000               0.000000000               0.000000000               0.000544428               0.001354136              -0.000505248               0.000034893               0.000439743               0.000474636               0.000000000               0.000000000               0.000000000               0.000000000               0.000654975               0.001869241              -0.000488781               0.000011960               0.000619088               0.000631047               0.000000000               0.000000000               0.000000000               0.000000000               0.000684057               0.002308260              -0.000448511              -0.000032012               0.000780083               0.000748071               0.000000000               0.000000000               0.000000000               0.000000000               0.000679559               0.002674821              -0.000403599              -0.000079518               0.000918104               0.000838586               0.000000000               0.000000000               0.000000000               0.000000000               0.000658198               0.002974487              -0.000362317              -0.000124986               0.001033148               0.000908162               0.000000000               0.000000000               0.000000000               0.000000000               0.000627749               0.003215310              -0.000324286              -0.000166507               0.001127262               0.000960754               0.000000000               0.000000000               0.000000000               0.000000000               0.000597116               0.003410940              -0.000290973              -0.000202449               0.001204451               0.001002003               0.000000000               0.000000000               0.000000000               0.000000000               0.000570995               0.003572329              -0.000263449              -0.000232418               0.001268237               0.001035819               0.000000000               0.000000000               0.000000000               0.000000000               0.000558075               0.003712406              -0.000235478              -0.000254772               0.001322380               0.001067608               0.000000000               0.000000000               0.000000000               0.000000000               0.000563560               0.003834924              -0.000204602              -0.000268030               0.001367638               0.001099609               0.000000000               0.000000000               0.000000000               0.000000000               0.000588609               0.003933317              -0.000170194              -0.000270935               0.001401404               0.001130469               0.000000000               0.000000000               0.000000000               0.000000000               0.000636474               0.004002787              -0.000127979              -0.000261670               0.001421472               0.001159802               0.000000000               0.000000000               0.000000000               0.000000000               0.000715445               0.004044196              -0.000072189              -0.000237232               0.001427129               0.001189897               0.000000000               0.000000000               0.000000000               0.000000000               0.000789270               0.004067036              -0.000041448              -0.000212403               0.001426466               0.001214063               0.000000000               0.000000000               0.000000000               0.000000000               0.000000000               0.000000000               0.000000000               0.000000000               0.000000000               0.000000000               0.000000000               0.000000000               0.000000000               0.000000000               0.000000000               0.000000000               0.000000000               0.000000000               0.000000000               0.000000000               0.000000000               0.000000000               0.000000000               0.000000000               0.000000000               0.000000000               0.000000000               0.000000000               0.000000000               0.000000000               0.000000000               0.000000000               0.000000000               0.000000000               0.000000000               0.000000000               0.000000000               0.000000000               0.000000000               0.000000000               0.000000000               0.000000000               0.000000000               0.000000000               0.000000000               0.000000000               0.000000000               0.000000000               0.000000000               0.000000000               0.000000000               0.000000000               0.000000000               0.000000000               0.000000000               0.000000000               0.000000000               0.000000000               0.000000000               0.000000000               0.000000000               0.000000000               0.000000000               0.000000000               0.000000000               0.000000000               0.000000000               0.000000000               0.000000000               0.000000000               0.000000000               0.000000000               0.000000000               0.000000000               0.000000000               0.000000000               0.000000000               0.000000000               0.000000000               0.000000000               0.000000000               0.000000000               0.000000000               0.000000000               0.000000000               0.000000000               0.000000000               0.000000000               0.000000000               0.000000000               0.000000000               0.000000000               0.000000000               0.000000000               0.000000000               0.000000000               0.000000000               0.000000000               0.000000000               0.000000000               0.000000000               0.000000000               0.000000000               0.000000000               0.000000000               0.000000000               0.000000000               0.000000000               0.000000000               0.000000000               0.000000000               0.000000000               0.000000000               0.000000000               0.000000000               0.000000000               0.000000000               0.000000000               0.000000000               0.000000000               0.000000000               0.000000000               0.000000000               0.000000000               0.000000000               0.000000000               0.000000000               0.000000000               0.000000000               0.000000000               0.000000000               0.000000000               0.000000000               0.000000000               0.000000000               0.000000000               0.000000000               0.000000000               0.000000000               0.000000000               0.000000000               0.000000000               0.000000000               0.000000000               0.000000000               0.000000000               0.000000000               0.000000000               0.000000000               0.000000000               0.000000000               0.000000000               0.000000000               0.000000000               0.000000000               0.000000000               0.000000000               0.000000000               0.000000000               0.000000000               0.000000000               0.000000000               0.000000000               0.000000000               0.000000000               0.000000000               0.000000000               0.000000000               0.000000000               0.000000000               0.000000000               0.000000000               0.000000000               0.000000000               0.000000000               0.000000000               0.000000000               0.000000000               0.000000000               0.000000000               0.000000000               0.000000000               0.000000000               0.000000000               0.000000000               0.000000000               0.000000000               0.000000000               0.000000000               0.000000000               0.000000000               0.000000000               0.000000000               0.000000000               0.000000000               0.000000000               0.000000000               0.000000000               0.000000000               0.000000000               0.000000000               0.000000000               0.000000000               0.000000000               0.000000000               0.000000000               0.000000000               0.000000000               0.000000000               0.000000000               0.000000000               0.000000000               0.000000000               0.000000000               0.000000000               0.000000000               0.000000000               0.000000000               0.000000000               0.000000000               0.000000000               0.000000000               0.000000000               0.000000000               0.000000000               0.000000000               0.000000000               0.000000000               0.000000000               0.000000000               0.000000000               0.000000000               0.000000000               0.000000000               0.000000000               0.000000000               0.000000000               0.000000000               0.000000000               0.000000000               0.000000000               0.000000000               0.000000000               0.000000000               0.000000000               0.000000000               0.000000000               0.000000000               0.000000000               0.000000000               0.000000000               0.000000000               0.000000000               0.000000000               0.000000000               0.000000000               0.000000000               0.000000000               0.000000000               0.000000000               0.000000000               0.000000000               0.000000000               0.000000000               0.000000000               0.000000000               0.000000000               0.000000000               0.000000000               0.000000000               0.000000000               0.000000000               0.000000000               0.000000000               0.000000000               0.000000000               0.000000000               0.000000000               0.000000000               0.000000000               0.000000000               0.000000000               0.000000000               0.000000000               0.000000000               0.000000000               0.000000000               0.000000000               0.000000000               0.000000000               0.000000000               0.000000000               0.000000000               0.000000000               0.000000000               0.000000000               0.000000000               0.000000000               0.000000000               0.000000000               0.000000000               0.000000000               0.000000000               0.000000000               0.000000000               0.000000000               0.000000000               0.000000000               0.000000000               0.000000000               0.000000000               0.000000000               0.000000000               0.000000000               0.000000000               0.000000000               0.000000000               0.000000000               0.000000000               0.000000000               0.000000000               0.000000000               0.000000000               0.000000000               0.000000000               0.000000000               0.000000000               0.000000000               0.000000000               0.000000000               0.000000000               0.000000000               0.000000000               0.000000000               0.000000000               0.000000000               0.000000000               0.000000000               0.000000000               0.000000000               0.000000000               0.000000000               0.000000000               0.000000000               0.001147972               0.012028252               0.000887421              -0.001073039               0.004367057               0.003294017               0.000000000               0.000000000               0.000000000               0.000000000               0.001178637               0.009808461               0.000525407              -0.000784067               0.003530810               0.002746743               0.000000000               0.000000000               0.000000000               0.000000000               0.001568066               0.008049634               0.000155895              -0.000418179               0.002822577               0.002404399               0.000000000               0.000000000               0.000000000               0.000000000               0.001583757               0.007090014              -0.000009528              -0.000292342               0.002460762               0.002168419               0.000000000               0.000000000               0.000000000               0.000000000               0.001475624               0.006520345              -0.000082736              -0.000261683               0.002260654               0.001998971               0.000000000               0.000000000               0.000000000               0.000000000               0.001338437               0.006156662              -0.000112836              -0.000267668               0.002141423               0.001873754               0.000000000               0.000000000               0.000000000               0.000000000               0.001192803               0.005908973              -0.000125413              -0.000291320               0.002066745               0.001775425               0.000000000               0.000000000               0.000000000               0.000000000               0.001045662               0.005735882              -0.000130572              -0.000324861               0.002020229               0.001695368               0.000000000               0.000000000               0.000000000               0.000000000               0.000905346               0.005612141              -0.000128702              -0.000362012               0.001991366               0.001629354               0.000000000               0.000000000               0.000000000               0.000000000               0.000772715               0.005517554              -0.000123360              -0.000399925               0.001972475               0.001572550               0.000000000               0.000000000               0.000000000               0.000000000               0.000646366               0.005438891              -0.000117093              -0.000437473               0.001958770               0.001521297               0.000000000               0.000000000               0.000000000               0.000000000               0.000526045               0.005372000              -0.000110617              -0.000474232               0.001948726               0.001474494               0.000000000               0.000000000               0.000000000               0.000000000               0.000408631               0.005312328              -0.000103320              -0.000510803               0.001941026               0.001430223               0.000000000               0.000000000               0.000000000               0.000000000               0.000292631               0.005252355              -0.000092708              -0.000546806               0.001933036               0.001386230               0.000000000               0.000000000               0.000000000               0.000000000               0.000182016               0.005185856              -0.000076274              -0.000579974               0.001921926               0.001341952               0.000000000               0.000000000               0.000000000               0.000000000               0.000082928               0.005107332              -0.000045819              -0.000607317               0.001904866               0.001297549               0.000000000               0.000000000               0.000000000               0.000000000               0.000032447               0.005048972              -0.000026709              -0.000618952               0.001889291               0.001270339               0.000000000               0.000000000               0.000000000               0.000000000               0.001294066               0.011380448               0.001671807              -0.000937280               0.004105871               0.003168591               0.000000000               0.000000000               0.000000000               0.000000000               0.001179976               0.009371717               0.000996072              -0.000728972               0.003366865               0.002637893               0.000000000               0.000000000               0.000000000               0.000000000               0.001412724               0.007829517               0.000310178              -0.000448917               0.002759452               0.002310535               0.000000000               0.000000000               0.000000000               0.000000000               0.001368016               0.006974353               0.000008638              -0.000358787               0.002444357               0.002085569               0.000000000               0.000000000               0.000000000               0.000000000               0.001245363               0.006452476              -0.000122119              -0.000339548               0.002263986               0.001924439               0.000000000               0.000000000               0.000000000               0.000000000               0.001113074               0.006108497              -0.000175239              -0.000346159               0.002151532               0.001805373               0.000000000               0.000000000               0.000000000               0.000000000               0.000981078               0.005873086              -0.000197116              -0.000366231               0.002079753               0.001713522               0.000000000               0.000000000               0.000000000               0.000000000               0.000851888               0.005705860              -0.000205541              -0.000393774               0.002033192               0.001639419               0.000000000               0.000000000               0.000000000               0.000000000               0.000731345               0.005582428              -0.000202615              -0.000423548               0.002001973               0.001578425               0.000000000               0.000000000               0.000000000               0.000000000               0.000616100               0.005485348              -0.000191359              -0.000454630               0.001979974               0.001525344               0.000000000               0.000000000               0.000000000               0.000000000               0.000504246               0.005404523              -0.000178943              -0.000486472               0.001963647               0.001477175               0.000000000               0.000000000               0.000000000               0.000000000               0.000400085               0.005338469              -0.000168762              -0.000517276               0.001951897               0.001434621               0.000000000               0.000000000               0.000000000               0.000000000               0.000302140               0.005280575              -0.000156038              -0.000546768               0.001942430               0.001395662               0.000000000               0.000000000               0.000000000               0.000000000               0.000211339               0.005224284              -0.000136291              -0.000573782               0.001932671               0.001358889               0.000000000               0.000000000               0.000000000               0.000000000               0.000130710               0.005168140              -0.000107149              -0.000597000               0.001921696               0.001324696               0.000000000               0.000000000               0.000000000               0.000000000               0.000058911               0.005109960              -0.000061976              -0.000616652               0.001908854               0.001292202               0.000000000               0.000000000               0.000000000               0.000000000               0.000023318               0.005073980              -0.000035623              -0.000625502               0.001899810               0.001274309               0.000000000               0.000000000               0.000000000               0.000000000               0.001489178               0.010394883               0.002279263              -0.000740918               0.003711899               0.002970980               0.000000000               0.000000000               0.000000000               0.000000000               0.001169728               0.008707173               0.001374532              -0.000649748               0.003118945               0.002469197               0.000000000               0.000000000               0.000000000               0.000000000               0.001180835               0.007491138               0.000464518              -0.000493578               0.002661547               0.002167969               0.000000000               0.000000000               0.000000000               0.000000000               0.001062411               0.006788741               0.000075931              -0.000450187               0.002412953               0.001962766               0.000000000               0.000000000               0.000000000               0.000000000               0.000929106               0.006339082              -0.000091802              -0.000443969               0.002260996               0.001817027               0.000000000               0.000000000               0.000000000               0.000000000               0.000810939               0.006036922              -0.000162094              -0.000450512               0.002162458               0.001711946               0.000000000               0.000000000               0.000000000               0.000000000               0.000702984               0.005826799              -0.000193235              -0.000464730               0.002097157               0.001632427               0.000000000               0.000000000               0.000000000               0.000000000               0.000600191               0.005669770              -0.000204486              -0.000483649               0.002051121               0.001567472               0.000000000               0.000000000               0.000000000               0.000000000               0.000505665               0.005544353              -0.000201652              -0.000503418               0.002015905               0.001512487               0.000000000               0.000000000               0.000000000               0.000000000               0.000417166               0.005441525              -0.000191597              -0.000523752               0.001988407               0.001464656               0.000000000               0.000000000               0.000000000               0.000000000               0.000333356               0.005359572              -0.000182810              -0.000544937               0.001968152               0.001423215               0.000000000               0.000000000               0.000000000               0.000000000               0.000257350               0.005295895              -0.000175486              -0.000565479               0.001953774               0.001388295               0.000000000               0.000000000               0.000000000               0.000000000               0.000186805               0.005240086              -0.000162190              -0.000584957               0.001941664               0.001356706               0.000000000               0.000000000               0.000000000               0.000000000               0.000123116               0.005188199              -0.000141349              -0.000602355               0.001930167               0.001327812               0.000000000               0.000000000               0.000000000               0.000000000               0.000073307               0.005143056              -0.000109847              -0.000615390               0.001919465               0.001304075               0.000000000               0.000000000               0.000000000               0.000000000               0.000033985               0.005104783              -0.000061759              -0.000625352               0.001910028               0.001284676               0.000000000               0.000000000               0.000000000               0.000000000               0.000015391               0.005085918              -0.000033936              -0.000629966               0.001905278               0.001275311               0.000000000               0.000000000               0.000000000               0.000000000               0.001666846               0.009186069               0.002662289              -0.000523193               0.003236389               0.002713197               0.000000000               0.000000000               0.000000000               0.000000000               0.001125976               0.007903493               0.001634605              -0.000565695               0.002823036               0.002257341               0.000000000               0.000000000               0.000000000               0.000000000               0.000899077               0.007084033               0.000610325              -0.000548349               0.002544104               0.001995755               0.000000000               0.000000000               0.000000000               0.000000000               0.000719936               0.006563272               0.000186127              -0.000550432               0.002371213               0.001820781               0.000000000               0.000000000               0.000000000               0.000000000               0.000591924               0.006202455              -0.000000105              -0.000553334               0.002251909               0.001698575               0.000000000               0.000000000               0.000000000               0.000000000               0.000500543               0.005949286              -0.000082362              -0.000555956               0.002168394               0.001612439               0.000000000               0.000000000               0.000000000               0.000000000               0.000423870               0.005761236              -0.000119346              -0.000561202               0.002107460               0.001546258               0.000000000               0.000000000               0.000000000               0.000000000               0.000351192               0.005607787              -0.000134703              -0.000569275               0.002059002               0.001489727               0.000000000               0.000000000               0.000000000               0.000000000               0.000290507               0.005482184              -0.000138094              -0.000576331               0.002019487               0.001443155               0.000000000               0.000000000               0.000000000               0.000000000               0.000236979               0.005381067              -0.000136939              -0.000583765               0.001988259               0.001404494               0.000000000               0.000000000               0.000000000               0.000000000               0.000185805               0.005300207              -0.000138328              -0.000592848               0.001964334               0.001371486               0.000000000               0.000000000               0.000000000               0.000000000               0.000140751               0.005233983              -0.000139363              -0.000601465               0.001945132               0.001343667               0.000000000               0.000000000               0.000000000               0.000000000               0.000101509               0.005176288              -0.000130435              -0.000608968               0.001928401               0.001319433               0.000000000               0.000000000               0.000000000               0.000000000               0.000066925               0.005122699              -0.000112993              -0.000615239               0.001912629               0.001297390               0.000000000               0.000000000               0.000000000               0.000000000               0.000040048               0.005076779              -0.000086055              -0.000619578               0.001898769               0.001279191               0.000000000               0.000000000               0.000000000               0.000000000               0.000019064               0.005043886              -0.000046195              -0.000623335               0.001889057               0.001265722               0.000000000               0.000000000               0.000000000               0.000000000               0.000010163               0.005032859              -0.000023249              -0.000625295               0.001886034               0.001260740               0.000000000               0.000000000               0.000000000               0.000000000               0.001767106               0.007870825               0.002808458              -0.000321190               0.002730645               0.002409454               0.000000000               0.000000000               0.000000000               0.000000000               0.001035950               0.007048060               0.001775096              -0.000492526               0.002513505               0.002020978               0.000000000               0.000000000               0.000000000               0.000000000               0.000601003               0.006649995               0.000748064              -0.000605872               0.002418600               0.001812728               0.000000000               0.000000000               0.000000000               0.000000000               0.000394384               0.006310247               0.000331043              -0.000640886               0.002317023               0.001676138               0.000000000               0.000000000               0.000000000               0.000000000               0.000291034               0.006035676               0.000143032              -0.000645320               0.002226979               0.001581659               0.000000000               0.000000000               0.000000000               0.000000000               0.000229487               0.005819960               0.000052219              -0.000641436               0.002153779               0.001512343               0.000000000               0.000000000               0.000000000               0.000000000               0.000186753               0.005648695               0.000006805              -0.000636053               0.002094897               0.001458844               0.000000000               0.000000000               0.000000000               0.000000000               0.000151460               0.005503376              -0.000019282              -0.000631123               0.002044815               0.001413692               0.000000000               0.000000000               0.000000000               0.000000000               0.000126446               0.005382643              -0.000036883              -0.000625412               0.002002667               0.001377255               0.000000000               0.000000000               0.000000000               0.000000000               0.000104901               0.005282586              -0.000050769              -0.000620984               0.001967839               0.001346855               0.000000000               0.000000000               0.000000000               0.000000000               0.000083479               0.005200295              -0.000064362              -0.000618731               0.001939658               0.001320927               0.000000000               0.000000000               0.000000000               0.000000000               0.000066142               0.005128195              -0.000074670              -0.000616220               0.001914788               0.001298568               0.000000000               0.000000000               0.000000000               0.000000000               0.000050305               0.005058676              -0.000072559              -0.000613468               0.001890698               0.001277230               0.000000000               0.000000000               0.000000000               0.000000000               0.000035348               0.004992311              -0.000061477              -0.000610782               0.001867681               0.001256899               0.000000000               0.000000000               0.000000000               0.000000000               0.000022664               0.004935217              -0.000044353              -0.000608401               0.001847856               0.001239455               0.000000000               0.000000000               0.000000000               0.000000000               0.000010546               0.004890144              -0.000021470              -0.000607312               0.001832469               0.001225157               0.000000000               0.000000000               0.000000000               0.000000000               0.000002563               0.004867128              -0.000011082              -0.000607429               0.001824836               0.001217407               0.000000000               0.000000000               0.000000000               0.000000000               0.001750555               0.006552107               0.002747404              -0.000162558               0.002238199               0.002075641               0.000000000               0.000000000               0.000000000               0.000000000               0.000906357               0.006199769               0.001822512              -0.000435088               0.002211598               0.001776510               0.000000000               0.000000000               0.000000000               0.000000000               0.000325885               0.006198676               0.000890259              -0.000652626               0.002283747               0.001631120               0.000000000               0.000000000               0.000000000               0.000000000               0.000125061               0.006014580               0.000504692              -0.000704923               0.002239814               0.001534891               0.000000000               0.000000000               0.000000000               0.000000000               0.000058254               0.005814074               0.000317023              -0.000704912               0.002172976               0.001468064               0.000000000               0.000000000               0.000000000               0.000000000               0.000033005               0.005639226               0.000211655              -0.000692525               0.002110565               0.001418040               0.000000000               0.000000000               0.000000000               0.000000000               0.000025109               0.005492461               0.000149613              -0.000677140               0.002056516               0.001379375               0.000000000               0.000000000               0.000000000               0.000000000               0.000023288               0.005359473               0.000107615              -0.000661199               0.002006873               0.001345673               0.000000000               0.000000000               0.000000000               0.000000000               0.000023440               0.005242392               0.000072965              -0.000646507               0.001962949               0.001316442               0.000000000               0.000000000               0.000000000               0.000000000               0.000022695               0.005142447               0.000042196              -0.000634294               0.001925563               0.001291269               0.000000000               0.000000000               0.000000000               0.000000000               0.000021273               0.005054539               0.000012969              -0.000623839               0.001892776               0.001268937               0.000000000               0.000000000               0.000000000               0.000000000               0.000019102               0.004969674              -0.000007822              -0.000614044               0.001861223               0.001247179               0.000000000               0.000000000               0.000000000               0.000000000               0.000015383               0.004884464              -0.000014852              -0.000604788               0.001829734               0.001224946               0.000000000               0.000000000               0.000000000               0.000000000               0.000010131               0.004804524              -0.000015969              -0.000596765               0.001800413               0.001203649               0.000000000               0.000000000               0.000000000               0.000000000               0.000003960               0.004733461              -0.000014150              -0.000590196               0.001774537               0.001184340               0.000000000               0.000000000               0.000000000               0.000000000               0.000001918               0.004673001              -0.000007106              -0.000583404               0.001752119               0.001168715               0.000000000               0.000000000               0.000000000               0.000000000              -0.000004488               0.004633428              -0.000007190              -0.000580860               0.001738081               0.001157221               0.000000000               0.000000000               0.000000000               0.000000000               0.001624303               0.005302389               0.002528794              -0.000053689               0.001785341               0.001731652               0.000000000               0.000000000               0.000000000               0.000000000               0.000748330               0.005401600               0.001803701              -0.000394577               0.001932041               0.001537463               0.000000000               0.000000000               0.000000000               0.000000000               0.000102344               0.005740845               0.001036601              -0.000679225               0.002140004               0.001460779               0.000000000               0.000000000               0.000000000               0.000000000              -0.000063785               0.005688563               0.000683331              -0.000734988               0.002141165               0.001406176               0.000000000               0.000000000               0.000000000               0.000000000              -0.000088611               0.005560441               0.000486924              -0.000728283               0.002096223               0.001367940               0.000000000               0.000000000               0.000000000               0.000000000              -0.000079453               0.005430207               0.000362137              -0.000708569               0.002046241               0.001337672               0.000000000               0.000000000               0.000000000               0.000000000              -0.000061779               0.005304310               0.000281320              -0.000686204               0.001996820               0.001310616               0.000000000               0.000000000               0.000000000               0.000000000              -0.000041628               0.005184002               0.000222528              -0.000663609               0.001949187               0.001285577               0.000000000               0.000000000               0.000000000               0.000000000              -0.000026195               0.005074519               0.000167987              -0.000644136               0.001906202               0.001262065               0.000000000               0.000000000               0.000000000               0.000000000              -0.000017589               0.004974723               0.000118286              -0.000628435               0.001867703               0.001239268               0.000000000               0.000000000               0.000000000               0.000000000              -0.000013889               0.004877100               0.000074995              -0.000614844               0.001830632               0.001215787               0.000000000               0.000000000               0.000000000               0.000000000              -0.000013041               0.004776135               0.000041736              -0.000601906               0.001792664               0.001190759               0.000000000               0.000000000               0.000000000               0.000000000              -0.000014172               0.004676686               0.000020133              -0.000589899               0.001755513               0.001165614               0.000000000               0.000000000               0.000000000               0.000000000              -0.000016821               0.004586570               0.000004925              -0.000579628               0.001722051               0.001142423               0.000000000               0.000000000               0.000000000               0.000000000              -0.000018874               0.004505286              -0.000006215              -0.000570237               0.001691826               0.001121589               0.000000000               0.000000000               0.000000000               0.000000000              -0.000013392               0.004433472              -0.000007796              -0.000559205               0.001664211               0.001105006               0.000000000               0.000000000               0.000000000               0.000000000              -0.000013019               0.004388184              -0.000009530              -0.000553404               0.001647181               0.001093777               0.000000000               0.000000000               0.000000000               0.000000000               0.001448633               0.004217813               0.002208290               0.000016007               0.001400587               0.001416594               0.000000000               0.000000000               0.000000000               0.000000000               0.000611155               0.004683173               0.001749438              -0.000356214               0.001679779               0.001323565               0.000000000               0.000000000               0.000000000               0.000000000              -0.000042020               0.005309886               0.001199076              -0.000679492               0.001996441               0.001316949               0.000000000               0.000000000               0.000000000               0.000000000              -0.000168806               0.005392827               0.000870179              -0.000737404               0.002043392               0.001305988               0.000000000               0.000000000               0.000000000               0.000000000              -0.000160059               0.005342536               0.000660654              -0.000727838               0.002023440               0.001295602               0.000000000               0.000000000               0.000000000               0.000000000              -0.000128441               0.005256423               0.000515869              -0.000705216               0.001987196               0.001281979               0.000000000               0.000000000               0.000000000               0.000000000              -0.000091303               0.005152726               0.000412718              -0.000678328               0.001943667               0.001265340               0.000000000               0.000000000               0.000000000               0.000000000              -0.000054916               0.005050136               0.000331359              -0.000651859               0.001900648               0.001248789               0.000000000               0.000000000               0.000000000               0.000000000              -0.000035101               0.004950323               0.000258650              -0.000631952               0.001860742               0.001228790               0.000000000               0.000000000               0.000000000               0.000000000              -0.000026584               0.004851849               0.000194247              -0.000616449               0.001822750               0.001206301               0.000000000               0.000000000               0.000000000               0.000000000              -0.000023992               0.004748791               0.000138268              -0.000602594               0.001783779               0.001181185               0.000000000               0.000000000               0.000000000               0.000000000              -0.000025907               0.004637584               0.000092674              -0.000589412               0.001742317               0.001152905               0.000000000               0.000000000               0.000000000               0.000000000              -0.000030120               0.004528501               0.000055323              -0.000577356               0.001701937               0.001124581               0.000000000               0.000000000               0.000000000               0.000000000              -0.000038855               0.004428630               0.000025315              -0.000568148               0.001665578               0.001097430               0.000000000               0.000000000               0.000000000               0.000000000              -0.000050770               0.004334384               0.000004645              -0.000560835               0.001631725               0.001070890               0.000000000               0.000000000               0.000000000               0.000000000              -0.000058058               0.004244603              -0.000004321              -0.000552346               0.001598969               0.001046623               0.000000000               0.000000000               0.000000000               0.000000000              -0.000057935               0.004195764              -0.000006600              -0.000546195               0.001580639               0.001034444               0.000000000               0.000000000               0.000000000               0.000000000               0.001195164               0.003194744               0.001841069               0.000048840               0.001048623               0.001097463               0.000000000               0.000000000               0.000000000               0.000000000               0.000521889               0.003861994               0.001673940              -0.000287042               0.001382998               0.001095957               0.000000000               0.000000000               0.000000000               0.000000000              -0.000077203               0.004694379               0.001378970              -0.000615748               0.001770026               0.001154278               0.000000000               0.000000000               0.000000000               0.000000000              -0.000193570               0.004950572               0.001090564              -0.000691409               0.001880644               0.001189235               0.000000000               0.000000000               0.000000000               0.000000000              -0.000174544               0.005014770               0.000869986              -0.000692299               0.001902339               0.001210041               0.000000000               0.000000000               0.000000000               0.000000000              -0.000133489               0.005005071               0.000703354              -0.000675691               0.001893571               0.001217880               0.000000000               0.000000000               0.000000000               0.000000000              -0.000095925               0.004957920               0.000576063              -0.000655710               0.001871194               0.001215483               0.000000000               0.000000000               0.000000000               0.000000000              -0.000059198               0.004890418               0.000468663              -0.000633500               0.001841290               0.001207790               0.000000000               0.000000000               0.000000000               0.000000000              -0.000037526               0.004811859               0.000375864              -0.000615553               0.001809121               0.001193568               0.000000000               0.000000000               0.000000000               0.000000000              -0.000032010               0.004733078               0.000297169              -0.000603637               0.001778889               0.001175252               0.000000000               0.000000000               0.000000000               0.000000000              -0.000033829               0.004645572               0.000229382              -0.000593381               0.001746302               0.001152921               0.000000000               0.000000000               0.000000000               0.000000000              -0.000038869               0.004548805               0.000170112              -0.000583175               0.001710645               0.001127470               0.000000000               0.000000000               0.000000000               0.000000000              -0.000049590               0.004447569               0.000115442              -0.000574541               0.001674022               0.001099481               0.000000000               0.000000000               0.000000000               0.000000000              -0.000066671               0.004348391               0.000067373              -0.000568549               0.001638966               0.001070416               0.000000000               0.000000000               0.000000000               0.000000000              -0.000091021               0.004254542               0.000029359              -0.000565949               0.001606816               0.001040867               0.000000000               0.000000000               0.000000000               0.000000000              -0.000119030               0.004160032               0.000007038              -0.000564639               0.001574876               0.001010238               0.000000000               0.000000000               0.000000000               0.000000000              -0.000133838               0.004107485              -0.000000769              -0.000563624               0.001557023               0.000993399               0.000000000               0.000000000               0.000000000               0.000000000               0.000798993               0.002251733               0.001444906               0.000018154               0.000744518               0.000762672               0.000000000               0.000000000               0.000000000               0.000000000               0.000414002               0.003047308               0.001550159              -0.000225664               0.001090980               0.000865316               0.000000000               0.000000000               0.000000000               0.000000000              -0.000043368               0.004005927               0.001512848              -0.000517004               0.001507629               0.000990626               0.000000000               0.000000000               0.000000000               0.000000000              -0.000149146               0.004424938               0.001299467              -0.000609046               0.001677980               0.001068933               0.000000000               0.000000000               0.000000000               0.000000000              -0.000139790               0.004614377               0.001087049              -0.000629218               0.001747849               0.001118632               0.000000000               0.000000000               0.000000000               0.000000000              -0.000101327               0.004699664               0.000907402              -0.000625454               0.001775024               0.001149569               0.000000000               0.000000000               0.000000000               0.000000000              -0.000070461               0.004727252               0.000760612              -0.000617328               0.001781511               0.001164183               0.000000000               0.000000000               0.000000000               0.000000000              -0.000042570               0.004712684               0.000634469              -0.000605048               0.001772561               0.001167514               0.000000000               0.000000000               0.000000000               0.000000000              -0.000019428               0.004675507               0.000523913              -0.000591722               0.001755728               0.001164005               0.000000000               0.000000000               0.000000000               0.000000000              -0.000010357               0.004624368               0.000431868              -0.000581929               0.001735417               0.001153488               0.000000000               0.000000000               0.000000000               0.000000000              -0.000010839               0.004559724               0.000356234              -0.000574029               0.001711236               0.001137207               0.000000000               0.000000000               0.000000000               0.000000000              -0.000016816               0.004485792               0.000285862              -0.000567029               0.001684259               0.001117230               0.000000000               0.000000000               0.000000000               0.000000000              -0.000031628               0.004403164               0.000215632              -0.000562255               0.001655125               0.001092870               0.000000000               0.000000000               0.000000000               0.000000000              -0.000060081               0.004313857               0.000147780              -0.000561761               0.001625192               0.001063430               0.000000000               0.000000000               0.000000000               0.000000000              -0.000101949               0.004226746               0.000086492              -0.000566573               0.001597759               0.001031186               0.000000000               0.000000000               0.000000000               0.000000000              -0.000159777               0.004142712               0.000036836              -0.000577754               0.001573475               0.000995721               0.000000000               0.000000000               0.000000000               0.000000000              -0.000204038               0.004091029               0.000010769              -0.000587892               0.001559627               0.000971735               0.000000000               0.000000000               0.000000000               0.000000000               0.000293199               0.001443015               0.001037921              -0.000070428               0.000504476               0.000434047               0.000000000               0.000000000               0.000000000               0.000000000               0.000249630               0.002274299               0.001357420              -0.000190677               0.000821650               0.000630973               0.000000000               0.000000000               0.000000000               0.000000000               0.000018934               0.003247381               0.001537410              -0.000398823               0.001215390               0.000816567               0.000000000               0.000000000               0.000000000               0.000000000              -0.000040548               0.003781367               0.001417768              -0.000487876               0.001423068               0.000935192               0.000000000               0.000000000               0.000000000               0.000000000              -0.000035028               0.004088840               0.001236545              -0.000524240               0.001537679               0.001013439               0.000000000               0.000000000               0.000000000               0.000000000              -0.000008965               0.004275747               0.001060623              -0.000537830               0.001604511               0.001066681               0.000000000               0.000000000               0.000000000               0.000000000               0.000010407               0.004387426               0.000908997              -0.000544525               0.001643969               0.001099444               0.000000000               0.000000000               0.000000000               0.000000000               0.000025361               0.004444114               0.000776056              -0.000546003               0.001663357               0.001117355               0.000000000               0.000000000               0.000000000               0.000000000               0.000040960               0.004458979               0.000659137              -0.000542011               0.001666982               0.001124971               0.000000000               0.000000000               0.000000000               0.000000000               0.000051753               0.004446494               0.000561969              -0.000536403               0.001660951               0.001124548               0.000000000               0.000000000               0.000000000               0.000000000               0.000053738               0.004419163               0.000480982              -0.000532242               0.001650454               0.001118211               0.000000000               0.000000000               0.000000000               0.000000000               0.000046501               0.004381848               0.000403181              -0.000530292               0.001637365               0.001107073               0.000000000               0.000000000               0.000000000               0.000000000               0.000030744               0.004335423               0.000321798              -0.000530397               0.001621926               0.001091528               0.000000000               0.000000000               0.000000000               0.000000000              -0.000000738               0.004273674               0.000239310              -0.000534485               0.001602705               0.001068221               0.000000000               0.000000000               0.000000000               0.000000000              -0.000052098               0.004202149               0.000156199              -0.000544804               0.001582304               0.001037500               0.000000000               0.000000000               0.000000000               0.000000000              -0.000129370               0.004131110               0.000074901              -0.000564901               0.001565323               0.001000422               0.000000000               0.000000000               0.000000000               0.000000000              -0.000195519               0.004083135               0.000028937              -0.000583710               0.001555601               0.000971891               0.000000000               0.000000000               0.000000000               0.000000000              -0.000284960               0.000809751               0.000664055              -0.000208079               0.000339273               0.000131194               0.000000000               0.000000000               0.000000000               0.000000000               0.000040212               0.001577370               0.001111389              -0.000182092               0.000586481               0.000404389               0.000000000               0.000000000               0.000000000               0.000000000               0.000090697               0.002471273               0.001439478              -0.000274899               0.000915382               0.000640483               0.000000000               0.000000000               0.000000000               0.000000000               0.000112528               0.003068312               0.001408619              -0.000341341               0.001136540               0.000795199               0.000000000               0.000000000               0.000000000               0.000000000               0.000130065               0.003470819               0.001273688              -0.000385078               0.001285287               0.000900209               0.000000000               0.000000000               0.000000000               0.000000000               0.000145570               0.003753362               0.001117256              -0.000414581               0.001389302               0.000974720               0.000000000               0.000000000               0.000000000               0.000000000               0.000152842               0.003952288               0.000974832              -0.000436720               0.001462989               0.001026270               0.000000000               0.000000000               0.000000000               0.000000000               0.000155012               0.004084438               0.000850946              -0.000452425               0.001512274               0.001059849               0.000000000               0.000000000               0.000000000               0.000000000               0.000158191               0.004161905               0.000741220              -0.000460916               0.001540926               0.001080011               0.000000000               0.000000000               0.000000000               0.000000000               0.000160759               0.004203573               0.000647994              -0.000465161               0.001556230               0.001091069               0.000000000               0.000000000               0.000000000               0.000000000               0.000159403               0.004225056               0.000567089              -0.000468355               0.001564456               0.001096101               0.000000000               0.000000000               0.000000000               0.000000000               0.000151091               0.004231716               0.000488292              -0.000472304               0.001567993               0.001095688               0.000000000               0.000000000               0.000000000               0.000000000               0.000138922               0.004229890               0.000405261              -0.000476639               0.001568829               0.001092190               0.000000000               0.000000000               0.000000000               0.000000000               0.000116751               0.004208582               0.000316626              -0.000482290               0.001563610               0.001081320               0.000000000               0.000000000               0.000000000               0.000000000               0.000074993               0.004164651               0.000219350              -0.000492458               0.001552356               0.001059898               0.000000000               0.000000000               0.000000000               0.000000000               0.000009884               0.004115699               0.000112398              -0.000510755               0.001542137               0.001031383               0.000000000               0.000000000               0.000000000               0.000000000              -0.000051821               0.004079193               0.000050332              -0.000529331               0.001536161               0.001006830               0.000000000               0.000000000               0.000000000               0.000000000              -0.000867980               0.000351422               0.000362493              -0.000369420               0.000240279              -0.000129141               0.000000000               0.000000000               0.000000000               0.000000000              -0.000191717               0.000994041               0.000832592              -0.000196149               0.000396726               0.000200577               0.000000000               0.000000000               0.000000000               0.000000000               0.000156695               0.001751218               0.001215902              -0.000160143               0.000637113               0.000476971               0.000000000               0.000000000               0.000000000               0.000000000               0.000281377               0.002363683               0.001250676              -0.000189945               0.000851201               0.000661256               0.000000000               0.000000000               0.000000000               0.000000000               0.000326428               0.002831101               0.001164088              -0.000231478               0.001020850               0.000789372               0.000000000               0.000000000               0.000000000               0.000000000               0.000339962               0.003191158               0.001040841              -0.000271409               0.001154178               0.000882769               0.000000000               0.000000000               0.000000000               0.000000000               0.000339793               0.003468293               0.000921643              -0.000306114               0.001258124               0.000952010               0.000000000               0.000000000               0.000000000               0.000000000               0.000329883               0.003672992               0.000816569              -0.000335418               0.001336124               0.001000707               0.000000000               0.000000000               0.000000000               0.000000000               0.000318846               0.003817302               0.000723334              -0.000357595               0.001391619               0.001034024               0.000000000               0.000000000               0.000000000               0.000000000               0.000309917               0.003917555               0.000643517              -0.000373475               0.001430330               0.001056855               0.000000000               0.000000000               0.000000000               0.000000000               0.000303302               0.003989421               0.000572373              -0.000384939               0.001458107               0.001073168               0.000000000               0.000000000               0.000000000               0.000000000               0.000297057               0.004042867               0.000502359              -0.000393961               0.001478929               0.001084968               0.000000000               0.000000000               0.000000000               0.000000000               0.000291413               0.004084771               0.000428036              -0.000401316               0.001495348               0.001094033               0.000000000               0.000000000               0.000000000               0.000000000               0.000283005               0.004106537               0.000344702              -0.000407189               0.001504562               0.001097372               0.000000000               0.000000000               0.000000000               0.000000000               0.000266775               0.004103184               0.000248832              -0.000412856               0.001505333               0.001092477               0.000000000               0.000000000               0.000000000               0.000000000               0.000239502               0.004086921               0.000132762              -0.000421051               0.001502644               0.001081593               0.000000000               0.000000000               0.000000000               0.000000000               0.000212045               0.004071026               0.000065413              -0.000429360               0.001500115               0.001070755               0.000000000               0.000000000               0.000000000               0.000000000              -0.001366153               0.000065223               0.000156615              -0.000520460               0.000195226              -0.000325234               0.000000000               0.000000000               0.000000000               0.000000000              -0.000408156               0.000565824               0.000543268              -0.000223786               0.000263201               0.000039414               0.000000000               0.000000000               0.000000000               0.000000000               0.000205555               0.001169030               0.000878708              -0.000069047               0.000412688               0.000343641               0.000000000               0.000000000               0.000000000               0.000000000               0.000434921               0.001760645               0.000940952              -0.000056986               0.000605871               0.000548884               0.000000000               0.000000000               0.000000000               0.000000000               0.000515552               0.002263249               0.000896322              -0.000089575               0.000784267               0.000694692               0.000000000               0.000000000               0.000000000               0.000000000               0.000536207               0.002675340               0.000814118              -0.000133340               0.000936218               0.000802877               0.000000000               0.000000000               0.000000000               0.000000000               0.000532105               0.003009886               0.000728016              -0.000176697               0.001062184               0.000885487               0.000000000               0.000000000               0.000000000               0.000000000               0.000514258               0.003275224               0.000650215              -0.000216556               0.001163916               0.000947359               0.000000000               0.000000000               0.000000000               0.000000000               0.000493326               0.003477769               0.000581099              -0.000249724               0.001242486               0.000992762               0.000000000               0.000000000               0.000000000               0.000000000               0.000472440               0.003629644               0.000521490              -0.000276540               0.001302049               0.001025509               0.000000000               0.000000000               0.000000000               0.000000000               0.000456934               0.003749935               0.000468711              -0.000297391               0.001349096               0.001051705               0.000000000               0.000000000               0.000000000               0.000000000               0.000449915               0.003848825               0.000415762              -0.000312384               0.001387057               0.001074673               0.000000000               0.000000000               0.000000000               0.000000000               0.000450826               0.003933869               0.000359451              -0.000322673               0.001418834               0.001096161               0.000000000               0.000000000               0.000000000               0.000000000               0.000459428               0.004001439               0.000296043              -0.000327893               0.001443097               0.001115204               0.000000000               0.000000000               0.000000000               0.000000000               0.000474944               0.004041784               0.000219312              -0.000327118               0.001456287               0.001129169               0.000000000               0.000000000               0.000000000               0.000000000               0.000499868               0.004059429               0.000120853              -0.000319977               0.001459789               0.001139811               0.000000000               0.000000000               0.000000000               0.000000000               0.000523699               0.004066179               0.000065527              -0.000311884               0.001459341               0.001147456               0.000000000               0.000000000               0.000000000               0.000000000              -0.001703394              -0.000081274               0.000049206              -0.000628613               0.000182445              -0.000446168               0.000000000               0.000000000               0.000000000               0.000000000              -0.000563128               0.000309797               0.000265354              -0.000249897               0.000186563              -0.000063334               0.000000000               0.000000000               0.000000000               0.000000000               0.000232328               0.000792603               0.000459206              -0.000011953               0.000268182               0.000256230               0.000000000               0.000000000               0.000000000               0.000000000               0.000544428               0.001354136               0.000505248               0.000034893               0.000439743               0.000474636               0.000000000               0.000000000               0.000000000               0.000000000               0.000654975               0.001869241               0.000488781               0.000011960               0.000619088               0.000631047               0.000000000               0.000000000               0.000000000               0.000000000               0.000684057               0.002308260               0.000448511              -0.000032012               0.000780083               0.000748071               0.000000000               0.000000000               0.000000000               0.000000000               0.000679559               0.002674821               0.000403599              -0.000079518               0.000918104               0.000838586               0.000000000               0.000000000               0.000000000               0.000000000               0.000658198               0.002974487               0.000362317              -0.000124986               0.001033148               0.000908162               0.000000000               0.000000000               0.000000000               0.000000000               0.000627749               0.003215310               0.000324286              -0.000166507               0.001127262               0.000960754               0.000000000               0.000000000               0.000000000               0.000000000               0.000597116               0.003410940               0.000290973              -0.000202449               0.001204451               0.001002003               0.000000000               0.000000000               0.000000000               0.000000000               0.000570995               0.003572329               0.000263449              -0.000232418               0.001268237               0.001035819               0.000000000               0.000000000               0.000000000               0.000000000               0.000558075               0.003712406               0.000235478              -0.000254772               0.001322380               0.001067608               0.000000000               0.000000000               0.000000000               0.000000000               0.000563560               0.003834924               0.000204602              -0.000268030               0.001367638               0.001099609               0.000000000               0.000000000               0.000000000               0.000000000               0.000588609               0.003933317               0.000170194              -0.000270935               0.001401404               0.001130469               0.000000000               0.000000000               0.000000000               0.000000000               0.000636474               0.004002787               0.000127979              -0.000261670               0.001421472               0.001159802               0.000000000               0.000000000               0.000000000               0.000000000               0.000715445               0.004044196               0.000072189              -0.000237232               0.001427129               0.001189897               0.000000000               0.000000000               0.000000000               0.000000000               0.000789270               0.004067036               0.000041448              -0.000212403               0.001426466               0.001214063               0.000000000               0.000000000               0.000000000               0.000000000               0.000000000               0.000000000               0.000000000               0.000000000               0.000000000               0.000000000               0.000000000               0.000000000               0.000000000               0.000000000               0.000000000               0.000000000               0.000000000               0.000000000               0.000000000               0.000000000               0.000000000               0.000000000               0.000000000               0.000000000               0.000000000               0.000000000               0.000000000               0.000000000               0.000000000               0.000000000               0.000000000               0.000000000               0.000000000               0.000000000               0.000000000               0.000000000               0.000000000               0.000000000               0.000000000               0.000000000               0.000000000               0.000000000               0.000000000               0.000000000               0.000000000               0.000000000               0.000000000               0.000000000               0.000000000               0.000000000               0.000000000               0.000000000               0.000000000               0.000000000               0.000000000               0.000000000               0.000000000               0.000000000               0.000000000               0.000000000               0.000000000               0.000000000               0.000000000               0.000000000               0.000000000               0.000000000               0.000000000               0.000000000               0.000000000               0.000000000               0.000000000               0.000000000               0.000000000               0.000000000               0.000000000               0.000000000               0.000000000               0.000000000               0.000000000               0.000000000               0.000000000               0.000000000               0.000000000               0.000000000               0.000000000               0.000000000               0.000000000               0.000000000               0.000000000               0.000000000               0.000000000               0.000000000               0.000000000               0.000000000               0.000000000               0.000000000               0.000000000               0.000000000               0.000000000               0.000000000               0.000000000               0.000000000               0.000000000               0.000000000               0.000000000               0.000000000               0.000000000               0.000000000               0.000000000               0.000000000               0.000000000               0.000000000               0.000000000               0.000000000               0.000000000               0.000000000               0.000000000               0.000000000               0.000000000               0.000000000               0.000000000               0.000000000               0.000000000               0.000000000               0.000000000               0.000000000               0.000000000               0.000000000               0.000000000               0.000000000               0.000000000               0.000000000               0.000000000               0.000000000               0.000000000               0.000000000               0.000000000               0.000000000               0.000000000               0.000000000               0.000000000               0.000000000               0.000000000               0.000000000               0.000000000               0.000000000               0.000000000               0.000000000               0.000000000               0.000000000               0.000000000               0.000000000               0.000000000               0.000000000               0.000000000               0.000000000               0.000000000               0.000000000               0.000000000               0.000000000               0.000000000               0.000000000               0.000000000               0.000000000               0.000000000               0.000000000               0.000000000               0.000000000               0.000000000               0.000000000               0.000000000               0.000000000               0.000000000               0.000000000 </DataArray>
</PointData>
</Piece>
</UnstructuredGrid> </VTKFile>
