<?xml version="1.0"?>
<VTKFile type="UnstructuredGrid" version="0.1">
<UnstructuredGrid>
<Piece NumberOfPoints="      1156" NumberOfCells="      1024">
<Points>
<DataArray type="Float64"                                    Name="coordinates"                                                      NumberOfComponents=" 3" format="ascii">
              0.133000000               0.000000000               0.000000000               0.155937500               0.000000000               0.000000000               0.178875000               0.000000000               0.000000000               0.201812500               0.000000000               0.000000000               0.224750000               0.000000000               0.000000000               0.247687500               0.000000000               0.000000000               0.270625000               0.000000000               0.000000000               0.293562500               0.000000000               0.000000000               0.316500000               0.000000000               0.000000000               0.339437500               0.000000000               0.000000000               0.362375000               0.000000000               0.000000000               0.385312500               0.000000000               0.000000000               0.408250000               0.000000000               0.000000000               0.431187500               0.000000000               0.000000000               0.454125000               0.000000000               0.000000000               0.477062500               0.000000000               0.000000000               0.500000000               0.000000000               0.000000000               0.132359569               0.013036280               0.000000000               0.155337096               0.016127762               0.000000000               0.178314623               0.019219245               0.000000000               0.201292150               0.022310727               0.000000000               0.224269676               0.025402210               0.000000000               0.247247203               0.028493692               0.000000000               0.270224730               0.031585175               0.000000000               0.293202257               0.034676657               0.000000000               0.316179784               0.037768140               0.000000000               0.339157311               0.040859622               0.000000000               0.362134838               0.043951105               0.000000000               0.385112365               0.047042587               0.000000000               0.408089892               0.050134070               0.000000000               0.431067419               0.053225552               0.000000000               0.454044946               0.056317035               0.000000000               0.477022473               0.059408517               0.000000000               0.500000000               0.062500000               0.000000000               0.130444442               0.025947013               0.000000000               0.153541665               0.032137825               0.000000000               0.176638887               0.038328636               0.000000000               0.199736109               0.044519448               0.000000000               0.222833332               0.050710260               0.000000000               0.245930554               0.056901071               0.000000000               0.269027776               0.063091883               0.000000000               0.292124999               0.069282695               0.000000000               0.315222221               0.075473506               0.000000000               0.338319444               0.081664318               0.000000000               0.361416666               0.087855130               0.000000000               0.384513888               0.094045942               0.000000000               0.407611111               0.100236753               0.000000000               0.430708333               0.106427565               0.000000000               0.453805555               0.112618377               0.000000000               0.476902778               0.118809188               0.000000000               0.500000000               0.125000000               0.000000000               0.127273065               0.038607862               0.000000000               0.150568498               0.047913621               0.000000000               0.173863932               0.057219379               0.000000000               0.197159365               0.066525138               0.000000000               0.220454798               0.075830897               0.000000000               0.243750232               0.085136655               0.000000000               0.267045665               0.094442414               0.000000000               0.290341099               0.103748172               0.000000000               0.313636532               0.113053931               0.000000000               0.336931966               0.122359690               0.000000000               0.360227399               0.131665448               0.000000000               0.383522833               0.140971207               0.000000000               0.406818266               0.150276966               0.000000000               0.430113700               0.159582724               0.000000000               0.453409133               0.168888483               0.000000000               0.476704567               0.178194241               0.000000000               0.500000000               0.187500000               0.000000000               0.122875978               0.050896897               0.000000000               0.146446229               0.063340840               0.000000000               0.170016481               0.075784784               0.000000000               0.193586732               0.088228728               0.000000000               0.217156983               0.100672672               0.000000000               0.240727235               0.113116616               0.000000000               0.264297486               0.125560560               0.000000000               0.287867738               0.138004504               0.000000000               0.311437989               0.150448448               0.000000000               0.335008240               0.162892392               0.000000000               0.358578492               0.175336336               0.000000000               0.382148743               0.187780280               0.000000000               0.405718994               0.200224224               0.000000000               0.429289246               0.212668168               0.000000000               0.452859497               0.225112112               0.000000000               0.476429749               0.237556056               0.000000000               0.500000000               0.250000000               0.000000000               0.117295528               0.062695766               0.000000000               0.141214558               0.078308531               0.000000000               0.165133587               0.093921295               0.000000000               0.189052617               0.109534060               0.000000000               0.212971646               0.125146824               0.000000000               0.236890676               0.140759589               0.000000000               0.260809705               0.156372354               0.000000000               0.284728735               0.171985118               0.000000000               0.308647764               0.187597883               0.000000000               0.332566794               0.203210648               0.000000000               0.356485823               0.218823412               0.000000000               0.380404853               0.234436177               0.000000000               0.404323882               0.250048941               0.000000000               0.428242912               0.265661706               0.000000000               0.452161941               0.281274471               0.000000000               0.476080971               0.296887235               0.000000000               0.500000000               0.312500000               0.000000000               0.110585458               0.073890841               0.000000000               0.134923867               0.092710163               0.000000000               0.159262276               0.111529486               0.000000000               0.183600685               0.130348808               0.000000000               0.207939094               0.149168131               0.000000000               0.232277503               0.167987453               0.000000000               0.256615912               0.186806776               0.000000000               0.280954320               0.205626098               0.000000000               0.305292729               0.224445420               0.000000000               0.329631138               0.243264743               0.000000000               0.353969547               0.262084065               0.000000000               0.378307956               0.280903388               0.000000000               0.402646365               0.299722710               0.000000000               0.426984773               0.318542033               0.000000000               0.451323182               0.337361355               0.000000000               0.475661591               0.356180678               0.000000000               0.500000000               0.375000000               0.000000000               0.102810390               0.084374307               0.000000000               0.127634741               0.106444663               0.000000000               0.152459092               0.128515018               0.000000000               0.177283442               0.150585374               0.000000000               0.202107793               0.172655730               0.000000000               0.226932143               0.194726086               0.000000000               0.251756494               0.216796442               0.000000000               0.276580845               0.238866798               0.000000000               0.301405195               0.260937153               0.000000000               0.326229546               0.283007509               0.000000000               0.351053896               0.305077865               0.000000000               0.375878247               0.327148221               0.000000000               0.400702598               0.349218577               0.000000000               0.425526948               0.371288933               0.000000000               0.450351299               0.393359288               0.000000000               0.475175649               0.415429644               0.000000000               0.500000000               0.437500000               0.000000000               0.094045202               0.094045202               0.000000000               0.119417377               0.119417377               0.000000000               0.144789552               0.144789552               0.000000000               0.170161727               0.170161727               0.000000000               0.195533901               0.195533901               0.000000000               0.220906076               0.220906076               0.000000000               0.246278251               0.246278251               0.000000000               0.271650426               0.271650426               0.000000000               0.297022601               0.297022601               0.000000000               0.322394776               0.322394776               0.000000000               0.347766951               0.347766951               0.000000000               0.373139126               0.373139126               0.000000000               0.398511300               0.398511300               0.000000000               0.423883475               0.423883475               0.000000000               0.449255650               0.449255650               0.000000000               0.474627825               0.474627825               0.000000000               0.500000000               0.500000000               0.000000000               0.084374307               0.102810390               0.000000000               0.106444663               0.127634741               0.000000000               0.128515018               0.152459092               0.000000000               0.150585374               0.177283442               0.000000000               0.172655730               0.202107793               0.000000000               0.194726086               0.226932143               0.000000000               0.216796442               0.251756494               0.000000000               0.238866798               0.276580845               0.000000000               0.260937153               0.301405195               0.000000000               0.283007509               0.326229546               0.000000000               0.305077865               0.351053896               0.000000000               0.327148221               0.375878247               0.000000000               0.349218577               0.400702598               0.000000000               0.371288933               0.425526948               0.000000000               0.393359288               0.450351299               0.000000000               0.415429644               0.475175649               0.000000000               0.437500000               0.500000000               0.000000000               0.073890841               0.110585458               0.000000000               0.092710163               0.134923867               0.000000000               0.111529486               0.159262276               0.000000000               0.130348808               0.183600685               0.000000000               0.149168131               0.207939094               0.000000000               0.167987453               0.232277503               0.000000000               0.186806776               0.256615912               0.000000000               0.205626098               0.280954320               0.000000000               0.224445420               0.305292729               0.000000000               0.243264743               0.329631138               0.000000000               0.262084065               0.353969547               0.000000000               0.280903388               0.378307956               0.000000000               0.299722710               0.402646365               0.000000000               0.318542033               0.426984773               0.000000000               0.337361355               0.451323182               0.000000000               0.356180678               0.475661591               0.000000000               0.375000000               0.500000000               0.000000000               0.062695766               0.117295528               0.000000000               0.078308531               0.141214558               0.000000000               0.093921295               0.165133587               0.000000000               0.109534060               0.189052617               0.000000000               0.125146824               0.212971646               0.000000000               0.140759589               0.236890676               0.000000000               0.156372354               0.260809705               0.000000000               0.171985118               0.284728735               0.000000000               0.187597883               0.308647764               0.000000000               0.203210648               0.332566794               0.000000000               0.218823412               0.356485823               0.000000000               0.234436177               0.380404853               0.000000000               0.250048941               0.404323882               0.000000000               0.265661706               0.428242912               0.000000000               0.281274471               0.452161941               0.000000000               0.296887235               0.476080971               0.000000000               0.312500000               0.500000000               0.000000000               0.050896897               0.122875978               0.000000000               0.063340840               0.146446229               0.000000000               0.075784784               0.170016481               0.000000000               0.088228728               0.193586732               0.000000000               0.100672672               0.217156983               0.000000000               0.113116616               0.240727235               0.000000000               0.125560560               0.264297486               0.000000000               0.138004504               0.287867738               0.000000000               0.150448448               0.311437989               0.000000000               0.162892392               0.335008240               0.000000000               0.175336336               0.358578492               0.000000000               0.187780280               0.382148743               0.000000000               0.200224224               0.405718994               0.000000000               0.212668168               0.429289246               0.000000000               0.225112112               0.452859497               0.000000000               0.237556056               0.476429749               0.000000000               0.250000000               0.500000000               0.000000000               0.038607862               0.127273065               0.000000000               0.047913621               0.150568498               0.000000000               0.057219379               0.173863932               0.000000000               0.066525138               0.197159365               0.000000000               0.075830897               0.220454798               0.000000000               0.085136655               0.243750232               0.000000000               0.094442414               0.267045665               0.000000000               0.103748172               0.290341099               0.000000000               0.113053931               0.313636532               0.000000000               0.122359690               0.336931966               0.000000000               0.131665448               0.360227399               0.000000000               0.140971207               0.383522833               0.000000000               0.150276966               0.406818266               0.000000000               0.159582724               0.430113700               0.000000000               0.168888483               0.453409133               0.000000000               0.178194241               0.476704567               0.000000000               0.187500000               0.500000000               0.000000000               0.025947013               0.130444442               0.000000000               0.032137825               0.153541665               0.000000000               0.038328636               0.176638887               0.000000000               0.044519448               0.199736109               0.000000000               0.050710260               0.222833332               0.000000000               0.056901071               0.245930554               0.000000000               0.063091883               0.269027776               0.000000000               0.069282695               0.292124999               0.000000000               0.075473506               0.315222221               0.000000000               0.081664318               0.338319444               0.000000000               0.087855130               0.361416666               0.000000000               0.094045942               0.384513888               0.000000000               0.100236753               0.407611111               0.000000000               0.106427565               0.430708333               0.000000000               0.112618377               0.453805555               0.000000000               0.118809188               0.476902778               0.000000000               0.125000000               0.500000000               0.000000000               0.013036280               0.132359569               0.000000000               0.016127762               0.155337096               0.000000000               0.019219245               0.178314623               0.000000000               0.022310727               0.201292150               0.000000000               0.025402210               0.224269676               0.000000000               0.028493692               0.247247203               0.000000000               0.031585175               0.270224730               0.000000000               0.034676657               0.293202257               0.000000000               0.037768140               0.316179784               0.000000000               0.040859622               0.339157311               0.000000000               0.043951105               0.362134838               0.000000000               0.047042587               0.385112365               0.000000000               0.050134070               0.408089892               0.000000000               0.053225552               0.431067419               0.000000000               0.056317035               0.454044946               0.000000000               0.059408517               0.477022473               0.000000000               0.062500000               0.500000000               0.000000000               0.000000000               0.133000000               0.000000000               0.000000000               0.155937500               0.000000000               0.000000000               0.178875000               0.000000000               0.000000000               0.201812500               0.000000000               0.000000000               0.224750000               0.000000000               0.000000000               0.247687500               0.000000000               0.000000000               0.270625000               0.000000000               0.000000000               0.293562500               0.000000000               0.000000000               0.316500000               0.000000000               0.000000000               0.339437500               0.000000000               0.000000000               0.362375000               0.000000000               0.000000000               0.385312500               0.000000000               0.000000000               0.408250000               0.000000000               0.000000000               0.431187500               0.000000000               0.000000000               0.454125000               0.000000000               0.000000000               0.477062500               0.000000000               0.000000000               0.500000000               0.000000000               0.133000000               0.000000000               0.000000000               0.155937500               0.000000000               0.000000000               0.178875000               0.000000000               0.000000000               0.201812500               0.000000000               0.000000000               0.224750000               0.000000000               0.000000000               0.247687500               0.000000000               0.000000000               0.270625000               0.000000000               0.000000000               0.293562500               0.000000000               0.000000000               0.316500000               0.000000000               0.000000000               0.339437500               0.000000000               0.000000000               0.362375000               0.000000000               0.000000000               0.385312500               0.000000000               0.000000000               0.408250000               0.000000000               0.000000000               0.431187500               0.000000000               0.000000000               0.454125000               0.000000000               0.000000000               0.477062500               0.000000000               0.000000000               0.500000000               0.000000000               0.000000000               0.132359569              -0.013036280               0.000000000               0.155337096              -0.016127762               0.000000000               0.178314623              -0.019219245               0.000000000               0.201292150              -0.022310727               0.000000000               0.224269676              -0.025402210               0.000000000               0.247247203              -0.028493692               0.000000000               0.270224730              -0.031585175               0.000000000               0.293202257              -0.034676657               0.000000000               0.316179784              -0.037768140               0.000000000               0.339157311              -0.040859622               0.000000000               0.362134838              -0.043951105               0.000000000               0.385112365              -0.047042587               0.000000000               0.408089892              -0.050134070               0.000000000               0.431067419              -0.053225552               0.000000000               0.454044946              -0.056317035               0.000000000               0.477022473              -0.059408517               0.000000000               0.500000000              -0.062500000               0.000000000               0.130444442              -0.025947013               0.000000000               0.153541665              -0.032137825               0.000000000               0.176638887              -0.038328636               0.000000000               0.199736109              -0.044519448               0.000000000               0.222833332              -0.050710260               0.000000000               0.245930554              -0.056901071               0.000000000               0.269027776              -0.063091883               0.000000000               0.292124999              -0.069282695               0.000000000               0.315222221              -0.075473506               0.000000000               0.338319444              -0.081664318               0.000000000               0.361416666              -0.087855130               0.000000000               0.384513888              -0.094045942               0.000000000               0.407611111              -0.100236753               0.000000000               0.430708333              -0.106427565               0.000000000               0.453805555              -0.112618377               0.000000000               0.476902778              -0.118809188               0.000000000               0.500000000              -0.125000000               0.000000000               0.127273065              -0.038607862               0.000000000               0.150568498              -0.047913621               0.000000000               0.173863932              -0.057219379               0.000000000               0.197159365              -0.066525138               0.000000000               0.220454798              -0.075830897               0.000000000               0.243750232              -0.085136655               0.000000000               0.267045665              -0.094442414               0.000000000               0.290341099              -0.103748172               0.000000000               0.313636532              -0.113053931               0.000000000               0.336931966              -0.122359690               0.000000000               0.360227399              -0.131665448               0.000000000               0.383522833              -0.140971207               0.000000000               0.406818266              -0.150276966               0.000000000               0.430113700              -0.159582724               0.000000000               0.453409133              -0.168888483               0.000000000               0.476704567              -0.178194241               0.000000000               0.500000000              -0.187500000               0.000000000               0.122875978              -0.050896897               0.000000000               0.146446229              -0.063340840               0.000000000               0.170016481              -0.075784784               0.000000000               0.193586732              -0.088228728               0.000000000               0.217156983              -0.100672672               0.000000000               0.240727235              -0.113116616               0.000000000               0.264297486              -0.125560560               0.000000000               0.287867738              -0.138004504               0.000000000               0.311437989              -0.150448448               0.000000000               0.335008240              -0.162892392               0.000000000               0.358578492              -0.175336336               0.000000000               0.382148743              -0.187780280               0.000000000               0.405718994              -0.200224224               0.000000000               0.429289246              -0.212668168               0.000000000               0.452859497              -0.225112112               0.000000000               0.476429749              -0.237556056               0.000000000               0.500000000              -0.250000000               0.000000000               0.117295528              -0.062695766               0.000000000               0.141214558              -0.078308531               0.000000000               0.165133587              -0.093921295               0.000000000               0.189052617              -0.109534060               0.000000000               0.212971646              -0.125146824               0.000000000               0.236890676              -0.140759589               0.000000000               0.260809705              -0.156372354               0.000000000               0.284728735              -0.171985118               0.000000000               0.308647764              -0.187597883               0.000000000               0.332566794              -0.203210648               0.000000000               0.356485823              -0.218823412               0.000000000               0.380404853              -0.234436177               0.000000000               0.404323882              -0.250048941               0.000000000               0.428242912              -0.265661706               0.000000000               0.452161941              -0.281274471               0.000000000               0.476080971              -0.296887235               0.000000000               0.500000000              -0.312500000               0.000000000               0.110585458              -0.073890841               0.000000000               0.134923867              -0.092710163               0.000000000               0.159262276              -0.111529486               0.000000000               0.183600685              -0.130348808               0.000000000               0.207939094              -0.149168131               0.000000000               0.232277503              -0.167987453               0.000000000               0.256615912              -0.186806776               0.000000000               0.280954320              -0.205626098               0.000000000               0.305292729              -0.224445420               0.000000000               0.329631138              -0.243264743               0.000000000               0.353969547              -0.262084065               0.000000000               0.378307956              -0.280903388               0.000000000               0.402646365              -0.299722710               0.000000000               0.426984773              -0.318542033               0.000000000               0.451323182              -0.337361355               0.000000000               0.475661591              -0.356180678               0.000000000               0.500000000              -0.375000000               0.000000000               0.102810390              -0.084374307               0.000000000               0.127634741              -0.106444663               0.000000000               0.152459092              -0.128515018               0.000000000               0.177283442              -0.150585374               0.000000000               0.202107793              -0.172655730               0.000000000               0.226932143              -0.194726086               0.000000000               0.251756494              -0.216796442               0.000000000               0.276580845              -0.238866798               0.000000000               0.301405195              -0.260937153               0.000000000               0.326229546              -0.283007509               0.000000000               0.351053896              -0.305077865               0.000000000               0.375878247              -0.327148221               0.000000000               0.400702598              -0.349218577               0.000000000               0.425526948              -0.371288933               0.000000000               0.450351299              -0.393359288               0.000000000               0.475175649              -0.415429644               0.000000000               0.500000000              -0.437500000               0.000000000               0.094045202              -0.094045202               0.000000000               0.119417377              -0.119417377               0.000000000               0.144789552              -0.144789552               0.000000000               0.170161727              -0.170161727               0.000000000               0.195533901              -0.195533901               0.000000000               0.220906076              -0.220906076               0.000000000               0.246278251              -0.246278251               0.000000000               0.271650426              -0.271650426               0.000000000               0.297022601              -0.297022601               0.000000000               0.322394776              -0.322394776               0.000000000               0.347766951              -0.347766951               0.000000000               0.373139126              -0.373139126               0.000000000               0.398511300              -0.398511300               0.000000000               0.423883475              -0.423883475               0.000000000               0.449255650              -0.449255650               0.000000000               0.474627825              -0.474627825               0.000000000               0.500000000              -0.500000000               0.000000000               0.084374307              -0.102810390               0.000000000               0.106444663              -0.127634741               0.000000000               0.128515018              -0.152459092               0.000000000               0.150585374              -0.177283442               0.000000000               0.172655730              -0.202107793               0.000000000               0.194726086              -0.226932143               0.000000000               0.216796442              -0.251756494               0.000000000               0.238866798              -0.276580845               0.000000000               0.260937153              -0.301405195               0.000000000               0.283007509              -0.326229546               0.000000000               0.305077865              -0.351053896               0.000000000               0.327148221              -0.375878247               0.000000000               0.349218577              -0.400702598               0.000000000               0.371288933              -0.425526948               0.000000000               0.393359288              -0.450351299               0.000000000               0.415429644              -0.475175649               0.000000000               0.437500000              -0.500000000               0.000000000               0.073890841              -0.110585458               0.000000000               0.092710163              -0.134923867               0.000000000               0.111529486              -0.159262276               0.000000000               0.130348808              -0.183600685               0.000000000               0.149168131              -0.207939094               0.000000000               0.167987453              -0.232277503               0.000000000               0.186806776              -0.256615912               0.000000000               0.205626098              -0.280954320               0.000000000               0.224445420              -0.305292729               0.000000000               0.243264743              -0.329631138               0.000000000               0.262084065              -0.353969547               0.000000000               0.280903388              -0.378307956               0.000000000               0.299722710              -0.402646365               0.000000000               0.318542033              -0.426984773               0.000000000               0.337361355              -0.451323182               0.000000000               0.356180678              -0.475661591               0.000000000               0.375000000              -0.500000000               0.000000000               0.062695766              -0.117295528               0.000000000               0.078308531              -0.141214558               0.000000000               0.093921295              -0.165133587               0.000000000               0.109534060              -0.189052617               0.000000000               0.125146824              -0.212971646               0.000000000               0.140759589              -0.236890676               0.000000000               0.156372354              -0.260809705               0.000000000               0.171985118              -0.284728735               0.000000000               0.187597883              -0.308647764               0.000000000               0.203210648              -0.332566794               0.000000000               0.218823412              -0.356485823               0.000000000               0.234436177              -0.380404853               0.000000000               0.250048941              -0.404323882               0.000000000               0.265661706              -0.428242912               0.000000000               0.281274471              -0.452161941               0.000000000               0.296887235              -0.476080971               0.000000000               0.312500000              -0.500000000               0.000000000               0.050896897              -0.122875978               0.000000000               0.063340840              -0.146446229               0.000000000               0.075784784              -0.170016481               0.000000000               0.088228728              -0.193586732               0.000000000               0.100672672              -0.217156983               0.000000000               0.113116616              -0.240727235               0.000000000               0.125560560              -0.264297486               0.000000000               0.138004504              -0.287867738               0.000000000               0.150448448              -0.311437989               0.000000000               0.162892392              -0.335008240               0.000000000               0.175336336              -0.358578492               0.000000000               0.187780280              -0.382148743               0.000000000               0.200224224              -0.405718994               0.000000000               0.212668168              -0.429289246               0.000000000               0.225112112              -0.452859497               0.000000000               0.237556056              -0.476429749               0.000000000               0.250000000              -0.500000000               0.000000000               0.038607862              -0.127273065               0.000000000               0.047913621              -0.150568498               0.000000000               0.057219379              -0.173863932               0.000000000               0.066525138              -0.197159365               0.000000000               0.075830897              -0.220454798               0.000000000               0.085136655              -0.243750232               0.000000000               0.094442414              -0.267045665               0.000000000               0.103748172              -0.290341099               0.000000000               0.113053931              -0.313636532               0.000000000               0.122359690              -0.336931966               0.000000000               0.131665448              -0.360227399               0.000000000               0.140971207              -0.383522833               0.000000000               0.150276966              -0.406818266               0.000000000               0.159582724              -0.430113700               0.000000000               0.168888483              -0.453409133               0.000000000               0.178194241              -0.476704567               0.000000000               0.187500000              -0.500000000               0.000000000               0.025947013              -0.130444442               0.000000000               0.032137825              -0.153541665               0.000000000               0.038328636              -0.176638887               0.000000000               0.044519448              -0.199736109               0.000000000               0.050710260              -0.222833332               0.000000000               0.056901071              -0.245930554               0.000000000               0.063091883              -0.269027776               0.000000000               0.069282695              -0.292124999               0.000000000               0.075473506              -0.315222221               0.000000000               0.081664318              -0.338319444               0.000000000               0.087855130              -0.361416666               0.000000000               0.094045942              -0.384513888               0.000000000               0.100236753              -0.407611111               0.000000000               0.106427565              -0.430708333               0.000000000               0.112618377              -0.453805555               0.000000000               0.118809188              -0.476902778               0.000000000               0.125000000              -0.500000000               0.000000000               0.013036280              -0.132359569               0.000000000               0.016127762              -0.155337096               0.000000000               0.019219245              -0.178314623               0.000000000               0.022310727              -0.201292150               0.000000000               0.025402210              -0.224269676               0.000000000               0.028493692              -0.247247203               0.000000000               0.031585175              -0.270224730               0.000000000               0.034676657              -0.293202257               0.000000000               0.037768140              -0.316179784               0.000000000               0.040859622              -0.339157311               0.000000000               0.043951105              -0.362134838               0.000000000               0.047042587              -0.385112365               0.000000000               0.050134070              -0.408089892               0.000000000               0.053225552              -0.431067419               0.000000000               0.056317035              -0.454044946               0.000000000               0.059408517              -0.477022473               0.000000000               0.062500000              -0.500000000               0.000000000               0.000000000              -0.133000000               0.000000000               0.000000000              -0.155937500               0.000000000               0.000000000              -0.178875000               0.000000000               0.000000000              -0.201812500               0.000000000               0.000000000              -0.224750000               0.000000000               0.000000000              -0.247687500               0.000000000               0.000000000              -0.270625000               0.000000000               0.000000000              -0.293562500               0.000000000               0.000000000              -0.316500000               0.000000000               0.000000000              -0.339437500               0.000000000               0.000000000              -0.362375000               0.000000000               0.000000000              -0.385312500               0.000000000               0.000000000              -0.408250000               0.000000000               0.000000000              -0.431187500               0.000000000               0.000000000              -0.454125000               0.000000000               0.000000000              -0.477062500               0.000000000               0.000000000              -0.500000000               0.000000000              -0.133000000               0.000000000               0.000000000              -0.155937500               0.000000000               0.000000000              -0.178875000               0.000000000               0.000000000              -0.201812500               0.000000000               0.000000000              -0.224750000               0.000000000               0.000000000              -0.247687500               0.000000000               0.000000000              -0.270625000               0.000000000               0.000000000              -0.293562500               0.000000000               0.000000000              -0.316500000               0.000000000               0.000000000              -0.339437500               0.000000000               0.000000000              -0.362375000               0.000000000               0.000000000              -0.385312500               0.000000000               0.000000000              -0.408250000               0.000000000               0.000000000              -0.431187500               0.000000000               0.000000000              -0.454125000               0.000000000               0.000000000              -0.477062500               0.000000000               0.000000000              -0.500000000               0.000000000               0.000000000              -0.132359569              -0.013036280               0.000000000              -0.155337096              -0.016127762               0.000000000              -0.178314623              -0.019219245               0.000000000              -0.201292150              -0.022310727               0.000000000              -0.224269676              -0.025402210               0.000000000              -0.247247203              -0.028493692               0.000000000              -0.270224730              -0.031585175               0.000000000              -0.293202257              -0.034676657               0.000000000              -0.316179784              -0.037768140               0.000000000              -0.339157311              -0.040859622               0.000000000              -0.362134838              -0.043951105               0.000000000              -0.385112365              -0.047042587               0.000000000              -0.408089892              -0.050134070               0.000000000              -0.431067419              -0.053225552               0.000000000              -0.454044946              -0.056317035               0.000000000              -0.477022473              -0.059408517               0.000000000              -0.500000000              -0.062500000               0.000000000              -0.130444442              -0.025947013               0.000000000              -0.153541665              -0.032137825               0.000000000              -0.176638887              -0.038328636               0.000000000              -0.199736109              -0.044519448               0.000000000              -0.222833332              -0.050710260               0.000000000              -0.245930554              -0.056901071               0.000000000              -0.269027776              -0.063091883               0.000000000              -0.292124999              -0.069282695               0.000000000              -0.315222221              -0.075473506               0.000000000              -0.338319444              -0.081664318               0.000000000              -0.361416666              -0.087855130               0.000000000              -0.384513888              -0.094045942               0.000000000              -0.407611111              -0.100236753               0.000000000              -0.430708333              -0.106427565               0.000000000              -0.453805555              -0.112618377               0.000000000              -0.476902778              -0.118809188               0.000000000              -0.500000000              -0.125000000               0.000000000              -0.127273065              -0.038607862               0.000000000              -0.150568498              -0.047913621               0.000000000              -0.173863932              -0.057219379               0.000000000              -0.197159365              -0.066525138               0.000000000              -0.220454798              -0.075830897               0.000000000              -0.243750232              -0.085136655               0.000000000              -0.267045665              -0.094442414               0.000000000              -0.290341099              -0.103748172               0.000000000              -0.313636532              -0.113053931               0.000000000              -0.336931966              -0.122359690               0.000000000              -0.360227399              -0.131665448               0.000000000              -0.383522833              -0.140971207               0.000000000              -0.406818266              -0.150276966               0.000000000              -0.430113700              -0.159582724               0.000000000              -0.453409133              -0.168888483               0.000000000              -0.476704567              -0.178194241               0.000000000              -0.500000000              -0.187500000               0.000000000              -0.122875978              -0.050896897               0.000000000              -0.146446229              -0.063340840               0.000000000              -0.170016481              -0.075784784               0.000000000              -0.193586732              -0.088228728               0.000000000              -0.217156983              -0.100672672               0.000000000              -0.240727235              -0.113116616               0.000000000              -0.264297486              -0.125560560               0.000000000              -0.287867738              -0.138004504               0.000000000              -0.311437989              -0.150448448               0.000000000              -0.335008240              -0.162892392               0.000000000              -0.358578492              -0.175336336               0.000000000              -0.382148743              -0.187780280               0.000000000              -0.405718994              -0.200224224               0.000000000              -0.429289246              -0.212668168               0.000000000              -0.452859497              -0.225112112               0.000000000              -0.476429749              -0.237556056               0.000000000              -0.500000000              -0.250000000               0.000000000              -0.117295528              -0.062695766               0.000000000              -0.141214558              -0.078308531               0.000000000              -0.165133587              -0.093921295               0.000000000              -0.189052617              -0.109534060               0.000000000              -0.212971646              -0.125146824               0.000000000              -0.236890676              -0.140759589               0.000000000              -0.260809705              -0.156372354               0.000000000              -0.284728735              -0.171985118               0.000000000              -0.308647764              -0.187597883               0.000000000              -0.332566794              -0.203210648               0.000000000              -0.356485823              -0.218823412               0.000000000              -0.380404853              -0.234436177               0.000000000              -0.404323882              -0.250048941               0.000000000              -0.428242912              -0.265661706               0.000000000              -0.452161941              -0.281274471               0.000000000              -0.476080971              -0.296887235               0.000000000              -0.500000000              -0.312500000               0.000000000              -0.110585458              -0.073890841               0.000000000              -0.134923867              -0.092710163               0.000000000              -0.159262276              -0.111529486               0.000000000              -0.183600685              -0.130348808               0.000000000              -0.207939094              -0.149168131               0.000000000              -0.232277503              -0.167987453               0.000000000              -0.256615912              -0.186806776               0.000000000              -0.280954320              -0.205626098               0.000000000              -0.305292729              -0.224445420               0.000000000              -0.329631138              -0.243264743               0.000000000              -0.353969547              -0.262084065               0.000000000              -0.378307956              -0.280903388               0.000000000              -0.402646365              -0.299722710               0.000000000              -0.426984773              -0.318542033               0.000000000              -0.451323182              -0.337361355               0.000000000              -0.475661591              -0.356180678               0.000000000              -0.500000000              -0.375000000               0.000000000              -0.102810390              -0.084374307               0.000000000              -0.127634741              -0.106444663               0.000000000              -0.152459092              -0.128515018               0.000000000              -0.177283442              -0.150585374               0.000000000              -0.202107793              -0.172655730               0.000000000              -0.226932143              -0.194726086               0.000000000              -0.251756494              -0.216796442               0.000000000              -0.276580845              -0.238866798               0.000000000              -0.301405195              -0.260937153               0.000000000              -0.326229546              -0.283007509               0.000000000              -0.351053896              -0.305077865               0.000000000              -0.375878247              -0.327148221               0.000000000              -0.400702598              -0.349218577               0.000000000              -0.425526948              -0.371288933               0.000000000              -0.450351299              -0.393359288               0.000000000              -0.475175649              -0.415429644               0.000000000              -0.500000000              -0.437500000               0.000000000              -0.094045202              -0.094045202               0.000000000              -0.119417377              -0.119417377               0.000000000              -0.144789552              -0.144789552               0.000000000              -0.170161727              -0.170161727               0.000000000              -0.195533901              -0.195533901               0.000000000              -0.220906076              -0.220906076               0.000000000              -0.246278251              -0.246278251               0.000000000              -0.271650426              -0.271650426               0.000000000              -0.297022601              -0.297022601               0.000000000              -0.322394776              -0.322394776               0.000000000              -0.347766951              -0.347766951               0.000000000              -0.373139126              -0.373139126               0.000000000              -0.398511300              -0.398511300               0.000000000              -0.423883475              -0.423883475               0.000000000              -0.449255650              -0.449255650               0.000000000              -0.474627825              -0.474627825               0.000000000              -0.500000000              -0.500000000               0.000000000              -0.084374307              -0.102810390               0.000000000              -0.106444663              -0.127634741               0.000000000              -0.128515018              -0.152459092               0.000000000              -0.150585374              -0.177283442               0.000000000              -0.172655730              -0.202107793               0.000000000              -0.194726086              -0.226932143               0.000000000              -0.216796442              -0.251756494               0.000000000              -0.238866798              -0.276580845               0.000000000              -0.260937153              -0.301405195               0.000000000              -0.283007509              -0.326229546               0.000000000              -0.305077865              -0.351053896               0.000000000              -0.327148221              -0.375878247               0.000000000              -0.349218577              -0.400702598               0.000000000              -0.371288933              -0.425526948               0.000000000              -0.393359288              -0.450351299               0.000000000              -0.415429644              -0.475175649               0.000000000              -0.437500000              -0.500000000               0.000000000              -0.073890841              -0.110585458               0.000000000              -0.092710163              -0.134923867               0.000000000              -0.111529486              -0.159262276               0.000000000              -0.130348808              -0.183600685               0.000000000              -0.149168131              -0.207939094               0.000000000              -0.167987453              -0.232277503               0.000000000              -0.186806776              -0.256615912               0.000000000              -0.205626098              -0.280954320               0.000000000              -0.224445420              -0.305292729               0.000000000              -0.243264743              -0.329631138               0.000000000              -0.262084065              -0.353969547               0.000000000              -0.280903388              -0.378307956               0.000000000              -0.299722710              -0.402646365               0.000000000              -0.318542033              -0.426984773               0.000000000              -0.337361355              -0.451323182               0.000000000              -0.356180678              -0.475661591               0.000000000              -0.375000000              -0.500000000               0.000000000              -0.062695766              -0.117295528               0.000000000              -0.078308531              -0.141214558               0.000000000              -0.093921295              -0.165133587               0.000000000              -0.109534060              -0.189052617               0.000000000              -0.125146824              -0.212971646               0.000000000              -0.140759589              -0.236890676               0.000000000              -0.156372354              -0.260809705               0.000000000              -0.171985118              -0.284728735               0.000000000              -0.187597883              -0.308647764               0.000000000              -0.203210648              -0.332566794               0.000000000              -0.218823412              -0.356485823               0.000000000              -0.234436177              -0.380404853               0.000000000              -0.250048941              -0.404323882               0.000000000              -0.265661706              -0.428242912               0.000000000              -0.281274471              -0.452161941               0.000000000              -0.296887235              -0.476080971               0.000000000              -0.312500000              -0.500000000               0.000000000              -0.050896897              -0.122875978               0.000000000              -0.063340840              -0.146446229               0.000000000              -0.075784784              -0.170016481               0.000000000              -0.088228728              -0.193586732               0.000000000              -0.100672672              -0.217156983               0.000000000              -0.113116616              -0.240727235               0.000000000              -0.125560560              -0.264297486               0.000000000              -0.138004504              -0.287867738               0.000000000              -0.150448448              -0.311437989               0.000000000              -0.162892392              -0.335008240               0.000000000              -0.175336336              -0.358578492               0.000000000              -0.187780280              -0.382148743               0.000000000              -0.200224224              -0.405718994               0.000000000              -0.212668168              -0.429289246               0.000000000              -0.225112112              -0.452859497               0.000000000              -0.237556056              -0.476429749               0.000000000              -0.250000000              -0.500000000               0.000000000              -0.038607862              -0.127273065               0.000000000              -0.047913621              -0.150568498               0.000000000              -0.057219379              -0.173863932               0.000000000              -0.066525138              -0.197159365               0.000000000              -0.075830897              -0.220454798               0.000000000              -0.085136655              -0.243750232               0.000000000              -0.094442414              -0.267045665               0.000000000              -0.103748172              -0.290341099               0.000000000              -0.113053931              -0.313636532               0.000000000              -0.122359690              -0.336931966               0.000000000              -0.131665448              -0.360227399               0.000000000              -0.140971207              -0.383522833               0.000000000              -0.150276966              -0.406818266               0.000000000              -0.159582724              -0.430113700               0.000000000              -0.168888483              -0.453409133               0.000000000              -0.178194241              -0.476704567               0.000000000              -0.187500000              -0.500000000               0.000000000              -0.025947013              -0.130444442               0.000000000              -0.032137825              -0.153541665               0.000000000              -0.038328636              -0.176638887               0.000000000              -0.044519448              -0.199736109               0.000000000              -0.050710260              -0.222833332               0.000000000              -0.056901071              -0.245930554               0.000000000              -0.063091883              -0.269027776               0.000000000              -0.069282695              -0.292124999               0.000000000              -0.075473506              -0.315222221               0.000000000              -0.081664318              -0.338319444               0.000000000              -0.087855130              -0.361416666               0.000000000              -0.094045942              -0.384513888               0.000000000              -0.100236753              -0.407611111               0.000000000              -0.106427565              -0.430708333               0.000000000              -0.112618377              -0.453805555               0.000000000              -0.118809188              -0.476902778               0.000000000              -0.125000000              -0.500000000               0.000000000              -0.013036280              -0.132359569               0.000000000              -0.016127762              -0.155337096               0.000000000              -0.019219245              -0.178314623               0.000000000              -0.022310727              -0.201292150               0.000000000              -0.025402210              -0.224269676               0.000000000              -0.028493692              -0.247247203               0.000000000              -0.031585175              -0.270224730               0.000000000              -0.034676657              -0.293202257               0.000000000              -0.037768140              -0.316179784               0.000000000              -0.040859622              -0.339157311               0.000000000              -0.043951105              -0.362134838               0.000000000              -0.047042587              -0.385112365               0.000000000              -0.050134070              -0.408089892               0.000000000              -0.053225552              -0.431067419               0.000000000              -0.056317035              -0.454044946               0.000000000              -0.059408517              -0.477022473               0.000000000              -0.062500000              -0.500000000               0.000000000               0.000000000              -0.133000000               0.000000000               0.000000000              -0.155937500               0.000000000               0.000000000              -0.178875000               0.000000000               0.000000000              -0.201812500               0.000000000               0.000000000              -0.224750000               0.000000000               0.000000000              -0.247687500               0.000000000               0.000000000              -0.270625000               0.000000000               0.000000000              -0.293562500               0.000000000               0.000000000              -0.316500000               0.000000000               0.000000000              -0.339437500               0.000000000               0.000000000              -0.362375000               0.000000000               0.000000000              -0.385312500               0.000000000               0.000000000              -0.408250000               0.000000000               0.000000000              -0.431187500               0.000000000               0.000000000              -0.454125000               0.000000000               0.000000000              -0.477062500               0.000000000               0.000000000              -0.500000000               0.000000000              -0.133000000               0.000000000               0.000000000              -0.155937500               0.000000000               0.000000000              -0.178875000               0.000000000               0.000000000              -0.201812500               0.000000000               0.000000000              -0.224750000               0.000000000               0.000000000              -0.247687500               0.000000000               0.000000000              -0.270625000               0.000000000               0.000000000              -0.293562500               0.000000000               0.000000000              -0.316500000               0.000000000               0.000000000              -0.339437500               0.000000000               0.000000000              -0.362375000               0.000000000               0.000000000              -0.385312500               0.000000000               0.000000000              -0.408250000               0.000000000               0.000000000              -0.431187500               0.000000000               0.000000000              -0.454125000               0.000000000               0.000000000              -0.477062500               0.000000000               0.000000000              -0.500000000               0.000000000               0.000000000              -0.132359569               0.013036280               0.000000000              -0.155337096               0.016127762               0.000000000              -0.178314623               0.019219245               0.000000000              -0.201292150               0.022310727               0.000000000              -0.224269676               0.025402210               0.000000000              -0.247247203               0.028493692               0.000000000              -0.270224730               0.031585175               0.000000000              -0.293202257               0.034676657               0.000000000              -0.316179784               0.037768140               0.000000000              -0.339157311               0.040859622               0.000000000              -0.362134838               0.043951105               0.000000000              -0.385112365               0.047042587               0.000000000              -0.408089892               0.050134070               0.000000000              -0.431067419               0.053225552               0.000000000              -0.454044946               0.056317035               0.000000000              -0.477022473               0.059408517               0.000000000              -0.500000000               0.062500000               0.000000000              -0.130444442               0.025947013               0.000000000              -0.153541665               0.032137825               0.000000000              -0.176638887               0.038328636               0.000000000              -0.199736109               0.044519448               0.000000000              -0.222833332               0.050710260               0.000000000              -0.245930554               0.056901071               0.000000000              -0.269027776               0.063091883               0.000000000              -0.292124999               0.069282695               0.000000000              -0.315222221               0.075473506               0.000000000              -0.338319444               0.081664318               0.000000000              -0.361416666               0.087855130               0.000000000              -0.384513888               0.094045942               0.000000000              -0.407611111               0.100236753               0.000000000              -0.430708333               0.106427565               0.000000000              -0.453805555               0.112618377               0.000000000              -0.476902778               0.118809188               0.000000000              -0.500000000               0.125000000               0.000000000              -0.127273065               0.038607862               0.000000000              -0.150568498               0.047913621               0.000000000              -0.173863932               0.057219379               0.000000000              -0.197159365               0.066525138               0.000000000              -0.220454798               0.075830897               0.000000000              -0.243750232               0.085136655               0.000000000              -0.267045665               0.094442414               0.000000000              -0.290341099               0.103748172               0.000000000              -0.313636532               0.113053931               0.000000000              -0.336931966               0.122359690               0.000000000              -0.360227399               0.131665448               0.000000000              -0.383522833               0.140971207               0.000000000              -0.406818266               0.150276966               0.000000000              -0.430113700               0.159582724               0.000000000              -0.453409133               0.168888483               0.000000000              -0.476704567               0.178194241               0.000000000              -0.500000000               0.187500000               0.000000000              -0.122875978               0.050896897               0.000000000              -0.146446229               0.063340840               0.000000000              -0.170016481               0.075784784               0.000000000              -0.193586732               0.088228728               0.000000000              -0.217156983               0.100672672               0.000000000              -0.240727235               0.113116616               0.000000000              -0.264297486               0.125560560               0.000000000              -0.287867738               0.138004504               0.000000000              -0.311437989               0.150448448               0.000000000              -0.335008240               0.162892392               0.000000000              -0.358578492               0.175336336               0.000000000              -0.382148743               0.187780280               0.000000000              -0.405718994               0.200224224               0.000000000              -0.429289246               0.212668168               0.000000000              -0.452859497               0.225112112               0.000000000              -0.476429749               0.237556056               0.000000000              -0.500000000               0.250000000               0.000000000              -0.117295528               0.062695766               0.000000000              -0.141214558               0.078308531               0.000000000              -0.165133587               0.093921295               0.000000000              -0.189052617               0.109534060               0.000000000              -0.212971646               0.125146824               0.000000000              -0.236890676               0.140759589               0.000000000              -0.260809705               0.156372354               0.000000000              -0.284728735               0.171985118               0.000000000              -0.308647764               0.187597883               0.000000000              -0.332566794               0.203210648               0.000000000              -0.356485823               0.218823412               0.000000000              -0.380404853               0.234436177               0.000000000              -0.404323882               0.250048941               0.000000000              -0.428242912               0.265661706               0.000000000              -0.452161941               0.281274471               0.000000000              -0.476080971               0.296887235               0.000000000              -0.500000000               0.312500000               0.000000000              -0.110585458               0.073890841               0.000000000              -0.134923867               0.092710163               0.000000000              -0.159262276               0.111529486               0.000000000              -0.183600685               0.130348808               0.000000000              -0.207939094               0.149168131               0.000000000              -0.232277503               0.167987453               0.000000000              -0.256615912               0.186806776               0.000000000              -0.280954320               0.205626098               0.000000000              -0.305292729               0.224445420               0.000000000              -0.329631138               0.243264743               0.000000000              -0.353969547               0.262084065               0.000000000              -0.378307956               0.280903388               0.000000000              -0.402646365               0.299722710               0.000000000              -0.426984773               0.318542033               0.000000000              -0.451323182               0.337361355               0.000000000              -0.475661591               0.356180678               0.000000000              -0.500000000               0.375000000               0.000000000              -0.102810390               0.084374307               0.000000000              -0.127634741               0.106444663               0.000000000              -0.152459092               0.128515018               0.000000000              -0.177283442               0.150585374               0.000000000              -0.202107793               0.172655730               0.000000000              -0.226932143               0.194726086               0.000000000              -0.251756494               0.216796442               0.000000000              -0.276580845               0.238866798               0.000000000              -0.301405195               0.260937153               0.000000000              -0.326229546               0.283007509               0.000000000              -0.351053896               0.305077865               0.000000000              -0.375878247               0.327148221               0.000000000              -0.400702598               0.349218577               0.000000000              -0.425526948               0.371288933               0.000000000              -0.450351299               0.393359288               0.000000000              -0.475175649               0.415429644               0.000000000              -0.500000000               0.437500000               0.000000000              -0.094045202               0.094045202               0.000000000              -0.119417377               0.119417377               0.000000000              -0.144789552               0.144789552               0.000000000              -0.170161727               0.170161727               0.000000000              -0.195533901               0.195533901               0.000000000              -0.220906076               0.220906076               0.000000000              -0.246278251               0.246278251               0.000000000              -0.271650426               0.271650426               0.000000000              -0.297022601               0.297022601               0.000000000              -0.322394776               0.322394776               0.000000000              -0.347766951               0.347766951               0.000000000              -0.373139126               0.373139126               0.000000000              -0.398511300               0.398511300               0.000000000              -0.423883475               0.423883475               0.000000000              -0.449255650               0.449255650               0.000000000              -0.474627825               0.474627825               0.000000000              -0.500000000               0.500000000               0.000000000              -0.084374307               0.102810390               0.000000000              -0.106444663               0.127634741               0.000000000              -0.128515018               0.152459092               0.000000000              -0.150585374               0.177283442               0.000000000              -0.172655730               0.202107793               0.000000000              -0.194726086               0.226932143               0.000000000              -0.216796442               0.251756494               0.000000000              -0.238866798               0.276580845               0.000000000              -0.260937153               0.301405195               0.000000000              -0.283007509               0.326229546               0.000000000              -0.305077865               0.351053896               0.000000000              -0.327148221               0.375878247               0.000000000              -0.349218577               0.400702598               0.000000000              -0.371288933               0.425526948               0.000000000              -0.393359288               0.450351299               0.000000000              -0.415429644               0.475175649               0.000000000              -0.437500000               0.500000000               0.000000000              -0.073890841               0.110585458               0.000000000              -0.092710163               0.134923867               0.000000000              -0.111529486               0.159262276               0.000000000              -0.130348808               0.183600685               0.000000000              -0.149168131               0.207939094               0.000000000              -0.167987453               0.232277503               0.000000000              -0.186806776               0.256615912               0.000000000              -0.205626098               0.280954320               0.000000000              -0.224445420               0.305292729               0.000000000              -0.243264743               0.329631138               0.000000000              -0.262084065               0.353969547               0.000000000              -0.280903388               0.378307956               0.000000000              -0.299722710               0.402646365               0.000000000              -0.318542033               0.426984773               0.000000000              -0.337361355               0.451323182               0.000000000              -0.356180678               0.475661591               0.000000000              -0.375000000               0.500000000               0.000000000              -0.062695766               0.117295528               0.000000000              -0.078308531               0.141214558               0.000000000              -0.093921295               0.165133587               0.000000000              -0.109534060               0.189052617               0.000000000              -0.125146824               0.212971646               0.000000000              -0.140759589               0.236890676               0.000000000              -0.156372354               0.260809705               0.000000000              -0.171985118               0.284728735               0.000000000              -0.187597883               0.308647764               0.000000000              -0.203210648               0.332566794               0.000000000              -0.218823412               0.356485823               0.000000000              -0.234436177               0.380404853               0.000000000              -0.250048941               0.404323882               0.000000000              -0.265661706               0.428242912               0.000000000              -0.281274471               0.452161941               0.000000000              -0.296887235               0.476080971               0.000000000              -0.312500000               0.500000000               0.000000000              -0.050896897               0.122875978               0.000000000              -0.063340840               0.146446229               0.000000000              -0.075784784               0.170016481               0.000000000              -0.088228728               0.193586732               0.000000000              -0.100672672               0.217156983               0.000000000              -0.113116616               0.240727235               0.000000000              -0.125560560               0.264297486               0.000000000              -0.138004504               0.287867738               0.000000000              -0.150448448               0.311437989               0.000000000              -0.162892392               0.335008240               0.000000000              -0.175336336               0.358578492               0.000000000              -0.187780280               0.382148743               0.000000000              -0.200224224               0.405718994               0.000000000              -0.212668168               0.429289246               0.000000000              -0.225112112               0.452859497               0.000000000              -0.237556056               0.476429749               0.000000000              -0.250000000               0.500000000               0.000000000              -0.038607862               0.127273065               0.000000000              -0.047913621               0.150568498               0.000000000              -0.057219379               0.173863932               0.000000000              -0.066525138               0.197159365               0.000000000              -0.075830897               0.220454798               0.000000000              -0.085136655               0.243750232               0.000000000              -0.094442414               0.267045665               0.000000000              -0.103748172               0.290341099               0.000000000              -0.113053931               0.313636532               0.000000000              -0.122359690               0.336931966               0.000000000              -0.131665448               0.360227399               0.000000000              -0.140971207               0.383522833               0.000000000              -0.150276966               0.406818266               0.000000000              -0.159582724               0.430113700               0.000000000              -0.168888483               0.453409133               0.000000000              -0.178194241               0.476704567               0.000000000              -0.187500000               0.500000000               0.000000000              -0.025947013               0.130444442               0.000000000              -0.032137825               0.153541665               0.000000000              -0.038328636               0.176638887               0.000000000              -0.044519448               0.199736109               0.000000000              -0.050710260               0.222833332               0.000000000              -0.056901071               0.245930554               0.000000000              -0.063091883               0.269027776               0.000000000              -0.069282695               0.292124999               0.000000000              -0.075473506               0.315222221               0.000000000              -0.081664318               0.338319444               0.000000000              -0.087855130               0.361416666               0.000000000              -0.094045942               0.384513888               0.000000000              -0.100236753               0.407611111               0.000000000              -0.106427565               0.430708333               0.000000000              -0.112618377               0.453805555               0.000000000              -0.118809188               0.476902778               0.000000000              -0.125000000               0.500000000               0.000000000              -0.013036280               0.132359569               0.000000000              -0.016127762               0.155337096               0.000000000              -0.019219245               0.178314623               0.000000000              -0.022310727               0.201292150               0.000000000              -0.025402210               0.224269676               0.000000000              -0.028493692               0.247247203               0.000000000              -0.031585175               0.270224730               0.000000000              -0.034676657               0.293202257               0.000000000              -0.037768140               0.316179784               0.000000000              -0.040859622               0.339157311               0.000000000              -0.043951105               0.362134838               0.000000000              -0.047042587               0.385112365               0.000000000              -0.050134070               0.408089892               0.000000000              -0.053225552               0.431067419               0.000000000              -0.056317035               0.454044946               0.000000000              -0.059408517               0.477022473               0.000000000              -0.062500000               0.500000000               0.000000000               0.000000000               0.133000000               0.000000000               0.000000000               0.155937500               0.000000000               0.000000000               0.178875000               0.000000000               0.000000000               0.201812500               0.000000000               0.000000000               0.224750000               0.000000000               0.000000000               0.247687500               0.000000000               0.000000000               0.270625000               0.000000000               0.000000000               0.293562500               0.000000000               0.000000000               0.316500000               0.000000000               0.000000000               0.339437500               0.000000000               0.000000000               0.362375000               0.000000000               0.000000000               0.385312500               0.000000000               0.000000000               0.408250000               0.000000000               0.000000000               0.431187500               0.000000000               0.000000000               0.454125000               0.000000000               0.000000000               0.477062500               0.000000000               0.000000000               0.500000000               0.000000000 </DataArray>
</Points>
<Cells>
<DataArray type="Int32"                                    Name="connectivity"                                                      NumberOfComponents=" 1" format="ascii">
         0          1         18         17          1          2         19         18          2          3         20         19          3          4         21         20          4          5         22         21          5          6         23         22          6          7         24         23          7          8         25         24          8          9         26         25          9         10         27         26         10         11         28         27         11         12         29         28         12         13         30         29         13         14         31         30         14         15         32         31         15         16         33         32         17         18         35         34         18         19         36         35         19         20         37         36         20         21         38         37         21         22         39         38         22         23         40         39         23         24         41         40         24         25         42         41         25         26         43         42         26         27         44         43         27         28         45         44         28         29         46         45         29         30         47         46         30         31         48         47         31         32         49         48         32         33         50         49         34         35         52         51         35         36         53         52         36         37         54         53         37         38         55         54         38         39         56         55         39         40         57         56         40         41         58         57         41         42         59         58         42         43         60         59         43         44         61         60         44         45         62         61         45         46         63         62         46         47         64         63         47         48         65         64         48         49         66         65         49         50         67         66         51         52         69         68         52         53         70         69         53         54         71         70         54         55         72         71         55         56         73         72         56         57         74         73         57         58         75         74         58         59         76         75         59         60         77         76         60         61         78         77         61         62         79         78         62         63         80         79         63         64         81         80         64         65         82         81         65         66         83         82         66         67         84         83         68         69         86         85         69         70         87         86         70         71         88         87         71         72         89         88         72         73         90         89         73         74         91         90         74         75         92         91         75         76         93         92         76         77         94         93         77         78         95         94         78         79         96         95         79         80         97         96         80         81         98         97         81         82         99         98         82         83        100         99         83         84        101        100         85         86        103        102         86         87        104        103         87         88        105        104         88         89        106        105         89         90        107        106         90         91        108        107         91         92        109        108         92         93        110        109         93         94        111        110         94         95        112        111         95         96        113        112         96         97        114        113         97         98        115        114         98         99        116        115         99        100        117        116        100        101        118        117        102        103        120        119        103        104        121        120        104        105        122        121        105        106        123        122        106        107        124        123        107        108        125        124        108        109        126        125        109        110        127        126        110        111        128        127        111        112        129        128        112        113        130        129        113        114        131        130        114        115        132        131        115        116        133        132        116        117        134        133        117        118        135        134        119        120        137        136        120        121        138        137        121        122        139        138        122        123        140        139        123        124        141        140        124        125        142        141        125        126        143        142        126        127        144        143        127        128        145        144        128        129        146        145        129        130        147        146        130        131        148        147        131        132        149        148        132        133        150        149        133        134        151        150        134        135        152        151        136        137        154        153        137        138        155        154        138        139        156        155        139        140        157        156        140        141        158        157        141        142        159        158        142        143        160        159        143        144        161        160        144        145        162        161        145        146        163        162        146        147        164        163        147        148        165        164        148        149        166        165        149        150        167        166        150        151        168        167        151        152        169        168        153        154        171        170        154        155        172        171        155        156        173        172        156        157        174        173        157        158        175        174        158        159        176        175        159        160        177        176        160        161        178        177        161        162        179        178        162        163        180        179        163        164        181        180        164        165        182        181        165        166        183        182        166        167        184        183        167        168        185        184        168        169        186        185        170        171        188        187        171        172        189        188        172        173        190        189        173        174        191        190        174        175        192        191        175        176        193        192        176        177        194        193        177        178        195        194        178        179        196        195        179        180        197        196        180        181        198        197        181        182        199        198        182        183        200        199        183        184        201        200        184        185        202        201        185        186        203        202        187        188        205        204        188        189        206        205        189        190        207        206        190        191        208        207        191        192        209        208        192        193        210        209        193        194        211        210        194        195        212        211        195        196        213        212        196        197        214        213        197        198        215        214        198        199        216        215        199        200        217        216        200        201        218        217        201        202        219        218        202        203        220        219        204        205        222        221        205        206        223        222        206        207        224        223        207        208        225        224        208        209        226        225        209        210        227        226        210        211        228        227        211        212        229        228        212        213        230        229        213        214        231        230        214        215        232        231        215        216        233        232        216        217        234        233        217        218        235        234        218        219        236        235        219        220        237        236        221        222        239        238        222        223        240        239        223        224        241        240        224        225        242        241        225        226        243        242        226        227        244        243        227        228        245        244        228        229        246        245        229        230        247        246        230        231        248        247        231        232        249        248        232        233        250        249        233        234        251        250        234        235        252        251        235        236        253        252        236        237        254        253        238        239        256        255        239        240        257        256        240        241        258        257        241        242        259        258        242        243        260        259        243        244        261        260        244        245        262        261        245        246        263        262        246        247        264        263        247        248        265        264        248        249        266        265        249        250        267        266        250        251        268        267        251        252        269        268        252        253        270        269        253        254        271        270        255        256        273        272        256        257        274        273        257        258        275        274        258        259        276        275        259        260        277        276        260        261        278        277        261        262        279        278        262        263        280        279        263        264        281        280        264        265        282        281        265        266        283        282        266        267        284        283        267        268        285        284        268        269        286        285        269        270        287        286        270        271        288        287        306        307          1          0        307        308          2          1        308        309          3          2        309        310          4          3        310        311          5          4        311        312          6          5        312        313          7          6        313        314          8          7        314        315          9          8        315        316         10          9        316        317         11         10        317        318         12         11        318        319         13         12        319        320         14         13        320        321         15         14        321        322         16         15        323        324        307        306        324        325        308        307        325        326        309        308        326        327        310        309        327        328        311        310        328        329        312        311        329        330        313        312        330        331        314        313        331        332        315        314        332        333        316        315        333        334        317        316        334        335        318        317        335        336        319        318        336        337        320        319        337        338        321        320        338        339        322        321        340        341        324        323        341        342        325        324        342        343        326        325        343        344        327        326        344        345        328        327        345        346        329        328        346        347        330        329        347        348        331        330        348        349        332        331        349        350        333        332        350        351        334        333        351        352        335        334        352        353        336        335        353        354        337        336        354        355        338        337        355        356        339        338        357        358        341        340        358        359        342        341        359        360        343        342        360        361        344        343        361        362        345        344        362        363        346        345        363        364        347        346        364        365        348        347        365        366        349        348        366        367        350        349        367        368        351        350        368        369        352        351        369        370        353        352        370        371        354        353        371        372        355        354        372        373        356        355        374        375        358        357        375        376        359        358        376        377        360        359        377        378        361        360        378        379        362        361        379        380        363        362        380        381        364        363        381        382        365        364        382        383        366        365        383        384        367        366        384        385        368        367        385        386        369        368        386        387        370        369        387        388        371        370        388        389        372        371        389        390        373        372        391        392        375        374        392        393        376        375        393        394        377        376        394        395        378        377        395        396        379        378        396        397        380        379        397        398        381        380        398        399        382        381        399        400        383        382        400        401        384        383        401        402        385        384        402        403        386        385        403        404        387        386        404        405        388        387        405        406        389        388        406        407        390        389        408        409        392        391        409        410        393        392        410        411        394        393        411        412        395        394        412        413        396        395        413        414        397        396        414        415        398        397        415        416        399        398        416        417        400        399        417        418        401        400        418        419        402        401        419        420        403        402        420        421        404        403        421        422        405        404        422        423        406        405        423        424        407        406        425        426        409        408        426        427        410        409        427        428        411        410        428        429        412        411        429        430        413        412        430        431        414        413        431        432        415        414        432        433        416        415        433        434        417        416        434        435        418        417        435        436        419        418        436        437        420        419        437        438        421        420        438        439        422        421        439        440        423        422        440        441        424        423        442        443        426        425        443        444        427        426        444        445        428        427        445        446        429        428        446        447        430        429        447        448        431        430        448        449        432        431        449        450        433        432        450        451        434        433        451        452        435        434        452        453        436        435        453        454        437        436        454        455        438        437        455        456        439        438        456        457        440        439        457        458        441        440        459        460        443        442        460        461        444        443        461        462        445        444        462        463        446        445        463        464        447        446        464        465        448        447        465        466        449        448        466        467        450        449        467        468        451        450        468        469        452        451        469        470        453        452        470        471        454        453        471        472        455        454        472        473        456        455        473        474        457        456        474        475        458        457        476        477        460        459        477        478        461        460        478        479        462        461        479        480        463        462        480        481        464        463        481        482        465        464        482        483        466        465        483        484        467        466        484        485        468        467        485        486        469        468        486        487        470        469        487        488        471        470        488        489        472        471        489        490        473        472        490        491        474        473        491        492        475        474        493        494        477        476        494        495        478        477        495        496        479        478        496        497        480        479        497        498        481        480        498        499        482        481        499        500        483        482        500        501        484        483        501        502        485        484        502        503        486        485        503        504        487        486        504        505        488        487        505        506        489        488        506        507        490        489        507        508        491        490        508        509        492        491        510        511        494        493        511        512        495        494        512        513        496        495        513        514        497        496        514        515        498        497        515        516        499        498        516        517        500        499        517        518        501        500        518        519        502        501        519        520        503        502        520        521        504        503        521        522        505        504        522        523        506        505        523        524        507        506        524        525        508        507        525        526        509        508        527        528        511        510        528        529        512        511        529        530        513        512        530        531        514        513        531        532        515        514        532        533        516        515        533        534        517        516        534        535        518        517        535        536        519        518        536        537        520        519        537        538        521        520        538        539        522        521        539        540        523        522        540        541        524        523        541        542        525        524        542        543        526        525        544        545        528        527        545        546        529        528        546        547        530        529        547        548        531        530        548        549        532        531        549        550        533        532        550        551        534        533        551        552        535        534        552        553        536        535        553        554        537        536        554        555        538        537        555        556        539        538        556        557        540        539        557        558        541        540        558        559        542        541        559        560        543        542        561        562        545        544        562        563        546        545        563        564        547        546        564        565        548        547        565        566        549        548        566        567        550        549        567        568        551        550        568        569        552        551        569        570        553        552        570        571        554        553        571        572        555        554        572        573        556        555        573        574        557        556        574        575        558        557        575        576        559        558        576        577        560        559        578        579        596        595        579        580        597        596        580        581        598        597        581        582        599        598        582        583        600        599        583        584        601        600        584        585        602        601        585        586        603        602        586        587        604        603        587        588        605        604        588        589        606        605        589        590        607        606        590        591        608        607        591        592        609        608        592        593        610        609        593        594        611        610        595        596        613        612        596        597        614        613        597        598        615        614        598        599        616        615        599        600        617        616        600        601        618        617        601        602        619        618        602        603        620        619        603        604        621        620        604        605        622        621        605        606        623        622        606        607        624        623        607        608        625        624        608        609        626        625        609        610        627        626        610        611        628        627        612        613        630        629        613        614        631        630        614        615        632        631        615        616        633        632        616        617        634        633        617        618        635        634        618        619        636        635        619        620        637        636        620        621        638        637        621        622        639        638        622        623        640        639        623        624        641        640        624        625        642        641        625        626        643        642        626        627        644        643        627        628        645        644        629        630        647        646        630        631        648        647        631        632        649        648        632        633        650        649        633        634        651        650        634        635        652        651        635        636        653        652        636        637        654        653        637        638        655        654        638        639        656        655        639        640        657        656        640        641        658        657        641        642        659        658        642        643        660        659        643        644        661        660        644        645        662        661        646        647        664        663        647        648        665        664        648        649        666        665        649        650        667        666        650        651        668        667        651        652        669        668        652        653        670        669        653        654        671        670        654        655        672        671        655        656        673        672        656        657        674        673        657        658        675        674        658        659        676        675        659        660        677        676        660        661        678        677        661        662        679        678        663        664        681        680        664        665        682        681        665        666        683        682        666        667        684        683        667        668        685        684        668        669        686        685        669        670        687        686        670        671        688        687        671        672        689        688        672        673        690        689        673        674        691        690        674        675        692        691        675        676        693        692        676        677        694        693        677        678        695        694        678        679        696        695        680        681        698        697        681        682        699        698        682        683        700        699        683        684        701        700        684        685        702        701        685        686        703        702        686        687        704        703        687        688        705        704        688        689        706        705        689        690        707        706        690        691        708        707        691        692        709        708        692        693        710        709        693        694        711        710        694        695        712        711        695        696        713        712        697        698        715        714        698        699        716        715        699        700        717        716        700        701        718        717        701        702        719        718        702        703        720        719        703        704        721        720        704        705        722        721        705        706        723        722        706        707        724        723        707        708        725        724        708        709        726        725        709        710        727        726        710        711        728        727        711        712        729        728        712        713        730        729        714        715        732        731        715        716        733        732        716        717        734        733        717        718        735        734        718        719        736        735        719        720        737        736        720        721        738        737        721        722        739        738        722        723        740        739        723        724        741        740        724        725        742        741        725        726        743        742        726        727        744        743        727        728        745        744        728        729        746        745        729        730        747        746        731        732        749        748        732        733        750        749        733        734        751        750        734        735        752        751        735        736        753        752        736        737        754        753        737        738        755        754        738        739        756        755        739        740        757        756        740        741        758        757        741        742        759        758        742        743        760        759        743        744        761        760        744        745        762        761        745        746        763        762        746        747        764        763        748        749        766        765        749        750        767        766        750        751        768        767        751        752        769        768        752        753        770        769        753        754        771        770        754        755        772        771        755        756        773        772        756        757        774        773        757        758        775        774        758        759        776        775        759        760        777        776        760        761        778        777        761        762        779        778        762        763        780        779        763        764        781        780        765        766        783        782        766        767        784        783        767        768        785        784        768        769        786        785        769        770        787        786        770        771        788        787        771        772        789        788        772        773        790        789        773        774        791        790        774        775        792        791        775        776        793        792        776        777        794        793        777        778        795        794        778        779        796        795        779        780        797        796        780        781        798        797        782        783        800        799        783        784        801        800        784        785        802        801        785        786        803        802        786        787        804        803        787        788        805        804        788        789        806        805        789        790        807        806        790        791        808        807        791        792        809        808        792        793        810        809        793        794        811        810        794        795        812        811        795        796        813        812        796        797        814        813        797        798        815        814        799        800        817        816        800        801        818        817        801        802        819        818        802        803        820        819        803        804        821        820        804        805        822        821        805        806        823        822        806        807        824        823        807        808        825        824        808        809        826        825        809        810        827        826        810        811        828        827        811        812        829        828        812        813        830        829        813        814        831        830        814        815        832        831        816        817        834        833        817        818        835        834        818        819        836        835        819        820        837        836        820        821        838        837        821        822        839        838        822        823        840        839        823        824        841        840        824        825        842        841        825        826        843        842        826        827        844        843        827        828        845        844        828        829        846        845        829        830        847        846        830        831        848        847        831        832        849        848        833        834        562        561        834        835        563        562        835        836        564        563        836        837        565        564        837        838        566        565        838        839        567        566        839        840        568        567        840        841        569        568        841        842        570        569        842        843        571        570        843        844        572        571        844        845        573        572        845        846        574        573        846        847        575        574        847        848        576        575        848        849        577        576        884        885        579        578        885        886        580        579        886        887        581        580        887        888        582        581        888        889        583        582        889        890        584        583        890        891        585        584        891        892        586        585        892        893        587        586        893        894        588        587        894        895        589        588        895        896        590        589        896        897        591        590        897        898        592        591        898        899        593        592        899        900        594        593        901        902        885        884        902        903        886        885        903        904        887        886        904        905        888        887        905        906        889        888        906        907        890        889        907        908        891        890        908        909        892        891        909        910        893        892        910        911        894        893        911        912        895        894        912        913        896        895        913        914        897        896        914        915        898        897        915        916        899        898        916        917        900        899        918        919        902        901        919        920        903        902        920        921        904        903        921        922        905        904        922        923        906        905        923        924        907        906        924        925        908        907        925        926        909        908        926        927        910        909        927        928        911        910        928        929        912        911        929        930        913        912        930        931        914        913        931        932        915        914        932        933        916        915        933        934        917        916        935        936        919        918        936        937        920        919        937        938        921        920        938        939        922        921        939        940        923        922        940        941        924        923        941        942        925        924        942        943        926        925        943        944        927        926        944        945        928        927        945        946        929        928        946        947        930        929        947        948        931        930        948        949        932        931        949        950        933        932        950        951        934        933        952        953        936        935        953        954        937        936        954        955        938        937        955        956        939        938        956        957        940        939        957        958        941        940        958        959        942        941        959        960        943        942        960        961        944        943        961        962        945        944        962        963        946        945        963        964        947        946        964        965        948        947        965        966        949        948        966        967        950        949        967        968        951        950        969        970        953        952        970        971        954        953        971        972        955        954        972        973        956        955        973        974        957        956        974        975        958        957        975        976        959        958        976        977        960        959        977        978        961        960        978        979        962        961        979        980        963        962        980        981        964        963        981        982        965        964        982        983        966        965        983        984        967        966        984        985        968        967        986        987        970        969        987        988        971        970        988        989        972        971        989        990        973        972        990        991        974        973        991        992        975        974        992        993        976        975        993        994        977        976        994        995        978        977        995        996        979        978        996        997        980        979        997        998        981        980        998        999        982        981        999       1000        983        982       1000       1001        984        983       1001       1002        985        984       1003       1004        987        986       1004       1005        988        987       1005       1006        989        988       1006       1007        990        989       1007       1008        991        990       1008       1009        992        991       1009       1010        993        992       1010       1011        994        993       1011       1012        995        994       1012       1013        996        995       1013       1014        997        996       1014       1015        998        997       1015       1016        999        998       1016       1017       1000        999       1017       1018       1001       1000       1018       1019       1002       1001       1020       1021       1004       1003       1021       1022       1005       1004       1022       1023       1006       1005       1023       1024       1007       1006       1024       1025       1008       1007       1025       1026       1009       1008       1026       1027       1010       1009       1027       1028       1011       1010       1028       1029       1012       1011       1029       1030       1013       1012       1030       1031       1014       1013       1031       1032       1015       1014       1032       1033       1016       1015       1033       1034       1017       1016       1034       1035       1018       1017       1035       1036       1019       1018       1037       1038       1021       1020       1038       1039       1022       1021       1039       1040       1023       1022       1040       1041       1024       1023       1041       1042       1025       1024       1042       1043       1026       1025       1043       1044       1027       1026       1044       1045       1028       1027       1045       1046       1029       1028       1046       1047       1030       1029       1047       1048       1031       1030       1048       1049       1032       1031       1049       1050       1033       1032       1050       1051       1034       1033       1051       1052       1035       1034       1052       1053       1036       1035       1054       1055       1038       1037       1055       1056       1039       1038       1056       1057       1040       1039       1057       1058       1041       1040       1058       1059       1042       1041       1059       1060       1043       1042       1060       1061       1044       1043       1061       1062       1045       1044       1062       1063       1046       1045       1063       1064       1047       1046       1064       1065       1048       1047       1065       1066       1049       1048       1066       1067       1050       1049       1067       1068       1051       1050       1068       1069       1052       1051       1069       1070       1053       1052       1071       1072       1055       1054       1072       1073       1056       1055       1073       1074       1057       1056       1074       1075       1058       1057       1075       1076       1059       1058       1076       1077       1060       1059       1077       1078       1061       1060       1078       1079       1062       1061       1079       1080       1063       1062       1080       1081       1064       1063       1081       1082       1065       1064       1082       1083       1066       1065       1083       1084       1067       1066       1084       1085       1068       1067       1085       1086       1069       1068       1086       1087       1070       1069       1088       1089       1072       1071       1089       1090       1073       1072       1090       1091       1074       1073       1091       1092       1075       1074       1092       1093       1076       1075       1093       1094       1077       1076       1094       1095       1078       1077       1095       1096       1079       1078       1096       1097       1080       1079       1097       1098       1081       1080       1098       1099       1082       1081       1099       1100       1083       1082       1100       1101       1084       1083       1101       1102       1085       1084       1102       1103       1086       1085       1103       1104       1087       1086       1105       1106       1089       1088       1106       1107       1090       1089       1107       1108       1091       1090       1108       1109       1092       1091       1109       1110       1093       1092       1110       1111       1094       1093       1111       1112       1095       1094       1112       1113       1096       1095       1113       1114       1097       1096       1114       1115       1098       1097       1115       1116       1099       1098       1116       1117       1100       1099       1117       1118       1101       1100       1118       1119       1102       1101       1119       1120       1103       1102       1120       1121       1104       1103       1122       1123       1106       1105       1123       1124       1107       1106       1124       1125       1108       1107       1125       1126       1109       1108       1126       1127       1110       1109       1127       1128       1111       1110       1128       1129       1112       1111       1129       1130       1113       1112       1130       1131       1114       1113       1131       1132       1115       1114       1132       1133       1116       1115       1133       1134       1117       1116       1134       1135       1118       1117       1135       1136       1119       1118       1136       1137       1120       1119       1137       1138       1121       1120        272        273       1123       1122        273        274       1124       1123        274        275       1125       1124        275        276       1126       1125        276        277       1127       1126        277        278       1128       1127        278        279       1129       1128        279        280       1130       1129        280        281       1131       1130        281        282       1132       1131        282        283       1133       1132        283        284       1134       1133        284        285       1135       1134        285        286       1136       1135        286        287       1137       1136        287        288       1138       1137 </DataArray>
<DataArray type="Int32"                                    Name="offsets"                                                      NumberOfComponents=" 1" format="ascii">
         4          8         12         16         20         24         28         32         36         40         44         48         52         56         60         64         68         72         76         80         84         88         92         96        100        104        108        112        116        120        124        128        132        136        140        144        148        152        156        160        164        168        172        176        180        184        188        192        196        200        204        208        212        216        220        224        228        232        236        240        244        248        252        256        260        264        268        272        276        280        284        288        292        296        300        304        308        312        316        320        324        328        332        336        340        344        348        352        356        360        364        368        372        376        380        384        388        392        396        400        404        408        412        416        420        424        428        432        436        440        444        448        452        456        460        464        468        472        476        480        484        488        492        496        500        504        508        512        516        520        524        528        532        536        540        544        548        552        556        560        564        568        572        576        580        584        588        592        596        600        604        608        612        616        620        624        628        632        636        640        644        648        652        656        660        664        668        672        676        680        684        688        692        696        700        704        708        712        716        720        724        728        732        736        740        744        748        752        756        760        764        768        772        776        780        784        788        792        796        800        804        808        812        816        820        824        828        832        836        840        844        848        852        856        860        864        868        872        876        880        884        888        892        896        900        904        908        912        916        920        924        928        932        936        940        944        948        952        956        960        964        968        972        976        980        984        988        992        996       1000       1004       1008       1012       1016       1020       1024       1028       1032       1036       1040       1044       1048       1052       1056       1060       1064       1068       1072       1076       1080       1084       1088       1092       1096       1100       1104       1108       1112       1116       1120       1124       1128       1132       1136       1140       1144       1148       1152       1156       1160       1164       1168       1172       1176       1180       1184       1188       1192       1196       1200       1204       1208       1212       1216       1220       1224       1228       1232       1236       1240       1244       1248       1252       1256       1260       1264       1268       1272       1276       1280       1284       1288       1292       1296       1300       1304       1308       1312       1316       1320       1324       1328       1332       1336       1340       1344       1348       1352       1356       1360       1364       1368       1372       1376       1380       1384       1388       1392       1396       1400       1404       1408       1412       1416       1420       1424       1428       1432       1436       1440       1444       1448       1452       1456       1460       1464       1468       1472       1476       1480       1484       1488       1492       1496       1500       1504       1508       1512       1516       1520       1524       1528       1532       1536       1540       1544       1548       1552       1556       1560       1564       1568       1572       1576       1580       1584       1588       1592       1596       1600       1604       1608       1612       1616       1620       1624       1628       1632       1636       1640       1644       1648       1652       1656       1660       1664       1668       1672       1676       1680       1684       1688       1692       1696       1700       1704       1708       1712       1716       1720       1724       1728       1732       1736       1740       1744       1748       1752       1756       1760       1764       1768       1772       1776       1780       1784       1788       1792       1796       1800       1804       1808       1812       1816       1820       1824       1828       1832       1836       1840       1844       1848       1852       1856       1860       1864       1868       1872       1876       1880       1884       1888       1892       1896       1900       1904       1908       1912       1916       1920       1924       1928       1932       1936       1940       1944       1948       1952       1956       1960       1964       1968       1972       1976       1980       1984       1988       1992       1996       2000       2004       2008       2012       2016       2020       2024       2028       2032       2036       2040       2044       2048       2052       2056       2060       2064       2068       2072       2076       2080       2084       2088       2092       2096       2100       2104       2108       2112       2116       2120       2124       2128       2132       2136       2140       2144       2148       2152       2156       2160       2164       2168       2172       2176       2180       2184       2188       2192       2196       2200       2204       2208       2212       2216       2220       2224       2228       2232       2236       2240       2244       2248       2252       2256       2260       2264       2268       2272       2276       2280       2284       2288       2292       2296       2300       2304       2308       2312       2316       2320       2324       2328       2332       2336       2340       2344       2348       2352       2356       2360       2364       2368       2372       2376       2380       2384       2388       2392       2396       2400       2404       2408       2412       2416       2420       2424       2428       2432       2436       2440       2444       2448       2452       2456       2460       2464       2468       2472       2476       2480       2484       2488       2492       2496       2500       2504       2508       2512       2516       2520       2524       2528       2532       2536       2540       2544       2548       2552       2556       2560       2564       2568       2572       2576       2580       2584       2588       2592       2596       2600       2604       2608       2612       2616       2620       2624       2628       2632       2636       2640       2644       2648       2652       2656       2660       2664       2668       2672       2676       2680       2684       2688       2692       2696       2700       2704       2708       2712       2716       2720       2724       2728       2732       2736       2740       2744       2748       2752       2756       2760       2764       2768       2772       2776       2780       2784       2788       2792       2796       2800       2804       2808       2812       2816       2820       2824       2828       2832       2836       2840       2844       2848       2852       2856       2860       2864       2868       2872       2876       2880       2884       2888       2892       2896       2900       2904       2908       2912       2916       2920       2924       2928       2932       2936       2940       2944       2948       2952       2956       2960       2964       2968       2972       2976       2980       2984       2988       2992       2996       3000       3004       3008       3012       3016       3020       3024       3028       3032       3036       3040       3044       3048       3052       3056       3060       3064       3068       3072       3076       3080       3084       3088       3092       3096       3100       3104       3108       3112       3116       3120       3124       3128       3132       3136       3140       3144       3148       3152       3156       3160       3164       3168       3172       3176       3180       3184       3188       3192       3196       3200       3204       3208       3212       3216       3220       3224       3228       3232       3236       3240       3244       3248       3252       3256       3260       3264       3268       3272       3276       3280       3284       3288       3292       3296       3300       3304       3308       3312       3316       3320       3324       3328       3332       3336       3340       3344       3348       3352       3356       3360       3364       3368       3372       3376       3380       3384       3388       3392       3396       3400       3404       3408       3412       3416       3420       3424       3428       3432       3436       3440       3444       3448       3452       3456       3460       3464       3468       3472       3476       3480       3484       3488       3492       3496       3500       3504       3508       3512       3516       3520       3524       3528       3532       3536       3540       3544       3548       3552       3556       3560       3564       3568       3572       3576       3580       3584       3588       3592       3596       3600       3604       3608       3612       3616       3620       3624       3628       3632       3636       3640       3644       3648       3652       3656       3660       3664       3668       3672       3676       3680       3684       3688       3692       3696       3700       3704       3708       3712       3716       3720       3724       3728       3732       3736       3740       3744       3748       3752       3756       3760       3764       3768       3772       3776       3780       3784       3788       3792       3796       3800       3804       3808       3812       3816       3820       3824       3828       3832       3836       3840       3844       3848       3852       3856       3860       3864       3868       3872       3876       3880       3884       3888       3892       3896       3900       3904       3908       3912       3916       3920       3924       3928       3932       3936       3940       3944       3948       3952       3956       3960       3964       3968       3972       3976       3980       3984       3988       3992       3996       4000       4004       4008       4012       4016       4020       4024       4028       4032       4036       4040       4044       4048       4052       4056       4060       4064       4068       4072       4076       4080       4084       4088       4092       4096 </DataArray>
<DataArray type="UInt8"                                    Name="types"                                                      NumberOfComponents=" 1" format="ascii">
         9          9          9          9          9          9          9          9          9          9          9          9          9          9          9          9          9          9          9          9          9          9          9          9          9          9          9          9          9          9          9          9          9          9          9          9          9          9          9          9          9          9          9          9          9          9          9          9          9          9          9          9          9          9          9          9          9          9          9          9          9          9          9          9          9          9          9          9          9          9          9          9          9          9          9          9          9          9          9          9          9          9          9          9          9          9          9          9          9          9          9          9          9          9          9          9          9          9          9          9          9          9          9          9          9          9          9          9          9          9          9          9          9          9          9          9          9          9          9          9          9          9          9          9          9          9          9          9          9          9          9          9          9          9          9          9          9          9          9          9          9          9          9          9          9          9          9          9          9          9          9          9          9          9          9          9          9          9          9          9          9          9          9          9          9          9          9          9          9          9          9          9          9          9          9          9          9          9          9          9          9          9          9          9          9          9          9          9          9          9          9          9          9          9          9          9          9          9          9          9          9          9          9          9          9          9          9          9          9          9          9          9          9          9          9          9          9          9          9          9          9          9          9          9          9          9          9          9          9          9          9          9          9          9          9          9          9          9          9          9          9          9          9          9          9          9          9          9          9          9          9          9          9          9          9          9          9          9          9          9          9          9          9          9          9          9          9          9          9          9          9          9          9          9          9          9          9          9          9          9          9          9          9          9          9          9          9          9          9          9          9          9          9          9          9          9          9          9          9          9          9          9          9          9          9          9          9          9          9          9          9          9          9          9          9          9          9          9          9          9          9          9          9          9          9          9          9          9          9          9          9          9          9          9          9          9          9          9          9          9          9          9          9          9          9          9          9          9          9          9          9          9          9          9          9          9          9          9          9          9          9          9          9          9          9          9          9          9          9          9          9          9          9          9          9          9          9          9          9          9          9          9          9          9          9          9          9          9          9          9          9          9          9          9          9          9          9          9          9          9          9          9          9          9          9          9          9          9          9          9          9          9          9          9          9          9          9          9          9          9          9          9          9          9          9          9          9          9          9          9          9          9          9          9          9          9          9          9          9          9          9          9          9          9          9          9          9          9          9          9          9          9          9          9          9          9          9          9          9          9          9          9          9          9          9          9          9          9          9          9          9          9          9          9          9          9          9          9          9          9          9          9          9          9          9          9          9          9          9          9          9          9          9          9          9          9          9          9          9          9          9          9          9          9          9          9          9          9          9          9          9          9          9          9          9          9          9          9          9          9          9          9          9          9          9          9          9          9          9          9          9          9          9          9          9          9          9          9          9          9          9          9          9          9          9          9          9          9          9          9          9          9          9          9          9          9          9          9          9          9          9          9          9          9          9          9          9          9          9          9          9          9          9          9          9          9          9          9          9          9          9          9          9          9          9          9          9          9          9          9          9          9          9          9          9          9          9          9          9          9          9          9          9          9          9          9          9          9          9          9          9          9          9          9          9          9          9          9          9          9          9          9          9          9          9          9          9          9          9          9          9          9          9          9          9          9          9          9          9          9          9          9          9          9          9          9          9          9          9          9          9          9          9          9          9          9          9          9          9          9          9          9          9          9          9          9          9          9          9          9          9          9          9          9          9          9          9          9          9          9          9          9          9          9          9          9          9          9          9          9          9          9          9          9          9          9          9          9          9          9          9          9          9          9          9          9          9          9          9          9          9          9          9          9          9          9          9          9          9          9          9          9          9          9          9          9          9          9          9          9          9          9          9          9          9          9          9          9          9          9          9          9          9          9          9          9          9          9          9          9          9          9          9          9          9          9          9          9          9          9          9          9          9          9          9          9          9          9          9          9          9          9          9          9          9          9          9          9          9          9          9          9          9          9          9          9          9          9          9          9          9          9          9          9          9          9          9          9          9          9          9          9          9          9          9          9          9          9          9          9          9          9          9          9          9          9          9          9          9          9          9          9          9          9          9          9          9          9          9          9          9          9          9          9          9          9          9          9          9          9          9          9          9          9          9          9          9          9          9          9          9          9          9          9          9          9          9          9          9          9          9          9          9          9          9          9          9          9          9          9          9          9          9          9          9          9          9          9          9          9          9          9          9          9          9          9          9          9          9          9          9          9          9          9          9          9          9          9          9          9          9          9          9          9          9          9          9          9          9          9          9          9          9          9          9          9          9          9          9          9          9          9          9          9          9          9          9          9          9          9          9          9          9          9          9          9          9          9          9          9          9          9          9          9          9          9          9          9          9          9          9          9          9          9          9          9          9          9          9          9          9          9          9          9          9          9          9          9          9          9          9          9          9          9          9          9          9          9          9          9          9          9          9          9          9          9          9          9          9          9          9          9          9          9          9          9          9          9          9          9          9          9          9          9          9          9          9          9          9          9          9          9          9          9          9          9          9          9          9          9          9          9          9          9 </DataArray>
</Cells>
<CellData>
<DataArray type="Int32"                                    Name="material"                                                      NumberOfComponents=" 1" format="ascii">
         1          1          1          1          1          1          1          1          1          1          1          1          1          1          1          1          1          1          1          1          1          1          1          1          1          1          1          1          1          1          1          1          1          1          1          1          1          1          1          1          1          1          1          1          1          1          1          1          1          1          1          1          1          1          1          1          1          1          1          1          1          1          1          1          1          1          1          1          1          1          1          1          1          1          1          1          1          1          1          1          1          1          1          1          1          1          1          1          1          1          1          1          1          1          1          1          1          1          1          1          1          1          1          1          1          1          1          1          1          1          1          1          1          1          1          1          1          1          1          1          1          1          1          1          1          1          1          1          1          1          1          1          1          1          1          1          1          1          1          1          1          1          1          1          1          1          1          1          1          1          1          1          1          1          1          1          1          1          1          1          1          1          1          1          1          1          1          1          1          1          1          1          1          1          1          1          1          1          1          1          1          1          1          1          1          1          1          1          1          1          1          1          1          1          1          1          1          1          1          1          1          1          1          1          1          1          1          1          1          1          1          1          1          1          1          1          1          1          1          1          1          1          1          1          1          1          1          1          1          1          1          1          1          1          1          1          1          1          1          1          1          1          1          1          1          1          1          1          1          1          1          1          1          1          1          1          1          1          1          1          1          1          1          1          1          1          1          1          1          1          1          1          1          1          1          1          1          1          1          1          1          1          1          1          1          1          1          1          1          1          1          1          1          1          1          1          1          1          1          1          1          1          1          1          1          1          1          1          1          1          1          1          1          1          1          1          1          1          1          1          1          1          1          1          1          1          1          1          1          1          1          1          1          1          1          1          1          1          1          1          1          1          1          1          1          1          1          1          1          1          1          1          1          1          1          1          1          1          1          1          1          1          1          1          1          1          1          1          1          1          1          1          1          1          1          1          1          1          1          1          1          1          1          1          1          1          1          1          1          1          1          1          1          1          1          1          1          1          1          1          1          1          1          1          1          1          1          1          1          1          1          1          1          1          1          1          1          1          1          1          1          1          1          1          1          1          1          1          1          1          1          1          1          1          1          1          1          1          1          1          1          1          1          1          1          1          1          1          1          1          1          1          1          1          1          1          1          1          1          1          1          1          1          1          1          1          1          1          1          1          1          1          1          1          1          1          1          1          1          1          1          1          1          1          1          1          1          1          1          1          1          1          1          1          1          1          1          1          1          1          1          1          1          1          1          1          1          1          1          1          1          1          1          1          1          1          1          1          1          1          1          1          1          1          1          1          1          1          1          1          1          1          1          1          1          1          1          1          1          1          1          1          1          1          1          1          1          1          1          1          1          1          1          1          1          1          1          1          1          1          1          1          1          1          1          1          1          1          1          1          1          1          1          1          1          1          1          1          1          1          1          1          1          1          1          1          1          1          1          1          1          1          1          1          1          1          1          1          1          1          1          1          1          1          1          1          1          1          1          1          1          1          1          1          1          1          1          1          1          1          1          1          1          1          1          1          1          1          1          1          1          1          1          1          1          1          1          1          1          1          1          1          1          1          1          1          1          1          1          1          1          1          1          1          1          1          1          1          1          1          1          1          1          1          1          1          1          1          1          1          1          1          1          1          1          1          1          1          1          1          1          1          1          1          1          1          1          1          1          1          1          1          1          1          1          1          1          1          1          1          1          1          1          1          1          1          1          1          1          1          1          1          1          1          1          1          1          1          1          1          1          1          1          1          1          1          1          1          1          1          1          1          1          1          1          1          1          1          1          1          1          1          1          1          1          1          1          1          1          1          1          1          1          1          1          1          1          1          1          1          1          1          1          1          1          1          1          1          1          1          1          1          1          1          1          1          1          1          1          1          1          1          1          1          1          1          1          1          1          1          1          1          1          1          1          1          1          1          1          1          1          1          1          1          1          1          1          1          1          1          1          1          1          1          1          1          1          1          1          1          1          1          1          1          1          1          1          1          1          1          1          1          1          1          1          1          1          1          1          1          1          1          1          1          1          1          1          1          1          1          1          1          1          1          1          1          1          1          1          1          1          1          1          1          1          1          1          1          1          1          1          1          1          1          1          1          1          1          1          1          1          1          1          1          1          1          1          1          1          1          1          1          1          1          1          1          1          1          1          1          1          1          1          1          1          1          1          1          1          1          1          1          1          1          1          1          1          1          1          1          1          1          1          1          1          1          1          1          1          1          1          1          1          1          1          1          1          1          1          1          1          1          1          1          1          1          1          1          1          1          1          1          1          1          1          1          1          1          1          1          1          1          1          1          1          1          1          1          1          1          1          1          1          1          1          1          1          1          1          1          1          1          1          1          1          1          1          1          1          1          1          1          1          1          1          1          1          1          1          1          1          1          1          1          1          1          1          1          1          1          1          1          1          1          1          1          1          1          1          1          1          1          1          1 </DataArray>
</CellData>
<PointData>
<DataArray type="Float64"                                    Name="u"                                                      NumberOfComponents=" 3" format="ascii">
             -0.000005402              -0.000000000               0.999999997              -0.000018491               0.000000000               0.999999997              -0.000025105               0.000000000               0.999999997              -0.000029223              -0.000000000               0.999999997              -0.000032487              -0.000000000               0.999999997              -0.000035749              -0.000000000               0.999999997              -0.000039318               0.000000000               0.999999997              -0.000043274              -0.000000000               0.999999997              -0.000047710              -0.000000000               0.999999997              -0.000052610              -0.000000000               0.999999997              -0.000057973              -0.000000000               0.999999997              -0.000063806              -0.000000000               0.999999997              -0.000070156               0.000000000               0.999999997              -0.000077020              -0.000000000               0.999999997              -0.000084447              -0.000000000               0.999999997              -0.000092454               0.000000000               0.999999997              -0.000100980               0.000000000               0.999999997              -0.000005413               0.000032147               0.999999997              -0.000018027               0.000028808               0.999999997              -0.000024349               0.000028092               0.999999997              -0.000028288               0.000028811               0.999999997              -0.000031553               0.000030506               0.999999997              -0.000034887               0.000032740               0.999999997              -0.000038510               0.000035413               0.999999997              -0.000042537               0.000038385               0.999999997              -0.000047072               0.000041546               0.999999997              -0.000052093               0.000044961               0.999999997              -0.000057612               0.000048561               0.999999997              -0.000063611               0.000052273               0.999999997              -0.000070065               0.000056128               0.999999997              -0.000077041               0.000060138               0.999999997              -0.000084551               0.000064163               0.999999997              -0.000092629               0.000068216               0.999999997              -0.000101292               0.000072161               0.999999997              -0.000005447               0.000063927               0.999999997              -0.000016584               0.000057256               0.999999997              -0.000022102               0.000055923               0.999999997              -0.000025756               0.000057543               0.999999997              -0.000028996               0.000060957               0.999999997              -0.000032383               0.000065514               0.999999997              -0.000036186               0.000070873               0.999999997              -0.000040517               0.000076831               0.999999997              -0.000045431               0.000083228               0.999999997              -0.000050905               0.000090091               0.999999997              -0.000056866               0.000097327               0.999999997              -0.000063302               0.000104683               0.999999997              -0.000070196               0.000112398               0.999999997              -0.000077573               0.000120443               0.999999997              -0.000085501               0.000128675               0.999999997              -0.000094008               0.000137030               0.999999997              -0.000103084               0.000145388               0.999999997              -0.000005469               0.000095038               0.999999997              -0.000014293               0.000085048               0.999999997              -0.000018704               0.000083359               0.999999997              -0.000021924               0.000086053               0.999999997              -0.000025161               0.000091292               0.999999997              -0.000028826               0.000098267               0.999999997              -0.000033075               0.000106432               0.999999997              -0.000038009               0.000115480               0.999999997              -0.000043577               0.000125199               0.999999997              -0.000049694               0.000135505               0.999999997              -0.000056393               0.000146339               0.999999997              -0.000063639               0.000157471               0.999999997              -0.000071354               0.000168969               0.999999997              -0.000079562               0.000181028               0.999999997              -0.000088274               0.000193512               0.999999997              -0.000097514               0.000206328               0.999999997              -0.000107279               0.000219381               0.999999997              -0.000005446               0.000125185               0.999999997              -0.000011226               0.000111969               0.999999997              -0.000014406               0.000110208               0.999999997              -0.000017357               0.000114125               0.999999997              -0.000020778               0.000121420               0.999999997              -0.000024993               0.000130887               0.999999997              -0.000030046               0.000141955               0.999999997              -0.000035827               0.000154154               0.999999997              -0.000042312               0.000167142               0.999999997              -0.000049443               0.000180874               0.999999997              -0.000057189               0.000195268               0.999999997              -0.000065512               0.000210071               0.999999997              -0.000074396               0.000225316               0.999999997              -0.000083743               0.000241261               0.999999997              -0.000093571               0.000257925               0.999999997              -0.000103883               0.000275153               0.999999997              -0.000114606               0.000292832               0.999999997              -0.000005393               0.000154012               0.999999997              -0.000007587               0.000137814               0.999999997              -0.000009636               0.000136274               0.999999997              -0.000012588               0.000141664               0.999999997              -0.000016566               0.000151107               0.999999997              -0.000021610               0.000163208               0.999999997              -0.000027630               0.000177132               0.999999997              -0.000034512               0.000192412               0.999999997              -0.000042195               0.000208688               0.999999997              -0.000050627               0.000225760               0.999999997              -0.000059724               0.000243636               0.999999997              -0.000069393               0.000262173               0.999999997              -0.000079555               0.000281227               0.999999997              -0.000090194               0.000301063               0.999999997              -0.000101272               0.000321892               0.999999997              -0.000112764               0.000343464               0.999999997              -0.000124595               0.000365620               0.999999997              -0.000005235               0.000181233               0.999999997              -0.000003634               0.000162522               0.999999997              -0.000004881               0.000161445               0.999999997              -0.000008169               0.000168404               0.999999997              -0.000013004               0.000180005               0.999999997              -0.000019099               0.000194689               0.999999997              -0.000026369               0.000211517               0.999999997              -0.000034642               0.000229884               0.999999997              -0.000043755               0.000249468               0.999999997              -0.000053612               0.000269963               0.999999997              -0.000063976               0.000291368               0.999999997              -0.000074878               0.000313737               0.999999997              -0.000086286               0.000336695               0.999999997              -0.000098234               0.000360640               0.999999997              -0.000110634               0.000385615               0.999999997              -0.000123379               0.000411367               0.999999997              -0.000136290               0.000437525               0.999999997              -0.000005032               0.000206541               0.999999997               0.000000359               0.000186053               0.999999997              -0.000000492               0.000185605               0.999999997              -0.000004502               0.000194086               0.999999997              -0.000010361               0.000207887               0.999999997              -0.000017774               0.000225225               0.999999997              -0.000026529               0.000244907               0.999999997              -0.000036265               0.000266374               0.999999997              -0.000046806               0.000289315               0.999999997              -0.000057948               0.000313373               0.999999997              -0.000069632               0.000338521               0.999999997              -0.000081861               0.000364743               0.999999997              -0.000094590               0.000391879               0.999999997              -0.000107797               0.000420045               0.999999997              -0.000121349               0.000449144               0.999999997              -0.000135033               0.000478754               0.999999997              -0.000148640               0.000508438               0.999999997              -0.000004923               0.000229542               0.999999997               0.000004233               0.000208362               0.999999997               0.000003158               0.000208503               0.999999997              -0.000001697               0.000218604               0.999999997              -0.000008817               0.000234618               0.999999997              -0.000017741               0.000254573               0.999999997              -0.000027907               0.000277178               0.999999997              -0.000039061               0.000301896               0.999999997              -0.000050923               0.000328266               0.999999997              -0.000063352               0.000356041               0.999999997              -0.000076310               0.000385192               0.999999997              -0.000089647               0.000415594               0.999999997              -0.000103401               0.000447106               0.999999997              -0.000117556               0.000479520               0.999999997              -0.000131819               0.000512530               0.999999997              -0.000145929               0.000545773               0.999999997              -0.000159985               0.000578980               0.999999997              -0.000005127               0.000251021               0.999999997               0.000006773               0.000231482               0.999999997               0.000007056               0.000229350               0.999999997               0.000003096               0.000236808               0.999999997              -0.000003096               0.000250130               0.999999997              -0.000010972               0.000267502               0.999999997              -0.000020013               0.000287710               0.999999997              -0.000029995               0.000310089               0.999999997              -0.000040697               0.000334174               0.999999997              -0.000051837               0.000359687               0.999999997              -0.000063332               0.000386570               0.999999997              -0.000074974               0.000414710               0.999999997              -0.000086827               0.000443955               0.999999997              -0.000098954               0.000474170               0.999999997              -0.000111356               0.000505017               0.999999997              -0.000123785               0.000536418               0.999999997              -0.000136184               0.000568036               0.999999997              -0.000005035               0.000270385               0.999999997               0.000008266               0.000253559               0.999999997               0.000009949               0.000250433               0.999999997               0.000007055               0.000255779               0.999999997               0.000001922               0.000266750               0.999999997              -0.000004788               0.000281748               0.999999997              -0.000012601               0.000299683               0.999999997              -0.000021321               0.000319853               0.999999997              -0.000030837               0.000341768               0.999999997              -0.000040749               0.000365102               0.999999997              -0.000050743               0.000389825               0.999999997              -0.000060727               0.000415812               0.999999997              -0.000070835               0.000442856               0.999999997              -0.000081029               0.000470772               0.999999997              -0.000091348               0.000499518               0.999999997              -0.000101673               0.000528877               0.999999997              -0.000112108               0.000558690               0.999999997              -0.000004703               0.000287276               0.999999997               0.000008779               0.000274055               0.999999997               0.000011540               0.000270912               0.999999997               0.000009796               0.000274905               0.999999997               0.000005796               0.000284021               0.999999997               0.000000397               0.000297052               0.999999997              -0.000006062               0.000312974               0.999999997              -0.000013481               0.000331118               0.999999997              -0.000021631               0.000351144               0.999999997              -0.000030215               0.000372683               0.999999997              -0.000038695               0.000395491               0.999999997              -0.000047055               0.000419512               0.999999997              -0.000055341               0.000444587               0.999999997              -0.000063624               0.000470486               0.999999997              -0.000071870               0.000497077               0.999999997              -0.000079880               0.000524325               0.999999997              -0.000087609               0.000552207               0.999999997              -0.000004123               0.000301459               0.999999997               0.000008348               0.000292204               0.999999997               0.000011712               0.000289860               0.999999997               0.000010978               0.000293218               0.999999997               0.000008132               0.000301061               0.999999997               0.000004040               0.000312562               0.999999997              -0.000001043               0.000326862               0.999999997              -0.000006934               0.000343415               0.999999997              -0.000013614               0.000361800               0.999999997              -0.000020683               0.000381794               0.999999997              -0.000027712               0.000403161               0.999999997              -0.000034383               0.000425701               0.999999997              -0.000040909               0.000449223               0.999999997              -0.000047382               0.000473554               0.999999997              -0.000053495               0.000498498               0.999999997              -0.000059015               0.000524048               0.999999997              -0.000063868               0.000550191               0.999999997              -0.000003321               0.000312717               0.999999997               0.000007067               0.000307267               0.999999997               0.000010413               0.000306165               0.999999997               0.000010385               0.000309490               0.999999997               0.000008601               0.000316638               0.999999997               0.000005770               0.000327095               0.999999997               0.000002096               0.000340227               0.999999997              -0.000002266               0.000355444               0.999999997              -0.000007371               0.000372519               0.999999997              -0.000012872               0.000391260               0.999999997              -0.000018348               0.000411528               0.999999997              -0.000023456               0.000432955               0.999999997              -0.000028311               0.000455349               0.999999997              -0.000032896               0.000478640               0.999999997              -0.000037112               0.000502638               0.999999997              -0.000040477               0.000527146               0.999999997              -0.000042695               0.000552159               0.999999997              -0.000002326               0.000320885               0.999999997               0.000005103               0.000318578               0.999999997               0.000007792               0.000318790               0.999999997               0.000008093               0.000322416               0.999999997               0.000007077               0.000329270               0.999999997               0.000005375               0.000339024               0.999999997               0.000002997               0.000351313               0.999999997               0.000000078               0.000365643               0.999999997              -0.000003270               0.000381818               0.999999997              -0.000006971               0.000399720               0.999999997              -0.000010864               0.000419133               0.999999997              -0.000014462               0.000439849               0.999999997              -0.000017456               0.000461677               0.999999997              -0.000020202               0.000484444               0.999999997              -0.000022826               0.000507978               0.999999997              -0.000024692               0.000532001               0.999999997              -0.000025179               0.000556436               0.999999997              -0.000001194               0.000325862               0.999999997               0.000002671               0.000325578               0.999999997               0.000004158               0.000326752               0.999999997               0.000004415               0.000330698               0.999999997               0.000003980               0.000337485               0.999999997               0.000003207               0.000346908               0.999999997               0.000002059               0.000358686               0.999999997               0.000000569               0.000372609               0.999999997              -0.000001048               0.000388362               0.999999997              -0.000002879               0.000405718               0.999999997              -0.000004974               0.000424608               0.999999997              -0.000006744               0.000444958               0.999999997              -0.000008078               0.000466522               0.999999997              -0.000009421               0.000489079               0.999999997              -0.000010682               0.000512457               0.999999997              -0.000011536               0.000536403               0.999999997              -0.000011506               0.000560716               0.999999997              -0.000000000               0.000327553               0.999999997               0.000000000               0.000327952               0.999999997              -0.000000000               0.000329471               0.999999997              -0.000000000               0.000333598               0.999999997               0.000000000               0.000340351               0.999999997              -0.000000000               0.000349604               0.999999997              -0.000000000               0.000361277               0.999999997              -0.000000000               0.000375179               0.999999997               0.000000000               0.000390780               0.999999997               0.000000000               0.000407926               0.999999997               0.000000000               0.000426640               0.999999997              -0.000000000               0.000446831               0.999999997              -0.000000000               0.000468299               0.999999997              -0.000000000               0.000490732               0.999999997               0.000000000               0.000514108               0.999999997               0.000000000               0.000538155               0.999999997               0.000000000               0.000562484               0.999999997              -0.000005402              -0.000000000               0.999999997              -0.000018491               0.000000000               0.999999997              -0.000025105               0.000000000               0.999999997              -0.000029223              -0.000000000               0.999999997              -0.000032487              -0.000000000               0.999999997              -0.000035749              -0.000000000               0.999999997              -0.000039318               0.000000000               0.999999997              -0.000043274              -0.000000000               0.999999997              -0.000047710              -0.000000000               0.999999997              -0.000052610              -0.000000000               0.999999997              -0.000057973              -0.000000000               0.999999997              -0.000063806              -0.000000000               0.999999997              -0.000070156               0.000000000               0.999999997              -0.000077020              -0.000000000               0.999999997              -0.000084447              -0.000000000               0.999999997              -0.000092454               0.000000000               0.999999997              -0.000100980               0.000000000               0.999999997              -0.000005413              -0.000032147               0.999999997              -0.000018027              -0.000028808               0.999999997              -0.000024349              -0.000028092               0.999999997              -0.000028288              -0.000028811               0.999999997              -0.000031553              -0.000030506               0.999999997              -0.000034887              -0.000032740               0.999999997              -0.000038510              -0.000035413               0.999999997              -0.000042537              -0.000038385               0.999999997              -0.000047072              -0.000041546               0.999999997              -0.000052093              -0.000044961               0.999999997              -0.000057612              -0.000048561               0.999999997              -0.000063611              -0.000052273               0.999999997              -0.000070065              -0.000056128               0.999999997              -0.000077041              -0.000060138               0.999999997              -0.000084551              -0.000064163               0.999999997              -0.000092629              -0.000068216               0.999999997              -0.000101292              -0.000072161               0.999999997              -0.000005447              -0.000063927               0.999999997              -0.000016584              -0.000057256               0.999999997              -0.000022102              -0.000055923               0.999999997              -0.000025756              -0.000057543               0.999999997              -0.000028996              -0.000060957               0.999999997              -0.000032383              -0.000065514               0.999999997              -0.000036186              -0.000070873               0.999999997              -0.000040517              -0.000076831               0.999999997              -0.000045431              -0.000083228               0.999999997              -0.000050905              -0.000090091               0.999999997              -0.000056866              -0.000097327               0.999999997              -0.000063302              -0.000104683               0.999999997              -0.000070196              -0.000112398               0.999999997              -0.000077573              -0.000120443               0.999999997              -0.000085501              -0.000128675               0.999999997              -0.000094008              -0.000137030               0.999999997              -0.000103084              -0.000145388               0.999999997              -0.000005469              -0.000095038               0.999999997              -0.000014293              -0.000085048               0.999999997              -0.000018704              -0.000083359               0.999999997              -0.000021924              -0.000086053               0.999999997              -0.000025161              -0.000091292               0.999999997              -0.000028826              -0.000098267               0.999999997              -0.000033075              -0.000106432               0.999999997              -0.000038009              -0.000115480               0.999999997              -0.000043577              -0.000125199               0.999999997              -0.000049694              -0.000135505               0.999999997              -0.000056393              -0.000146339               0.999999997              -0.000063639              -0.000157471               0.999999997              -0.000071354              -0.000168969               0.999999997              -0.000079562              -0.000181028               0.999999997              -0.000088274              -0.000193512               0.999999997              -0.000097514              -0.000206328               0.999999997              -0.000107279              -0.000219381               0.999999997              -0.000005446              -0.000125185               0.999999997              -0.000011226              -0.000111969               0.999999997              -0.000014406              -0.000110208               0.999999997              -0.000017357              -0.000114125               0.999999997              -0.000020778              -0.000121420               0.999999997              -0.000024993              -0.000130887               0.999999997              -0.000030046              -0.000141955               0.999999997              -0.000035827              -0.000154154               0.999999997              -0.000042312              -0.000167142               0.999999997              -0.000049443              -0.000180874               0.999999997              -0.000057189              -0.000195268               0.999999997              -0.000065512              -0.000210071               0.999999997              -0.000074396              -0.000225316               0.999999997              -0.000083743              -0.000241261               0.999999997              -0.000093571              -0.000257925               0.999999997              -0.000103883              -0.000275153               0.999999997              -0.000114606              -0.000292832               0.999999997              -0.000005393              -0.000154012               0.999999997              -0.000007587              -0.000137814               0.999999997              -0.000009636              -0.000136274               0.999999997              -0.000012588              -0.000141664               0.999999997              -0.000016566              -0.000151107               0.999999997              -0.000021610              -0.000163208               0.999999997              -0.000027630              -0.000177132               0.999999997              -0.000034512              -0.000192412               0.999999997              -0.000042195              -0.000208688               0.999999997              -0.000050627              -0.000225760               0.999999997              -0.000059724              -0.000243636               0.999999997              -0.000069393              -0.000262173               0.999999997              -0.000079555              -0.000281227               0.999999997              -0.000090194              -0.000301063               0.999999997              -0.000101272              -0.000321892               0.999999997              -0.000112764              -0.000343464               0.999999997              -0.000124595              -0.000365620               0.999999997              -0.000005235              -0.000181233               0.999999997              -0.000003634              -0.000162522               0.999999997              -0.000004881              -0.000161445               0.999999997              -0.000008169              -0.000168404               0.999999997              -0.000013004              -0.000180005               0.999999997              -0.000019099              -0.000194689               0.999999997              -0.000026369              -0.000211517               0.999999997              -0.000034642              -0.000229884               0.999999997              -0.000043755              -0.000249468               0.999999997              -0.000053612              -0.000269963               0.999999997              -0.000063976              -0.000291368               0.999999997              -0.000074878              -0.000313737               0.999999997              -0.000086286              -0.000336695               0.999999997              -0.000098234              -0.000360640               0.999999997              -0.000110634              -0.000385615               0.999999997              -0.000123379              -0.000411367               0.999999997              -0.000136290              -0.000437525               0.999999997              -0.000005032              -0.000206541               0.999999997               0.000000359              -0.000186053               0.999999997              -0.000000492              -0.000185605               0.999999997              -0.000004502              -0.000194086               0.999999997              -0.000010361              -0.000207887               0.999999997              -0.000017774              -0.000225225               0.999999997              -0.000026529              -0.000244907               0.999999997              -0.000036265              -0.000266374               0.999999997              -0.000046806              -0.000289315               0.999999997              -0.000057948              -0.000313373               0.999999997              -0.000069632              -0.000338521               0.999999997              -0.000081861              -0.000364743               0.999999997              -0.000094590              -0.000391879               0.999999997              -0.000107797              -0.000420045               0.999999997              -0.000121349              -0.000449144               0.999999997              -0.000135033              -0.000478754               0.999999997              -0.000148640              -0.000508438               0.999999997              -0.000004923              -0.000229542               0.999999997               0.000004233              -0.000208362               0.999999997               0.000003158              -0.000208503               0.999999997              -0.000001697              -0.000218604               0.999999997              -0.000008817              -0.000234618               0.999999997              -0.000017741              -0.000254573               0.999999997              -0.000027907              -0.000277178               0.999999997              -0.000039061              -0.000301896               0.999999997              -0.000050923              -0.000328266               0.999999997              -0.000063352              -0.000356041               0.999999997              -0.000076310              -0.000385192               0.999999997              -0.000089647              -0.000415594               0.999999997              -0.000103401              -0.000447106               0.999999997              -0.000117556              -0.000479520               0.999999997              -0.000131819              -0.000512530               0.999999997              -0.000145929              -0.000545773               0.999999997              -0.000159985              -0.000578980               0.999999997              -0.000005127              -0.000251021               0.999999997               0.000006773              -0.000231482               0.999999997               0.000007056              -0.000229350               0.999999997               0.000003096              -0.000236808               0.999999997              -0.000003096              -0.000250130               0.999999997              -0.000010972              -0.000267502               0.999999997              -0.000020013              -0.000287710               0.999999997              -0.000029995              -0.000310089               0.999999997              -0.000040697              -0.000334174               0.999999997              -0.000051837              -0.000359687               0.999999997              -0.000063332              -0.000386570               0.999999997              -0.000074974              -0.000414710               0.999999997              -0.000086827              -0.000443955               0.999999997              -0.000098954              -0.000474170               0.999999997              -0.000111356              -0.000505017               0.999999997              -0.000123785              -0.000536418               0.999999997              -0.000136184              -0.000568036               0.999999997              -0.000005035              -0.000270385               0.999999997               0.000008266              -0.000253559               0.999999997               0.000009949              -0.000250433               0.999999997               0.000007055              -0.000255779               0.999999997               0.000001922              -0.000266750               0.999999997              -0.000004788              -0.000281748               0.999999997              -0.000012601              -0.000299683               0.999999997              -0.000021321              -0.000319853               0.999999997              -0.000030837              -0.000341768               0.999999997              -0.000040749              -0.000365102               0.999999997              -0.000050743              -0.000389825               0.999999997              -0.000060727              -0.000415812               0.999999997              -0.000070835              -0.000442856               0.999999997              -0.000081029              -0.000470772               0.999999997              -0.000091348              -0.000499518               0.999999997              -0.000101673              -0.000528877               0.999999997              -0.000112108              -0.000558690               0.999999997              -0.000004703              -0.000287276               0.999999997               0.000008779              -0.000274055               0.999999997               0.000011540              -0.000270912               0.999999997               0.000009796              -0.000274905               0.999999997               0.000005796              -0.000284021               0.999999997               0.000000397              -0.000297052               0.999999997              -0.000006062              -0.000312974               0.999999997              -0.000013481              -0.000331118               0.999999997              -0.000021631              -0.000351144               0.999999997              -0.000030215              -0.000372683               0.999999997              -0.000038695              -0.000395491               0.999999997              -0.000047055              -0.000419512               0.999999997              -0.000055341              -0.000444587               0.999999997              -0.000063624              -0.000470486               0.999999997              -0.000071870              -0.000497077               0.999999997              -0.000079880              -0.000524325               0.999999997              -0.000087609              -0.000552207               0.999999997              -0.000004123              -0.000301459               0.999999997               0.000008348              -0.000292204               0.999999997               0.000011712              -0.000289860               0.999999997               0.000010978              -0.000293218               0.999999997               0.000008132              -0.000301061               0.999999997               0.000004040              -0.000312562               0.999999997              -0.000001043              -0.000326862               0.999999997              -0.000006934              -0.000343415               0.999999997              -0.000013614              -0.000361800               0.999999997              -0.000020683              -0.000381794               0.999999997              -0.000027712              -0.000403161               0.999999997              -0.000034383              -0.000425701               0.999999997              -0.000040909              -0.000449223               0.999999997              -0.000047382              -0.000473554               0.999999997              -0.000053495              -0.000498498               0.999999997              -0.000059015              -0.000524048               0.999999997              -0.000063868              -0.000550191               0.999999997              -0.000003321              -0.000312717               0.999999997               0.000007067              -0.000307267               0.999999997               0.000010413              -0.000306165               0.999999997               0.000010385              -0.000309490               0.999999997               0.000008601              -0.000316638               0.999999997               0.000005770              -0.000327095               0.999999997               0.000002096              -0.000340227               0.999999997              -0.000002266              -0.000355444               0.999999997              -0.000007371              -0.000372519               0.999999997              -0.000012872              -0.000391260               0.999999997              -0.000018348              -0.000411528               0.999999997              -0.000023456              -0.000432955               0.999999997              -0.000028311              -0.000455349               0.999999997              -0.000032896              -0.000478640               0.999999997              -0.000037112              -0.000502638               0.999999997              -0.000040477              -0.000527146               0.999999997              -0.000042695              -0.000552159               0.999999997              -0.000002326              -0.000320885               0.999999997               0.000005103              -0.000318578               0.999999997               0.000007792              -0.000318790               0.999999997               0.000008093              -0.000322416               0.999999997               0.000007077              -0.000329270               0.999999997               0.000005375              -0.000339024               0.999999997               0.000002997              -0.000351313               0.999999997               0.000000078              -0.000365643               0.999999997              -0.000003270              -0.000381818               0.999999997              -0.000006971              -0.000399720               0.999999997              -0.000010864              -0.000419133               0.999999997              -0.000014462              -0.000439849               0.999999997              -0.000017456              -0.000461677               0.999999997              -0.000020202              -0.000484444               0.999999997              -0.000022826              -0.000507978               0.999999997              -0.000024692              -0.000532001               0.999999997              -0.000025179              -0.000556436               0.999999997              -0.000001194              -0.000325862               0.999999997               0.000002671              -0.000325578               0.999999997               0.000004158              -0.000326752               0.999999997               0.000004415              -0.000330698               0.999999997               0.000003980              -0.000337485               0.999999997               0.000003207              -0.000346908               0.999999997               0.000002059              -0.000358686               0.999999997               0.000000569              -0.000372609               0.999999997              -0.000001048              -0.000388362               0.999999997              -0.000002879              -0.000405718               0.999999997              -0.000004974              -0.000424608               0.999999997              -0.000006744              -0.000444958               0.999999997              -0.000008078              -0.000466522               0.999999997              -0.000009421              -0.000489079               0.999999997              -0.000010682              -0.000512457               0.999999997              -0.000011536              -0.000536403               0.999999997              -0.000011506              -0.000560716               0.999999997              -0.000000000              -0.000327553               0.999999997              -0.000000000              -0.000327952               0.999999997              -0.000000000              -0.000329471               0.999999997              -0.000000000              -0.000333598               0.999999997               0.000000000              -0.000340351               0.999999997              -0.000000000              -0.000349604               0.999999997              -0.000000000              -0.000361277               0.999999997              -0.000000000              -0.000375179               0.999999997              -0.000000000              -0.000390780               0.999999997              -0.000000000              -0.000407926               0.999999997              -0.000000000              -0.000426640               0.999999997              -0.000000000              -0.000446831               0.999999997               0.000000000              -0.000468299               0.999999997               0.000000000              -0.000490732               0.999999997               0.000000000              -0.000514108               0.999999997               0.000000000              -0.000538155               0.999999997               0.000000000              -0.000562484               0.999999997               0.000005402               0.000000000               0.999999997               0.000018491              -0.000000000               0.999999997               0.000025105              -0.000000000               0.999999997               0.000029223              -0.000000000               0.999999997               0.000032487               0.000000000               0.999999997               0.000035749              -0.000000000               0.999999997               0.000039318               0.000000000               0.999999997               0.000043274               0.000000000               0.999999997               0.000047710               0.000000000               0.999999997               0.000052610               0.000000000               0.999999997               0.000057973               0.000000000               0.999999997               0.000063806               0.000000000               0.999999997               0.000070156               0.000000000               0.999999997               0.000077020               0.000000000               0.999999997               0.000084447               0.000000000               0.999999997               0.000092454               0.000000000               0.999999997               0.000100980               0.000000000               0.999999997               0.000005413              -0.000032147               0.999999997               0.000018027              -0.000028808               0.999999997               0.000024349              -0.000028092               0.999999997               0.000028288              -0.000028811               0.999999997               0.000031553              -0.000030506               0.999999997               0.000034887              -0.000032740               0.999999997               0.000038510              -0.000035413               0.999999997               0.000042537              -0.000038385               0.999999997               0.000047072              -0.000041546               0.999999997               0.000052093              -0.000044961               0.999999997               0.000057612              -0.000048561               0.999999997               0.000063611              -0.000052273               0.999999997               0.000070065              -0.000056128               0.999999997               0.000077041              -0.000060138               0.999999997               0.000084551              -0.000064163               0.999999997               0.000092629              -0.000068216               0.999999997               0.000101292              -0.000072161               0.999999997               0.000005447              -0.000063927               0.999999997               0.000016584              -0.000057256               0.999999997               0.000022102              -0.000055923               0.999999997               0.000025756              -0.000057543               0.999999997               0.000028996              -0.000060957               0.999999997               0.000032383              -0.000065514               0.999999997               0.000036186              -0.000070873               0.999999997               0.000040517              -0.000076831               0.999999997               0.000045431              -0.000083228               0.999999997               0.000050905              -0.000090091               0.999999997               0.000056866              -0.000097327               0.999999997               0.000063302              -0.000104683               0.999999997               0.000070196              -0.000112398               0.999999997               0.000077573              -0.000120443               0.999999997               0.000085501              -0.000128675               0.999999997               0.000094008              -0.000137030               0.999999997               0.000103084              -0.000145388               0.999999997               0.000005469              -0.000095038               0.999999997               0.000014293              -0.000085048               0.999999997               0.000018704              -0.000083359               0.999999997               0.000021924              -0.000086053               0.999999997               0.000025161              -0.000091292               0.999999997               0.000028826              -0.000098267               0.999999997               0.000033075              -0.000106432               0.999999997               0.000038009              -0.000115480               0.999999997               0.000043577              -0.000125199               0.999999997               0.000049694              -0.000135505               0.999999997               0.000056393              -0.000146339               0.999999997               0.000063639              -0.000157471               0.999999997               0.000071354              -0.000168969               0.999999997               0.000079562              -0.000181028               0.999999997               0.000088274              -0.000193512               0.999999997               0.000097514              -0.000206328               0.999999997               0.000107279              -0.000219381               0.999999997               0.000005446              -0.000125185               0.999999997               0.000011226              -0.000111969               0.999999997               0.000014406              -0.000110208               0.999999997               0.000017357              -0.000114125               0.999999997               0.000020778              -0.000121420               0.999999997               0.000024993              -0.000130887               0.999999997               0.000030046              -0.000141955               0.999999997               0.000035827              -0.000154154               0.999999997               0.000042312              -0.000167142               0.999999997               0.000049443              -0.000180874               0.999999997               0.000057189              -0.000195268               0.999999997               0.000065512              -0.000210071               0.999999997               0.000074396              -0.000225316               0.999999997               0.000083743              -0.000241261               0.999999997               0.000093571              -0.000257925               0.999999997               0.000103883              -0.000275153               0.999999997               0.000114606              -0.000292832               0.999999997               0.000005393              -0.000154012               0.999999997               0.000007587              -0.000137814               0.999999997               0.000009636              -0.000136274               0.999999997               0.000012588              -0.000141664               0.999999997               0.000016566              -0.000151107               0.999999997               0.000021610              -0.000163208               0.999999997               0.000027630              -0.000177132               0.999999997               0.000034512              -0.000192412               0.999999997               0.000042195              -0.000208688               0.999999997               0.000050627              -0.000225760               0.999999997               0.000059724              -0.000243636               0.999999997               0.000069393              -0.000262173               0.999999997               0.000079555              -0.000281227               0.999999997               0.000090194              -0.000301063               0.999999997               0.000101272              -0.000321892               0.999999997               0.000112764              -0.000343464               0.999999997               0.000124595              -0.000365620               0.999999997               0.000005235              -0.000181233               0.999999997               0.000003634              -0.000162522               0.999999997               0.000004881              -0.000161445               0.999999997               0.000008169              -0.000168404               0.999999997               0.000013004              -0.000180005               0.999999997               0.000019099              -0.000194689               0.999999997               0.000026369              -0.000211517               0.999999997               0.000034642              -0.000229884               0.999999997               0.000043755              -0.000249468               0.999999997               0.000053612              -0.000269963               0.999999997               0.000063976              -0.000291368               0.999999997               0.000074878              -0.000313737               0.999999997               0.000086286              -0.000336695               0.999999997               0.000098234              -0.000360640               0.999999997               0.000110634              -0.000385615               0.999999997               0.000123379              -0.000411367               0.999999997               0.000136290              -0.000437525               0.999999997               0.000005032              -0.000206541               0.999999997              -0.000000359              -0.000186053               0.999999997               0.000000492              -0.000185605               0.999999997               0.000004502              -0.000194086               0.999999997               0.000010361              -0.000207887               0.999999997               0.000017774              -0.000225225               0.999999997               0.000026529              -0.000244907               0.999999997               0.000036265              -0.000266374               0.999999997               0.000046806              -0.000289315               0.999999997               0.000057948              -0.000313373               0.999999997               0.000069632              -0.000338521               0.999999997               0.000081861              -0.000364743               0.999999997               0.000094590              -0.000391879               0.999999997               0.000107797              -0.000420045               0.999999997               0.000121349              -0.000449144               0.999999997               0.000135033              -0.000478754               0.999999997               0.000148640              -0.000508438               0.999999997               0.000004923              -0.000229542               0.999999997              -0.000004233              -0.000208362               0.999999997              -0.000003158              -0.000208503               0.999999997               0.000001697              -0.000218604               0.999999997               0.000008817              -0.000234618               0.999999997               0.000017741              -0.000254573               0.999999997               0.000027907              -0.000277178               0.999999997               0.000039061              -0.000301896               0.999999997               0.000050923              -0.000328266               0.999999997               0.000063352              -0.000356041               0.999999997               0.000076310              -0.000385192               0.999999997               0.000089647              -0.000415594               0.999999997               0.000103401              -0.000447106               0.999999997               0.000117556              -0.000479520               0.999999997               0.000131819              -0.000512530               0.999999997               0.000145929              -0.000545773               0.999999997               0.000159985              -0.000578980               0.999999997               0.000005127              -0.000251021               0.999999997              -0.000006773              -0.000231482               0.999999997              -0.000007056              -0.000229350               0.999999997              -0.000003096              -0.000236808               0.999999997               0.000003096              -0.000250130               0.999999997               0.000010972              -0.000267502               0.999999997               0.000020013              -0.000287710               0.999999997               0.000029995              -0.000310089               0.999999997               0.000040697              -0.000334174               0.999999997               0.000051837              -0.000359687               0.999999997               0.000063332              -0.000386570               0.999999997               0.000074974              -0.000414710               0.999999997               0.000086827              -0.000443955               0.999999997               0.000098954              -0.000474170               0.999999997               0.000111356              -0.000505017               0.999999997               0.000123785              -0.000536418               0.999999997               0.000136184              -0.000568036               0.999999997               0.000005035              -0.000270385               0.999999997              -0.000008266              -0.000253559               0.999999997              -0.000009949              -0.000250433               0.999999997              -0.000007055              -0.000255779               0.999999997              -0.000001922              -0.000266750               0.999999997               0.000004788              -0.000281748               0.999999997               0.000012601              -0.000299683               0.999999997               0.000021321              -0.000319853               0.999999997               0.000030837              -0.000341768               0.999999997               0.000040749              -0.000365102               0.999999997               0.000050743              -0.000389825               0.999999997               0.000060727              -0.000415812               0.999999997               0.000070835              -0.000442856               0.999999997               0.000081029              -0.000470772               0.999999997               0.000091348              -0.000499518               0.999999997               0.000101673              -0.000528877               0.999999997               0.000112108              -0.000558690               0.999999997               0.000004703              -0.000287276               0.999999997              -0.000008779              -0.000274055               0.999999997              -0.000011540              -0.000270912               0.999999997              -0.000009796              -0.000274905               0.999999997              -0.000005796              -0.000284021               0.999999997              -0.000000397              -0.000297052               0.999999997               0.000006062              -0.000312974               0.999999997               0.000013481              -0.000331118               0.999999997               0.000021631              -0.000351144               0.999999997               0.000030215              -0.000372683               0.999999997               0.000038695              -0.000395491               0.999999997               0.000047055              -0.000419512               0.999999997               0.000055341              -0.000444587               0.999999997               0.000063624              -0.000470486               0.999999997               0.000071870              -0.000497077               0.999999997               0.000079880              -0.000524325               0.999999997               0.000087609              -0.000552207               0.999999997               0.000004123              -0.000301459               0.999999997              -0.000008348              -0.000292204               0.999999997              -0.000011712              -0.000289860               0.999999997              -0.000010978              -0.000293218               0.999999997              -0.000008132              -0.000301061               0.999999997              -0.000004040              -0.000312562               0.999999997               0.000001043              -0.000326862               0.999999997               0.000006934              -0.000343415               0.999999997               0.000013614              -0.000361800               0.999999997               0.000020683              -0.000381794               0.999999997               0.000027712              -0.000403161               0.999999997               0.000034383              -0.000425701               0.999999997               0.000040909              -0.000449223               0.999999997               0.000047382              -0.000473554               0.999999997               0.000053495              -0.000498498               0.999999997               0.000059015              -0.000524048               0.999999997               0.000063868              -0.000550191               0.999999997               0.000003321              -0.000312717               0.999999997              -0.000007067              -0.000307267               0.999999997              -0.000010413              -0.000306165               0.999999997              -0.000010385              -0.000309490               0.999999997              -0.000008601              -0.000316638               0.999999997              -0.000005770              -0.000327095               0.999999997              -0.000002096              -0.000340227               0.999999997               0.000002266              -0.000355444               0.999999997               0.000007371              -0.000372519               0.999999997               0.000012872              -0.000391260               0.999999997               0.000018348              -0.000411528               0.999999997               0.000023456              -0.000432955               0.999999997               0.000028311              -0.000455349               0.999999997               0.000032896              -0.000478640               0.999999997               0.000037112              -0.000502638               0.999999997               0.000040477              -0.000527146               0.999999997               0.000042695              -0.000552159               0.999999997               0.000002326              -0.000320885               0.999999997              -0.000005103              -0.000318578               0.999999997              -0.000007792              -0.000318790               0.999999997              -0.000008093              -0.000322416               0.999999997              -0.000007077              -0.000329270               0.999999997              -0.000005375              -0.000339024               0.999999997              -0.000002997              -0.000351313               0.999999997              -0.000000078              -0.000365643               0.999999997               0.000003270              -0.000381818               0.999999997               0.000006971              -0.000399720               0.999999997               0.000010864              -0.000419133               0.999999997               0.000014462              -0.000439849               0.999999997               0.000017456              -0.000461677               0.999999997               0.000020202              -0.000484444               0.999999997               0.000022826              -0.000507978               0.999999997               0.000024692              -0.000532001               0.999999997               0.000025179              -0.000556436               0.999999997               0.000001194              -0.000325862               0.999999997              -0.000002671              -0.000325578               0.999999997              -0.000004158              -0.000326752               0.999999997              -0.000004415              -0.000330698               0.999999997              -0.000003980              -0.000337485               0.999999997              -0.000003207              -0.000346908               0.999999997              -0.000002059              -0.000358686               0.999999997              -0.000000569              -0.000372609               0.999999997               0.000001048              -0.000388362               0.999999997               0.000002879              -0.000405718               0.999999997               0.000004974              -0.000424608               0.999999997               0.000006744              -0.000444958               0.999999997               0.000008078              -0.000466522               0.999999997               0.000009421              -0.000489079               0.999999997               0.000010682              -0.000512457               0.999999997               0.000011536              -0.000536403               0.999999997               0.000011506              -0.000560716               0.999999997              -0.000000000              -0.000327553               0.999999997              -0.000000000              -0.000327952               0.999999997              -0.000000000              -0.000329471               0.999999997              -0.000000000              -0.000333598               0.999999997               0.000000000              -0.000340351               0.999999997              -0.000000000              -0.000349604               0.999999997              -0.000000000              -0.000361277               0.999999997              -0.000000000              -0.000375179               0.999999997              -0.000000000              -0.000390780               0.999999997              -0.000000000              -0.000407926               0.999999997              -0.000000000              -0.000426640               0.999999997              -0.000000000              -0.000446831               0.999999997               0.000000000              -0.000468299               0.999999997               0.000000000              -0.000490732               0.999999997               0.000000000              -0.000514108               0.999999997               0.000000000              -0.000538155               0.999999997               0.000000000              -0.000562484               0.999999997               0.000005402               0.000000000               0.999999997               0.000018491              -0.000000000               0.999999997               0.000025105              -0.000000000               0.999999997               0.000029223              -0.000000000               0.999999997               0.000032487               0.000000000               0.999999997               0.000035749              -0.000000000               0.999999997               0.000039318               0.000000000               0.999999997               0.000043274               0.000000000               0.999999997               0.000047710               0.000000000               0.999999997               0.000052610               0.000000000               0.999999997               0.000057973               0.000000000               0.999999997               0.000063806               0.000000000               0.999999997               0.000070156               0.000000000               0.999999997               0.000077020               0.000000000               0.999999997               0.000084447               0.000000000               0.999999997               0.000092454               0.000000000               0.999999997               0.000100980               0.000000000               0.999999997               0.000005413               0.000032147               0.999999997               0.000018027               0.000028808               0.999999997               0.000024349               0.000028092               0.999999997               0.000028288               0.000028811               0.999999997               0.000031553               0.000030506               0.999999997               0.000034887               0.000032740               0.999999997               0.000038510               0.000035413               0.999999997               0.000042537               0.000038385               0.999999997               0.000047072               0.000041546               0.999999997               0.000052093               0.000044961               0.999999997               0.000057612               0.000048561               0.999999997               0.000063611               0.000052273               0.999999997               0.000070065               0.000056128               0.999999997               0.000077041               0.000060138               0.999999997               0.000084551               0.000064163               0.999999997               0.000092629               0.000068216               0.999999997               0.000101292               0.000072161               0.999999997               0.000005447               0.000063927               0.999999997               0.000016584               0.000057256               0.999999997               0.000022102               0.000055923               0.999999997               0.000025756               0.000057543               0.999999997               0.000028996               0.000060957               0.999999997               0.000032383               0.000065514               0.999999997               0.000036186               0.000070873               0.999999997               0.000040517               0.000076831               0.999999997               0.000045431               0.000083228               0.999999997               0.000050905               0.000090091               0.999999997               0.000056866               0.000097327               0.999999997               0.000063302               0.000104683               0.999999997               0.000070196               0.000112398               0.999999997               0.000077573               0.000120443               0.999999997               0.000085501               0.000128675               0.999999997               0.000094008               0.000137030               0.999999997               0.000103084               0.000145388               0.999999997               0.000005469               0.000095038               0.999999997               0.000014293               0.000085048               0.999999997               0.000018704               0.000083359               0.999999997               0.000021924               0.000086053               0.999999997               0.000025161               0.000091292               0.999999997               0.000028826               0.000098267               0.999999997               0.000033075               0.000106432               0.999999997               0.000038009               0.000115480               0.999999997               0.000043577               0.000125199               0.999999997               0.000049694               0.000135505               0.999999997               0.000056393               0.000146339               0.999999997               0.000063639               0.000157471               0.999999997               0.000071354               0.000168969               0.999999997               0.000079562               0.000181028               0.999999997               0.000088274               0.000193512               0.999999997               0.000097514               0.000206328               0.999999997               0.000107279               0.000219381               0.999999997               0.000005446               0.000125185               0.999999997               0.000011226               0.000111969               0.999999997               0.000014406               0.000110208               0.999999997               0.000017357               0.000114125               0.999999997               0.000020778               0.000121420               0.999999997               0.000024993               0.000130887               0.999999997               0.000030046               0.000141955               0.999999997               0.000035827               0.000154154               0.999999997               0.000042312               0.000167142               0.999999997               0.000049443               0.000180874               0.999999997               0.000057189               0.000195268               0.999999997               0.000065512               0.000210071               0.999999997               0.000074396               0.000225316               0.999999997               0.000083743               0.000241261               0.999999997               0.000093571               0.000257925               0.999999997               0.000103883               0.000275153               0.999999997               0.000114606               0.000292832               0.999999997               0.000005393               0.000154012               0.999999997               0.000007587               0.000137814               0.999999997               0.000009636               0.000136274               0.999999997               0.000012588               0.000141664               0.999999997               0.000016566               0.000151107               0.999999997               0.000021610               0.000163208               0.999999997               0.000027630               0.000177132               0.999999997               0.000034512               0.000192412               0.999999997               0.000042195               0.000208688               0.999999997               0.000050627               0.000225760               0.999999997               0.000059724               0.000243636               0.999999997               0.000069393               0.000262173               0.999999997               0.000079555               0.000281227               0.999999997               0.000090194               0.000301063               0.999999997               0.000101272               0.000321892               0.999999997               0.000112764               0.000343464               0.999999997               0.000124595               0.000365620               0.999999997               0.000005235               0.000181233               0.999999997               0.000003634               0.000162522               0.999999997               0.000004881               0.000161445               0.999999997               0.000008169               0.000168404               0.999999997               0.000013004               0.000180005               0.999999997               0.000019099               0.000194689               0.999999997               0.000026369               0.000211517               0.999999997               0.000034642               0.000229884               0.999999997               0.000043755               0.000249468               0.999999997               0.000053612               0.000269963               0.999999997               0.000063976               0.000291368               0.999999997               0.000074878               0.000313737               0.999999997               0.000086286               0.000336695               0.999999997               0.000098234               0.000360640               0.999999997               0.000110634               0.000385615               0.999999997               0.000123379               0.000411367               0.999999997               0.000136290               0.000437525               0.999999997               0.000005032               0.000206541               0.999999997              -0.000000359               0.000186053               0.999999997               0.000000492               0.000185605               0.999999997               0.000004502               0.000194086               0.999999997               0.000010361               0.000207887               0.999999997               0.000017774               0.000225225               0.999999997               0.000026529               0.000244907               0.999999997               0.000036265               0.000266374               0.999999997               0.000046806               0.000289315               0.999999997               0.000057948               0.000313373               0.999999997               0.000069632               0.000338521               0.999999997               0.000081861               0.000364743               0.999999997               0.000094590               0.000391879               0.999999997               0.000107797               0.000420045               0.999999997               0.000121349               0.000449144               0.999999997               0.000135033               0.000478754               0.999999997               0.000148640               0.000508438               0.999999997               0.000004923               0.000229542               0.999999997              -0.000004233               0.000208362               0.999999997              -0.000003158               0.000208503               0.999999997               0.000001697               0.000218604               0.999999997               0.000008817               0.000234618               0.999999997               0.000017741               0.000254573               0.999999997               0.000027907               0.000277178               0.999999997               0.000039061               0.000301896               0.999999997               0.000050923               0.000328266               0.999999997               0.000063352               0.000356041               0.999999997               0.000076310               0.000385192               0.999999997               0.000089647               0.000415594               0.999999997               0.000103401               0.000447106               0.999999997               0.000117556               0.000479520               0.999999997               0.000131819               0.000512530               0.999999997               0.000145929               0.000545773               0.999999997               0.000159985               0.000578980               0.999999997               0.000005127               0.000251021               0.999999997              -0.000006773               0.000231482               0.999999997              -0.000007056               0.000229350               0.999999997              -0.000003096               0.000236808               0.999999997               0.000003096               0.000250130               0.999999997               0.000010972               0.000267502               0.999999997               0.000020013               0.000287710               0.999999997               0.000029995               0.000310089               0.999999997               0.000040697               0.000334174               0.999999997               0.000051837               0.000359687               0.999999997               0.000063332               0.000386570               0.999999997               0.000074974               0.000414710               0.999999997               0.000086827               0.000443955               0.999999997               0.000098954               0.000474170               0.999999997               0.000111356               0.000505017               0.999999997               0.000123785               0.000536418               0.999999997               0.000136184               0.000568036               0.999999997               0.000005035               0.000270385               0.999999997              -0.000008266               0.000253559               0.999999997              -0.000009949               0.000250433               0.999999997              -0.000007055               0.000255779               0.999999997              -0.000001922               0.000266750               0.999999997               0.000004788               0.000281748               0.999999997               0.000012601               0.000299683               0.999999997               0.000021321               0.000319853               0.999999997               0.000030837               0.000341768               0.999999997               0.000040749               0.000365102               0.999999997               0.000050743               0.000389825               0.999999997               0.000060727               0.000415812               0.999999997               0.000070835               0.000442856               0.999999997               0.000081029               0.000470772               0.999999997               0.000091348               0.000499518               0.999999997               0.000101673               0.000528877               0.999999997               0.000112108               0.000558690               0.999999997               0.000004703               0.000287276               0.999999997              -0.000008779               0.000274055               0.999999997              -0.000011540               0.000270912               0.999999997              -0.000009796               0.000274905               0.999999997              -0.000005796               0.000284021               0.999999997              -0.000000397               0.000297052               0.999999997               0.000006062               0.000312974               0.999999997               0.000013481               0.000331118               0.999999997               0.000021631               0.000351144               0.999999997               0.000030215               0.000372683               0.999999997               0.000038695               0.000395491               0.999999997               0.000047055               0.000419512               0.999999997               0.000055341               0.000444587               0.999999997               0.000063624               0.000470486               0.999999997               0.000071870               0.000497077               0.999999997               0.000079880               0.000524325               0.999999997               0.000087609               0.000552207               0.999999997               0.000004123               0.000301459               0.999999997              -0.000008348               0.000292204               0.999999997              -0.000011712               0.000289860               0.999999997              -0.000010978               0.000293218               0.999999997              -0.000008132               0.000301061               0.999999997              -0.000004040               0.000312562               0.999999997               0.000001043               0.000326862               0.999999997               0.000006934               0.000343415               0.999999997               0.000013614               0.000361800               0.999999997               0.000020683               0.000381794               0.999999997               0.000027712               0.000403161               0.999999997               0.000034383               0.000425701               0.999999997               0.000040909               0.000449223               0.999999997               0.000047382               0.000473554               0.999999997               0.000053495               0.000498498               0.999999997               0.000059015               0.000524048               0.999999997               0.000063868               0.000550191               0.999999997               0.000003321               0.000312717               0.999999997              -0.000007067               0.000307267               0.999999997              -0.000010413               0.000306165               0.999999997              -0.000010385               0.000309490               0.999999997              -0.000008601               0.000316638               0.999999997              -0.000005770               0.000327095               0.999999997              -0.000002096               0.000340227               0.999999997               0.000002266               0.000355444               0.999999997               0.000007371               0.000372519               0.999999997               0.000012872               0.000391260               0.999999997               0.000018348               0.000411528               0.999999997               0.000023456               0.000432955               0.999999997               0.000028311               0.000455349               0.999999997               0.000032896               0.000478640               0.999999997               0.000037112               0.000502638               0.999999997               0.000040477               0.000527146               0.999999997               0.000042695               0.000552159               0.999999997               0.000002326               0.000320885               0.999999997              -0.000005103               0.000318578               0.999999997              -0.000007792               0.000318790               0.999999997              -0.000008093               0.000322416               0.999999997              -0.000007077               0.000329270               0.999999997              -0.000005375               0.000339024               0.999999997              -0.000002997               0.000351313               0.999999997              -0.000000078               0.000365643               0.999999997               0.000003270               0.000381818               0.999999997               0.000006971               0.000399720               0.999999997               0.000010864               0.000419133               0.999999997               0.000014462               0.000439849               0.999999997               0.000017456               0.000461677               0.999999997               0.000020202               0.000484444               0.999999997               0.000022826               0.000507978               0.999999997               0.000024692               0.000532001               0.999999997               0.000025179               0.000556436               0.999999997               0.000001194               0.000325862               0.999999997              -0.000002671               0.000325578               0.999999997              -0.000004158               0.000326752               0.999999997              -0.000004415               0.000330698               0.999999997              -0.000003980               0.000337485               0.999999997              -0.000003207               0.000346908               0.999999997              -0.000002059               0.000358686               0.999999997              -0.000000569               0.000372609               0.999999997               0.000001048               0.000388362               0.999999997               0.000002879               0.000405718               0.999999997               0.000004974               0.000424608               0.999999997               0.000006744               0.000444958               0.999999997               0.000008078               0.000466522               0.999999997               0.000009421               0.000489079               0.999999997               0.000010682               0.000512457               0.999999997               0.000011536               0.000536403               0.999999997               0.000011506               0.000560716               0.999999997              -0.000000000               0.000327553               0.999999997               0.000000000               0.000327952               0.999999997              -0.000000000               0.000329471               0.999999997              -0.000000000               0.000333598               0.999999997               0.000000000               0.000340351               0.999999997              -0.000000000               0.000349604               0.999999997              -0.000000000               0.000361277               0.999999997              -0.000000000               0.000375179               0.999999997               0.000000000               0.000390780               0.999999997               0.000000000               0.000407926               0.999999997               0.000000000               0.000426640               0.999999997              -0.000000000               0.000446831               0.999999997              -0.000000000               0.000468299               0.999999997              -0.000000000               0.000490732               0.999999997               0.000000000               0.000514108               0.999999997               0.000000000               0.000538155               0.999999997               0.000000000               0.000562484               0.999999997 </DataArray>
<DataArray type="Float64"                                    Name="defo"                                                      NumberOfComponents=" 3" format="ascii">
             -0.000005402              -0.000000000               0.999999997              -0.000018491               0.000000000               0.999999997              -0.000025105               0.000000000               0.999999997              -0.000029223              -0.000000000               0.999999997              -0.000032487              -0.000000000               0.999999997              -0.000035749              -0.000000000               0.999999997              -0.000039318               0.000000000               0.999999997              -0.000043274              -0.000000000               0.999999997              -0.000047710              -0.000000000               0.999999997              -0.000052610              -0.000000000               0.999999997              -0.000057973              -0.000000000               0.999999997              -0.000063806              -0.000000000               0.999999997              -0.000070156               0.000000000               0.999999997              -0.000077020              -0.000000000               0.999999997              -0.000084447              -0.000000000               0.999999997              -0.000092454               0.000000000               0.999999997              -0.000100980               0.000000000               0.999999997              -0.000005413               0.000032147               0.999999997              -0.000018027               0.000028808               0.999999997              -0.000024349               0.000028092               0.999999997              -0.000028288               0.000028811               0.999999997              -0.000031553               0.000030506               0.999999997              -0.000034887               0.000032740               0.999999997              -0.000038510               0.000035413               0.999999997              -0.000042537               0.000038385               0.999999997              -0.000047072               0.000041546               0.999999997              -0.000052093               0.000044961               0.999999997              -0.000057612               0.000048561               0.999999997              -0.000063611               0.000052273               0.999999997              -0.000070065               0.000056128               0.999999997              -0.000077041               0.000060138               0.999999997              -0.000084551               0.000064163               0.999999997              -0.000092629               0.000068216               0.999999997              -0.000101292               0.000072161               0.999999997              -0.000005447               0.000063927               0.999999997              -0.000016584               0.000057256               0.999999997              -0.000022102               0.000055923               0.999999997              -0.000025756               0.000057543               0.999999997              -0.000028996               0.000060957               0.999999997              -0.000032383               0.000065514               0.999999997              -0.000036186               0.000070873               0.999999997              -0.000040517               0.000076831               0.999999997              -0.000045431               0.000083228               0.999999997              -0.000050905               0.000090091               0.999999997              -0.000056866               0.000097327               0.999999997              -0.000063302               0.000104683               0.999999997              -0.000070196               0.000112398               0.999999997              -0.000077573               0.000120443               0.999999997              -0.000085501               0.000128675               0.999999997              -0.000094008               0.000137030               0.999999997              -0.000103084               0.000145388               0.999999997              -0.000005469               0.000095038               0.999999997              -0.000014293               0.000085048               0.999999997              -0.000018704               0.000083359               0.999999997              -0.000021924               0.000086053               0.999999997              -0.000025161               0.000091292               0.999999997              -0.000028826               0.000098267               0.999999997              -0.000033075               0.000106432               0.999999997              -0.000038009               0.000115480               0.999999997              -0.000043577               0.000125199               0.999999997              -0.000049694               0.000135505               0.999999997              -0.000056393               0.000146339               0.999999997              -0.000063639               0.000157471               0.999999997              -0.000071354               0.000168969               0.999999997              -0.000079562               0.000181028               0.999999997              -0.000088274               0.000193512               0.999999997              -0.000097514               0.000206328               0.999999997              -0.000107279               0.000219381               0.999999997              -0.000005446               0.000125185               0.999999997              -0.000011226               0.000111969               0.999999997              -0.000014406               0.000110208               0.999999997              -0.000017357               0.000114125               0.999999997              -0.000020778               0.000121420               0.999999997              -0.000024993               0.000130887               0.999999997              -0.000030046               0.000141955               0.999999997              -0.000035827               0.000154154               0.999999997              -0.000042312               0.000167142               0.999999997              -0.000049443               0.000180874               0.999999997              -0.000057189               0.000195268               0.999999997              -0.000065512               0.000210071               0.999999997              -0.000074396               0.000225316               0.999999997              -0.000083743               0.000241261               0.999999997              -0.000093571               0.000257925               0.999999997              -0.000103883               0.000275153               0.999999997              -0.000114606               0.000292832               0.999999997              -0.000005393               0.000154012               0.999999997              -0.000007587               0.000137814               0.999999997              -0.000009636               0.000136274               0.999999997              -0.000012588               0.000141664               0.999999997              -0.000016566               0.000151107               0.999999997              -0.000021610               0.000163208               0.999999997              -0.000027630               0.000177132               0.999999997              -0.000034512               0.000192412               0.999999997              -0.000042195               0.000208688               0.999999997              -0.000050627               0.000225760               0.999999997              -0.000059724               0.000243636               0.999999997              -0.000069393               0.000262173               0.999999997              -0.000079555               0.000281227               0.999999997              -0.000090194               0.000301063               0.999999997              -0.000101272               0.000321892               0.999999997              -0.000112764               0.000343464               0.999999997              -0.000124595               0.000365620               0.999999997              -0.000005235               0.000181233               0.999999997              -0.000003634               0.000162522               0.999999997              -0.000004881               0.000161445               0.999999997              -0.000008169               0.000168404               0.999999997              -0.000013004               0.000180005               0.999999997              -0.000019099               0.000194689               0.999999997              -0.000026369               0.000211517               0.999999997              -0.000034642               0.000229884               0.999999997              -0.000043755               0.000249468               0.999999997              -0.000053612               0.000269963               0.999999997              -0.000063976               0.000291368               0.999999997              -0.000074878               0.000313737               0.999999997              -0.000086286               0.000336695               0.999999997              -0.000098234               0.000360640               0.999999997              -0.000110634               0.000385615               0.999999997              -0.000123379               0.000411367               0.999999997              -0.000136290               0.000437525               0.999999997              -0.000005032               0.000206541               0.999999997               0.000000359               0.000186053               0.999999997              -0.000000492               0.000185605               0.999999997              -0.000004502               0.000194086               0.999999997              -0.000010361               0.000207887               0.999999997              -0.000017774               0.000225225               0.999999997              -0.000026529               0.000244907               0.999999997              -0.000036265               0.000266374               0.999999997              -0.000046806               0.000289315               0.999999997              -0.000057948               0.000313373               0.999999997              -0.000069632               0.000338521               0.999999997              -0.000081861               0.000364743               0.999999997              -0.000094590               0.000391879               0.999999997              -0.000107797               0.000420045               0.999999997              -0.000121349               0.000449144               0.999999997              -0.000135033               0.000478754               0.999999997              -0.000148640               0.000508438               0.999999997              -0.000004923               0.000229542               0.999999997               0.000004233               0.000208362               0.999999997               0.000003158               0.000208503               0.999999997              -0.000001697               0.000218604               0.999999997              -0.000008817               0.000234618               0.999999997              -0.000017741               0.000254573               0.999999997              -0.000027907               0.000277178               0.999999997              -0.000039061               0.000301896               0.999999997              -0.000050923               0.000328266               0.999999997              -0.000063352               0.000356041               0.999999997              -0.000076310               0.000385192               0.999999997              -0.000089647               0.000415594               0.999999997              -0.000103401               0.000447106               0.999999997              -0.000117556               0.000479520               0.999999997              -0.000131819               0.000512530               0.999999997              -0.000145929               0.000545773               0.999999997              -0.000159985               0.000578980               0.999999997              -0.000005127               0.000251021               0.999999997               0.000006773               0.000231482               0.999999997               0.000007056               0.000229350               0.999999997               0.000003096               0.000236808               0.999999997              -0.000003096               0.000250130               0.999999997              -0.000010972               0.000267502               0.999999997              -0.000020013               0.000287710               0.999999997              -0.000029995               0.000310089               0.999999997              -0.000040697               0.000334174               0.999999997              -0.000051837               0.000359687               0.999999997              -0.000063332               0.000386570               0.999999997              -0.000074974               0.000414710               0.999999997              -0.000086827               0.000443955               0.999999997              -0.000098954               0.000474170               0.999999997              -0.000111356               0.000505017               0.999999997              -0.000123785               0.000536418               0.999999997              -0.000136184               0.000568036               0.999999997              -0.000005035               0.000270385               0.999999997               0.000008266               0.000253559               0.999999997               0.000009949               0.000250433               0.999999997               0.000007055               0.000255779               0.999999997               0.000001922               0.000266750               0.999999997              -0.000004788               0.000281748               0.999999997              -0.000012601               0.000299683               0.999999997              -0.000021321               0.000319853               0.999999997              -0.000030837               0.000341768               0.999999997              -0.000040749               0.000365102               0.999999997              -0.000050743               0.000389825               0.999999997              -0.000060727               0.000415812               0.999999997              -0.000070835               0.000442856               0.999999997              -0.000081029               0.000470772               0.999999997              -0.000091348               0.000499518               0.999999997              -0.000101673               0.000528877               0.999999997              -0.000112108               0.000558690               0.999999997              -0.000004703               0.000287276               0.999999997               0.000008779               0.000274055               0.999999997               0.000011540               0.000270912               0.999999997               0.000009796               0.000274905               0.999999997               0.000005796               0.000284021               0.999999997               0.000000397               0.000297052               0.999999997              -0.000006062               0.000312974               0.999999997              -0.000013481               0.000331118               0.999999997              -0.000021631               0.000351144               0.999999997              -0.000030215               0.000372683               0.999999997              -0.000038695               0.000395491               0.999999997              -0.000047055               0.000419512               0.999999997              -0.000055341               0.000444587               0.999999997              -0.000063624               0.000470486               0.999999997              -0.000071870               0.000497077               0.999999997              -0.000079880               0.000524325               0.999999997              -0.000087609               0.000552207               0.999999997              -0.000004123               0.000301459               0.999999997               0.000008348               0.000292204               0.999999997               0.000011712               0.000289860               0.999999997               0.000010978               0.000293218               0.999999997               0.000008132               0.000301061               0.999999997               0.000004040               0.000312562               0.999999997              -0.000001043               0.000326862               0.999999997              -0.000006934               0.000343415               0.999999997              -0.000013614               0.000361800               0.999999997              -0.000020683               0.000381794               0.999999997              -0.000027712               0.000403161               0.999999997              -0.000034383               0.000425701               0.999999997              -0.000040909               0.000449223               0.999999997              -0.000047382               0.000473554               0.999999997              -0.000053495               0.000498498               0.999999997              -0.000059015               0.000524048               0.999999997              -0.000063868               0.000550191               0.999999997              -0.000003321               0.000312717               0.999999997               0.000007067               0.000307267               0.999999997               0.000010413               0.000306165               0.999999997               0.000010385               0.000309490               0.999999997               0.000008601               0.000316638               0.999999997               0.000005770               0.000327095               0.999999997               0.000002096               0.000340227               0.999999997              -0.000002266               0.000355444               0.999999997              -0.000007371               0.000372519               0.999999997              -0.000012872               0.000391260               0.999999997              -0.000018348               0.000411528               0.999999997              -0.000023456               0.000432955               0.999999997              -0.000028311               0.000455349               0.999999997              -0.000032896               0.000478640               0.999999997              -0.000037112               0.000502638               0.999999997              -0.000040477               0.000527146               0.999999997              -0.000042695               0.000552159               0.999999997              -0.000002326               0.000320885               0.999999997               0.000005103               0.000318578               0.999999997               0.000007792               0.000318790               0.999999997               0.000008093               0.000322416               0.999999997               0.000007077               0.000329270               0.999999997               0.000005375               0.000339024               0.999999997               0.000002997               0.000351313               0.999999997               0.000000078               0.000365643               0.999999997              -0.000003270               0.000381818               0.999999997              -0.000006971               0.000399720               0.999999997              -0.000010864               0.000419133               0.999999997              -0.000014462               0.000439849               0.999999997              -0.000017456               0.000461677               0.999999997              -0.000020202               0.000484444               0.999999997              -0.000022826               0.000507978               0.999999997              -0.000024692               0.000532001               0.999999997              -0.000025179               0.000556436               0.999999997              -0.000001194               0.000325862               0.999999997               0.000002671               0.000325578               0.999999997               0.000004158               0.000326752               0.999999997               0.000004415               0.000330698               0.999999997               0.000003980               0.000337485               0.999999997               0.000003207               0.000346908               0.999999997               0.000002059               0.000358686               0.999999997               0.000000569               0.000372609               0.999999997              -0.000001048               0.000388362               0.999999997              -0.000002879               0.000405718               0.999999997              -0.000004974               0.000424608               0.999999997              -0.000006744               0.000444958               0.999999997              -0.000008078               0.000466522               0.999999997              -0.000009421               0.000489079               0.999999997              -0.000010682               0.000512457               0.999999997              -0.000011536               0.000536403               0.999999997              -0.000011506               0.000560716               0.999999997              -0.000000000               0.000327553               0.999999997               0.000000000               0.000327952               0.999999997              -0.000000000               0.000329471               0.999999997              -0.000000000               0.000333598               0.999999997               0.000000000               0.000340351               0.999999997              -0.000000000               0.000349604               0.999999997              -0.000000000               0.000361277               0.999999997              -0.000000000               0.000375179               0.999999997               0.000000000               0.000390780               0.999999997               0.000000000               0.000407926               0.999999997               0.000000000               0.000426640               0.999999997              -0.000000000               0.000446831               0.999999997              -0.000000000               0.000468299               0.999999997              -0.000000000               0.000490732               0.999999997               0.000000000               0.000514108               0.999999997               0.000000000               0.000538155               0.999999997               0.000000000               0.000562484               0.999999997              -0.000005402              -0.000000000               0.999999997              -0.000018491               0.000000000               0.999999997              -0.000025105               0.000000000               0.999999997              -0.000029223              -0.000000000               0.999999997              -0.000032487              -0.000000000               0.999999997              -0.000035749              -0.000000000               0.999999997              -0.000039318               0.000000000               0.999999997              -0.000043274              -0.000000000               0.999999997              -0.000047710              -0.000000000               0.999999997              -0.000052610              -0.000000000               0.999999997              -0.000057973              -0.000000000               0.999999997              -0.000063806              -0.000000000               0.999999997              -0.000070156               0.000000000               0.999999997              -0.000077020              -0.000000000               0.999999997              -0.000084447              -0.000000000               0.999999997              -0.000092454               0.000000000               0.999999997              -0.000100980               0.000000000               0.999999997              -0.000005413              -0.000032147               0.999999997              -0.000018027              -0.000028808               0.999999997              -0.000024349              -0.000028092               0.999999997              -0.000028288              -0.000028811               0.999999997              -0.000031553              -0.000030506               0.999999997              -0.000034887              -0.000032740               0.999999997              -0.000038510              -0.000035413               0.999999997              -0.000042537              -0.000038385               0.999999997              -0.000047072              -0.000041546               0.999999997              -0.000052093              -0.000044961               0.999999997              -0.000057612              -0.000048561               0.999999997              -0.000063611              -0.000052273               0.999999997              -0.000070065              -0.000056128               0.999999997              -0.000077041              -0.000060138               0.999999997              -0.000084551              -0.000064163               0.999999997              -0.000092629              -0.000068216               0.999999997              -0.000101292              -0.000072161               0.999999997              -0.000005447              -0.000063927               0.999999997              -0.000016584              -0.000057256               0.999999997              -0.000022102              -0.000055923               0.999999997              -0.000025756              -0.000057543               0.999999997              -0.000028996              -0.000060957               0.999999997              -0.000032383              -0.000065514               0.999999997              -0.000036186              -0.000070873               0.999999997              -0.000040517              -0.000076831               0.999999997              -0.000045431              -0.000083228               0.999999997              -0.000050905              -0.000090091               0.999999997              -0.000056866              -0.000097327               0.999999997              -0.000063302              -0.000104683               0.999999997              -0.000070196              -0.000112398               0.999999997              -0.000077573              -0.000120443               0.999999997              -0.000085501              -0.000128675               0.999999997              -0.000094008              -0.000137030               0.999999997              -0.000103084              -0.000145388               0.999999997              -0.000005469              -0.000095038               0.999999997              -0.000014293              -0.000085048               0.999999997              -0.000018704              -0.000083359               0.999999997              -0.000021924              -0.000086053               0.999999997              -0.000025161              -0.000091292               0.999999997              -0.000028826              -0.000098267               0.999999997              -0.000033075              -0.000106432               0.999999997              -0.000038009              -0.000115480               0.999999997              -0.000043577              -0.000125199               0.999999997              -0.000049694              -0.000135505               0.999999997              -0.000056393              -0.000146339               0.999999997              -0.000063639              -0.000157471               0.999999997              -0.000071354              -0.000168969               0.999999997              -0.000079562              -0.000181028               0.999999997              -0.000088274              -0.000193512               0.999999997              -0.000097514              -0.000206328               0.999999997              -0.000107279              -0.000219381               0.999999997              -0.000005446              -0.000125185               0.999999997              -0.000011226              -0.000111969               0.999999997              -0.000014406              -0.000110208               0.999999997              -0.000017357              -0.000114125               0.999999997              -0.000020778              -0.000121420               0.999999997              -0.000024993              -0.000130887               0.999999997              -0.000030046              -0.000141955               0.999999997              -0.000035827              -0.000154154               0.999999997              -0.000042312              -0.000167142               0.999999997              -0.000049443              -0.000180874               0.999999997              -0.000057189              -0.000195268               0.999999997              -0.000065512              -0.000210071               0.999999997              -0.000074396              -0.000225316               0.999999997              -0.000083743              -0.000241261               0.999999997              -0.000093571              -0.000257925               0.999999997              -0.000103883              -0.000275153               0.999999997              -0.000114606              -0.000292832               0.999999997              -0.000005393              -0.000154012               0.999999997              -0.000007587              -0.000137814               0.999999997              -0.000009636              -0.000136274               0.999999997              -0.000012588              -0.000141664               0.999999997              -0.000016566              -0.000151107               0.999999997              -0.000021610              -0.000163208               0.999999997              -0.000027630              -0.000177132               0.999999997              -0.000034512              -0.000192412               0.999999997              -0.000042195              -0.000208688               0.999999997              -0.000050627              -0.000225760               0.999999997              -0.000059724              -0.000243636               0.999999997              -0.000069393              -0.000262173               0.999999997              -0.000079555              -0.000281227               0.999999997              -0.000090194              -0.000301063               0.999999997              -0.000101272              -0.000321892               0.999999997              -0.000112764              -0.000343464               0.999999997              -0.000124595              -0.000365620               0.999999997              -0.000005235              -0.000181233               0.999999997              -0.000003634              -0.000162522               0.999999997              -0.000004881              -0.000161445               0.999999997              -0.000008169              -0.000168404               0.999999997              -0.000013004              -0.000180005               0.999999997              -0.000019099              -0.000194689               0.999999997              -0.000026369              -0.000211517               0.999999997              -0.000034642              -0.000229884               0.999999997              -0.000043755              -0.000249468               0.999999997              -0.000053612              -0.000269963               0.999999997              -0.000063976              -0.000291368               0.999999997              -0.000074878              -0.000313737               0.999999997              -0.000086286              -0.000336695               0.999999997              -0.000098234              -0.000360640               0.999999997              -0.000110634              -0.000385615               0.999999997              -0.000123379              -0.000411367               0.999999997              -0.000136290              -0.000437525               0.999999997              -0.000005032              -0.000206541               0.999999997               0.000000359              -0.000186053               0.999999997              -0.000000492              -0.000185605               0.999999997              -0.000004502              -0.000194086               0.999999997              -0.000010361              -0.000207887               0.999999997              -0.000017774              -0.000225225               0.999999997              -0.000026529              -0.000244907               0.999999997              -0.000036265              -0.000266374               0.999999997              -0.000046806              -0.000289315               0.999999997              -0.000057948              -0.000313373               0.999999997              -0.000069632              -0.000338521               0.999999997              -0.000081861              -0.000364743               0.999999997              -0.000094590              -0.000391879               0.999999997              -0.000107797              -0.000420045               0.999999997              -0.000121349              -0.000449144               0.999999997              -0.000135033              -0.000478754               0.999999997              -0.000148640              -0.000508438               0.999999997              -0.000004923              -0.000229542               0.999999997               0.000004233              -0.000208362               0.999999997               0.000003158              -0.000208503               0.999999997              -0.000001697              -0.000218604               0.999999997              -0.000008817              -0.000234618               0.999999997              -0.000017741              -0.000254573               0.999999997              -0.000027907              -0.000277178               0.999999997              -0.000039061              -0.000301896               0.999999997              -0.000050923              -0.000328266               0.999999997              -0.000063352              -0.000356041               0.999999997              -0.000076310              -0.000385192               0.999999997              -0.000089647              -0.000415594               0.999999997              -0.000103401              -0.000447106               0.999999997              -0.000117556              -0.000479520               0.999999997              -0.000131819              -0.000512530               0.999999997              -0.000145929              -0.000545773               0.999999997              -0.000159985              -0.000578980               0.999999997              -0.000005127              -0.000251021               0.999999997               0.000006773              -0.000231482               0.999999997               0.000007056              -0.000229350               0.999999997               0.000003096              -0.000236808               0.999999997              -0.000003096              -0.000250130               0.999999997              -0.000010972              -0.000267502               0.999999997              -0.000020013              -0.000287710               0.999999997              -0.000029995              -0.000310089               0.999999997              -0.000040697              -0.000334174               0.999999997              -0.000051837              -0.000359687               0.999999997              -0.000063332              -0.000386570               0.999999997              -0.000074974              -0.000414710               0.999999997              -0.000086827              -0.000443955               0.999999997              -0.000098954              -0.000474170               0.999999997              -0.000111356              -0.000505017               0.999999997              -0.000123785              -0.000536418               0.999999997              -0.000136184              -0.000568036               0.999999997              -0.000005035              -0.000270385               0.999999997               0.000008266              -0.000253559               0.999999997               0.000009949              -0.000250433               0.999999997               0.000007055              -0.000255779               0.999999997               0.000001922              -0.000266750               0.999999997              -0.000004788              -0.000281748               0.999999997              -0.000012601              -0.000299683               0.999999997              -0.000021321              -0.000319853               0.999999997              -0.000030837              -0.000341768               0.999999997              -0.000040749              -0.000365102               0.999999997              -0.000050743              -0.000389825               0.999999997              -0.000060727              -0.000415812               0.999999997              -0.000070835              -0.000442856               0.999999997              -0.000081029              -0.000470772               0.999999997              -0.000091348              -0.000499518               0.999999997              -0.000101673              -0.000528877               0.999999997              -0.000112108              -0.000558690               0.999999997              -0.000004703              -0.000287276               0.999999997               0.000008779              -0.000274055               0.999999997               0.000011540              -0.000270912               0.999999997               0.000009796              -0.000274905               0.999999997               0.000005796              -0.000284021               0.999999997               0.000000397              -0.000297052               0.999999997              -0.000006062              -0.000312974               0.999999997              -0.000013481              -0.000331118               0.999999997              -0.000021631              -0.000351144               0.999999997              -0.000030215              -0.000372683               0.999999997              -0.000038695              -0.000395491               0.999999997              -0.000047055              -0.000419512               0.999999997              -0.000055341              -0.000444587               0.999999997              -0.000063624              -0.000470486               0.999999997              -0.000071870              -0.000497077               0.999999997              -0.000079880              -0.000524325               0.999999997              -0.000087609              -0.000552207               0.999999997              -0.000004123              -0.000301459               0.999999997               0.000008348              -0.000292204               0.999999997               0.000011712              -0.000289860               0.999999997               0.000010978              -0.000293218               0.999999997               0.000008132              -0.000301061               0.999999997               0.000004040              -0.000312562               0.999999997              -0.000001043              -0.000326862               0.999999997              -0.000006934              -0.000343415               0.999999997              -0.000013614              -0.000361800               0.999999997              -0.000020683              -0.000381794               0.999999997              -0.000027712              -0.000403161               0.999999997              -0.000034383              -0.000425701               0.999999997              -0.000040909              -0.000449223               0.999999997              -0.000047382              -0.000473554               0.999999997              -0.000053495              -0.000498498               0.999999997              -0.000059015              -0.000524048               0.999999997              -0.000063868              -0.000550191               0.999999997              -0.000003321              -0.000312717               0.999999997               0.000007067              -0.000307267               0.999999997               0.000010413              -0.000306165               0.999999997               0.000010385              -0.000309490               0.999999997               0.000008601              -0.000316638               0.999999997               0.000005770              -0.000327095               0.999999997               0.000002096              -0.000340227               0.999999997              -0.000002266              -0.000355444               0.999999997              -0.000007371              -0.000372519               0.999999997              -0.000012872              -0.000391260               0.999999997              -0.000018348              -0.000411528               0.999999997              -0.000023456              -0.000432955               0.999999997              -0.000028311              -0.000455349               0.999999997              -0.000032896              -0.000478640               0.999999997              -0.000037112              -0.000502638               0.999999997              -0.000040477              -0.000527146               0.999999997              -0.000042695              -0.000552159               0.999999997              -0.000002326              -0.000320885               0.999999997               0.000005103              -0.000318578               0.999999997               0.000007792              -0.000318790               0.999999997               0.000008093              -0.000322416               0.999999997               0.000007077              -0.000329270               0.999999997               0.000005375              -0.000339024               0.999999997               0.000002997              -0.000351313               0.999999997               0.000000078              -0.000365643               0.999999997              -0.000003270              -0.000381818               0.999999997              -0.000006971              -0.000399720               0.999999997              -0.000010864              -0.000419133               0.999999997              -0.000014462              -0.000439849               0.999999997              -0.000017456              -0.000461677               0.999999997              -0.000020202              -0.000484444               0.999999997              -0.000022826              -0.000507978               0.999999997              -0.000024692              -0.000532001               0.999999997              -0.000025179              -0.000556436               0.999999997              -0.000001194              -0.000325862               0.999999997               0.000002671              -0.000325578               0.999999997               0.000004158              -0.000326752               0.999999997               0.000004415              -0.000330698               0.999999997               0.000003980              -0.000337485               0.999999997               0.000003207              -0.000346908               0.999999997               0.000002059              -0.000358686               0.999999997               0.000000569              -0.000372609               0.999999997              -0.000001048              -0.000388362               0.999999997              -0.000002879              -0.000405718               0.999999997              -0.000004974              -0.000424608               0.999999997              -0.000006744              -0.000444958               0.999999997              -0.000008078              -0.000466522               0.999999997              -0.000009421              -0.000489079               0.999999997              -0.000010682              -0.000512457               0.999999997              -0.000011536              -0.000536403               0.999999997              -0.000011506              -0.000560716               0.999999997              -0.000000000              -0.000327553               0.999999997              -0.000000000              -0.000327952               0.999999997              -0.000000000              -0.000329471               0.999999997              -0.000000000              -0.000333598               0.999999997               0.000000000              -0.000340351               0.999999997              -0.000000000              -0.000349604               0.999999997              -0.000000000              -0.000361277               0.999999997              -0.000000000              -0.000375179               0.999999997              -0.000000000              -0.000390780               0.999999997              -0.000000000              -0.000407926               0.999999997              -0.000000000              -0.000426640               0.999999997              -0.000000000              -0.000446831               0.999999997               0.000000000              -0.000468299               0.999999997               0.000000000              -0.000490732               0.999999997               0.000000000              -0.000514108               0.999999997               0.000000000              -0.000538155               0.999999997               0.000000000              -0.000562484               0.999999997               0.000005402               0.000000000               0.999999997               0.000018491              -0.000000000               0.999999997               0.000025105              -0.000000000               0.999999997               0.000029223              -0.000000000               0.999999997               0.000032487               0.000000000               0.999999997               0.000035749              -0.000000000               0.999999997               0.000039318               0.000000000               0.999999997               0.000043274               0.000000000               0.999999997               0.000047710               0.000000000               0.999999997               0.000052610               0.000000000               0.999999997               0.000057973               0.000000000               0.999999997               0.000063806               0.000000000               0.999999997               0.000070156               0.000000000               0.999999997               0.000077020               0.000000000               0.999999997               0.000084447               0.000000000               0.999999997               0.000092454               0.000000000               0.999999997               0.000100980               0.000000000               0.999999997               0.000005413              -0.000032147               0.999999997               0.000018027              -0.000028808               0.999999997               0.000024349              -0.000028092               0.999999997               0.000028288              -0.000028811               0.999999997               0.000031553              -0.000030506               0.999999997               0.000034887              -0.000032740               0.999999997               0.000038510              -0.000035413               0.999999997               0.000042537              -0.000038385               0.999999997               0.000047072              -0.000041546               0.999999997               0.000052093              -0.000044961               0.999999997               0.000057612              -0.000048561               0.999999997               0.000063611              -0.000052273               0.999999997               0.000070065              -0.000056128               0.999999997               0.000077041              -0.000060138               0.999999997               0.000084551              -0.000064163               0.999999997               0.000092629              -0.000068216               0.999999997               0.000101292              -0.000072161               0.999999997               0.000005447              -0.000063927               0.999999997               0.000016584              -0.000057256               0.999999997               0.000022102              -0.000055923               0.999999997               0.000025756              -0.000057543               0.999999997               0.000028996              -0.000060957               0.999999997               0.000032383              -0.000065514               0.999999997               0.000036186              -0.000070873               0.999999997               0.000040517              -0.000076831               0.999999997               0.000045431              -0.000083228               0.999999997               0.000050905              -0.000090091               0.999999997               0.000056866              -0.000097327               0.999999997               0.000063302              -0.000104683               0.999999997               0.000070196              -0.000112398               0.999999997               0.000077573              -0.000120443               0.999999997               0.000085501              -0.000128675               0.999999997               0.000094008              -0.000137030               0.999999997               0.000103084              -0.000145388               0.999999997               0.000005469              -0.000095038               0.999999997               0.000014293              -0.000085048               0.999999997               0.000018704              -0.000083359               0.999999997               0.000021924              -0.000086053               0.999999997               0.000025161              -0.000091292               0.999999997               0.000028826              -0.000098267               0.999999997               0.000033075              -0.000106432               0.999999997               0.000038009              -0.000115480               0.999999997               0.000043577              -0.000125199               0.999999997               0.000049694              -0.000135505               0.999999997               0.000056393              -0.000146339               0.999999997               0.000063639              -0.000157471               0.999999997               0.000071354              -0.000168969               0.999999997               0.000079562              -0.000181028               0.999999997               0.000088274              -0.000193512               0.999999997               0.000097514              -0.000206328               0.999999997               0.000107279              -0.000219381               0.999999997               0.000005446              -0.000125185               0.999999997               0.000011226              -0.000111969               0.999999997               0.000014406              -0.000110208               0.999999997               0.000017357              -0.000114125               0.999999997               0.000020778              -0.000121420               0.999999997               0.000024993              -0.000130887               0.999999997               0.000030046              -0.000141955               0.999999997               0.000035827              -0.000154154               0.999999997               0.000042312              -0.000167142               0.999999997               0.000049443              -0.000180874               0.999999997               0.000057189              -0.000195268               0.999999997               0.000065512              -0.000210071               0.999999997               0.000074396              -0.000225316               0.999999997               0.000083743              -0.000241261               0.999999997               0.000093571              -0.000257925               0.999999997               0.000103883              -0.000275153               0.999999997               0.000114606              -0.000292832               0.999999997               0.000005393              -0.000154012               0.999999997               0.000007587              -0.000137814               0.999999997               0.000009636              -0.000136274               0.999999997               0.000012588              -0.000141664               0.999999997               0.000016566              -0.000151107               0.999999997               0.000021610              -0.000163208               0.999999997               0.000027630              -0.000177132               0.999999997               0.000034512              -0.000192412               0.999999997               0.000042195              -0.000208688               0.999999997               0.000050627              -0.000225760               0.999999997               0.000059724              -0.000243636               0.999999997               0.000069393              -0.000262173               0.999999997               0.000079555              -0.000281227               0.999999997               0.000090194              -0.000301063               0.999999997               0.000101272              -0.000321892               0.999999997               0.000112764              -0.000343464               0.999999997               0.000124595              -0.000365620               0.999999997               0.000005235              -0.000181233               0.999999997               0.000003634              -0.000162522               0.999999997               0.000004881              -0.000161445               0.999999997               0.000008169              -0.000168404               0.999999997               0.000013004              -0.000180005               0.999999997               0.000019099              -0.000194689               0.999999997               0.000026369              -0.000211517               0.999999997               0.000034642              -0.000229884               0.999999997               0.000043755              -0.000249468               0.999999997               0.000053612              -0.000269963               0.999999997               0.000063976              -0.000291368               0.999999997               0.000074878              -0.000313737               0.999999997               0.000086286              -0.000336695               0.999999997               0.000098234              -0.000360640               0.999999997               0.000110634              -0.000385615               0.999999997               0.000123379              -0.000411367               0.999999997               0.000136290              -0.000437525               0.999999997               0.000005032              -0.000206541               0.999999997              -0.000000359              -0.000186053               0.999999997               0.000000492              -0.000185605               0.999999997               0.000004502              -0.000194086               0.999999997               0.000010361              -0.000207887               0.999999997               0.000017774              -0.000225225               0.999999997               0.000026529              -0.000244907               0.999999997               0.000036265              -0.000266374               0.999999997               0.000046806              -0.000289315               0.999999997               0.000057948              -0.000313373               0.999999997               0.000069632              -0.000338521               0.999999997               0.000081861              -0.000364743               0.999999997               0.000094590              -0.000391879               0.999999997               0.000107797              -0.000420045               0.999999997               0.000121349              -0.000449144               0.999999997               0.000135033              -0.000478754               0.999999997               0.000148640              -0.000508438               0.999999997               0.000004923              -0.000229542               0.999999997              -0.000004233              -0.000208362               0.999999997              -0.000003158              -0.000208503               0.999999997               0.000001697              -0.000218604               0.999999997               0.000008817              -0.000234618               0.999999997               0.000017741              -0.000254573               0.999999997               0.000027907              -0.000277178               0.999999997               0.000039061              -0.000301896               0.999999997               0.000050923              -0.000328266               0.999999997               0.000063352              -0.000356041               0.999999997               0.000076310              -0.000385192               0.999999997               0.000089647              -0.000415594               0.999999997               0.000103401              -0.000447106               0.999999997               0.000117556              -0.000479520               0.999999997               0.000131819              -0.000512530               0.999999997               0.000145929              -0.000545773               0.999999997               0.000159985              -0.000578980               0.999999997               0.000005127              -0.000251021               0.999999997              -0.000006773              -0.000231482               0.999999997              -0.000007056              -0.000229350               0.999999997              -0.000003096              -0.000236808               0.999999997               0.000003096              -0.000250130               0.999999997               0.000010972              -0.000267502               0.999999997               0.000020013              -0.000287710               0.999999997               0.000029995              -0.000310089               0.999999997               0.000040697              -0.000334174               0.999999997               0.000051837              -0.000359687               0.999999997               0.000063332              -0.000386570               0.999999997               0.000074974              -0.000414710               0.999999997               0.000086827              -0.000443955               0.999999997               0.000098954              -0.000474170               0.999999997               0.000111356              -0.000505017               0.999999997               0.000123785              -0.000536418               0.999999997               0.000136184              -0.000568036               0.999999997               0.000005035              -0.000270385               0.999999997              -0.000008266              -0.000253559               0.999999997              -0.000009949              -0.000250433               0.999999997              -0.000007055              -0.000255779               0.999999997              -0.000001922              -0.000266750               0.999999997               0.000004788              -0.000281748               0.999999997               0.000012601              -0.000299683               0.999999997               0.000021321              -0.000319853               0.999999997               0.000030837              -0.000341768               0.999999997               0.000040749              -0.000365102               0.999999997               0.000050743              -0.000389825               0.999999997               0.000060727              -0.000415812               0.999999997               0.000070835              -0.000442856               0.999999997               0.000081029              -0.000470772               0.999999997               0.000091348              -0.000499518               0.999999997               0.000101673              -0.000528877               0.999999997               0.000112108              -0.000558690               0.999999997               0.000004703              -0.000287276               0.999999997              -0.000008779              -0.000274055               0.999999997              -0.000011540              -0.000270912               0.999999997              -0.000009796              -0.000274905               0.999999997              -0.000005796              -0.000284021               0.999999997              -0.000000397              -0.000297052               0.999999997               0.000006062              -0.000312974               0.999999997               0.000013481              -0.000331118               0.999999997               0.000021631              -0.000351144               0.999999997               0.000030215              -0.000372683               0.999999997               0.000038695              -0.000395491               0.999999997               0.000047055              -0.000419512               0.999999997               0.000055341              -0.000444587               0.999999997               0.000063624              -0.000470486               0.999999997               0.000071870              -0.000497077               0.999999997               0.000079880              -0.000524325               0.999999997               0.000087609              -0.000552207               0.999999997               0.000004123              -0.000301459               0.999999997              -0.000008348              -0.000292204               0.999999997              -0.000011712              -0.000289860               0.999999997              -0.000010978              -0.000293218               0.999999997              -0.000008132              -0.000301061               0.999999997              -0.000004040              -0.000312562               0.999999997               0.000001043              -0.000326862               0.999999997               0.000006934              -0.000343415               0.999999997               0.000013614              -0.000361800               0.999999997               0.000020683              -0.000381794               0.999999997               0.000027712              -0.000403161               0.999999997               0.000034383              -0.000425701               0.999999997               0.000040909              -0.000449223               0.999999997               0.000047382              -0.000473554               0.999999997               0.000053495              -0.000498498               0.999999997               0.000059015              -0.000524048               0.999999997               0.000063868              -0.000550191               0.999999997               0.000003321              -0.000312717               0.999999997              -0.000007067              -0.000307267               0.999999997              -0.000010413              -0.000306165               0.999999997              -0.000010385              -0.000309490               0.999999997              -0.000008601              -0.000316638               0.999999997              -0.000005770              -0.000327095               0.999999997              -0.000002096              -0.000340227               0.999999997               0.000002266              -0.000355444               0.999999997               0.000007371              -0.000372519               0.999999997               0.000012872              -0.000391260               0.999999997               0.000018348              -0.000411528               0.999999997               0.000023456              -0.000432955               0.999999997               0.000028311              -0.000455349               0.999999997               0.000032896              -0.000478640               0.999999997               0.000037112              -0.000502638               0.999999997               0.000040477              -0.000527146               0.999999997               0.000042695              -0.000552159               0.999999997               0.000002326              -0.000320885               0.999999997              -0.000005103              -0.000318578               0.999999997              -0.000007792              -0.000318790               0.999999997              -0.000008093              -0.000322416               0.999999997              -0.000007077              -0.000329270               0.999999997              -0.000005375              -0.000339024               0.999999997              -0.000002997              -0.000351313               0.999999997              -0.000000078              -0.000365643               0.999999997               0.000003270              -0.000381818               0.999999997               0.000006971              -0.000399720               0.999999997               0.000010864              -0.000419133               0.999999997               0.000014462              -0.000439849               0.999999997               0.000017456              -0.000461677               0.999999997               0.000020202              -0.000484444               0.999999997               0.000022826              -0.000507978               0.999999997               0.000024692              -0.000532001               0.999999997               0.000025179              -0.000556436               0.999999997               0.000001194              -0.000325862               0.999999997              -0.000002671              -0.000325578               0.999999997              -0.000004158              -0.000326752               0.999999997              -0.000004415              -0.000330698               0.999999997              -0.000003980              -0.000337485               0.999999997              -0.000003207              -0.000346908               0.999999997              -0.000002059              -0.000358686               0.999999997              -0.000000569              -0.000372609               0.999999997               0.000001048              -0.000388362               0.999999997               0.000002879              -0.000405718               0.999999997               0.000004974              -0.000424608               0.999999997               0.000006744              -0.000444958               0.999999997               0.000008078              -0.000466522               0.999999997               0.000009421              -0.000489079               0.999999997               0.000010682              -0.000512457               0.999999997               0.000011536              -0.000536403               0.999999997               0.000011506              -0.000560716               0.999999997              -0.000000000              -0.000327553               0.999999997              -0.000000000              -0.000327952               0.999999997              -0.000000000              -0.000329471               0.999999997              -0.000000000              -0.000333598               0.999999997               0.000000000              -0.000340351               0.999999997              -0.000000000              -0.000349604               0.999999997              -0.000000000              -0.000361277               0.999999997              -0.000000000              -0.000375179               0.999999997              -0.000000000              -0.000390780               0.999999997              -0.000000000              -0.000407926               0.999999997              -0.000000000              -0.000426640               0.999999997              -0.000000000              -0.000446831               0.999999997               0.000000000              -0.000468299               0.999999997               0.000000000              -0.000490732               0.999999997               0.000000000              -0.000514108               0.999999997               0.000000000              -0.000538155               0.999999997               0.000000000              -0.000562484               0.999999997               0.000005402               0.000000000               0.999999997               0.000018491              -0.000000000               0.999999997               0.000025105              -0.000000000               0.999999997               0.000029223              -0.000000000               0.999999997               0.000032487               0.000000000               0.999999997               0.000035749              -0.000000000               0.999999997               0.000039318               0.000000000               0.999999997               0.000043274               0.000000000               0.999999997               0.000047710               0.000000000               0.999999997               0.000052610               0.000000000               0.999999997               0.000057973               0.000000000               0.999999997               0.000063806               0.000000000               0.999999997               0.000070156               0.000000000               0.999999997               0.000077020               0.000000000               0.999999997               0.000084447               0.000000000               0.999999997               0.000092454               0.000000000               0.999999997               0.000100980               0.000000000               0.999999997               0.000005413               0.000032147               0.999999997               0.000018027               0.000028808               0.999999997               0.000024349               0.000028092               0.999999997               0.000028288               0.000028811               0.999999997               0.000031553               0.000030506               0.999999997               0.000034887               0.000032740               0.999999997               0.000038510               0.000035413               0.999999997               0.000042537               0.000038385               0.999999997               0.000047072               0.000041546               0.999999997               0.000052093               0.000044961               0.999999997               0.000057612               0.000048561               0.999999997               0.000063611               0.000052273               0.999999997               0.000070065               0.000056128               0.999999997               0.000077041               0.000060138               0.999999997               0.000084551               0.000064163               0.999999997               0.000092629               0.000068216               0.999999997               0.000101292               0.000072161               0.999999997               0.000005447               0.000063927               0.999999997               0.000016584               0.000057256               0.999999997               0.000022102               0.000055923               0.999999997               0.000025756               0.000057543               0.999999997               0.000028996               0.000060957               0.999999997               0.000032383               0.000065514               0.999999997               0.000036186               0.000070873               0.999999997               0.000040517               0.000076831               0.999999997               0.000045431               0.000083228               0.999999997               0.000050905               0.000090091               0.999999997               0.000056866               0.000097327               0.999999997               0.000063302               0.000104683               0.999999997               0.000070196               0.000112398               0.999999997               0.000077573               0.000120443               0.999999997               0.000085501               0.000128675               0.999999997               0.000094008               0.000137030               0.999999997               0.000103084               0.000145388               0.999999997               0.000005469               0.000095038               0.999999997               0.000014293               0.000085048               0.999999997               0.000018704               0.000083359               0.999999997               0.000021924               0.000086053               0.999999997               0.000025161               0.000091292               0.999999997               0.000028826               0.000098267               0.999999997               0.000033075               0.000106432               0.999999997               0.000038009               0.000115480               0.999999997               0.000043577               0.000125199               0.999999997               0.000049694               0.000135505               0.999999997               0.000056393               0.000146339               0.999999997               0.000063639               0.000157471               0.999999997               0.000071354               0.000168969               0.999999997               0.000079562               0.000181028               0.999999997               0.000088274               0.000193512               0.999999997               0.000097514               0.000206328               0.999999997               0.000107279               0.000219381               0.999999997               0.000005446               0.000125185               0.999999997               0.000011226               0.000111969               0.999999997               0.000014406               0.000110208               0.999999997               0.000017357               0.000114125               0.999999997               0.000020778               0.000121420               0.999999997               0.000024993               0.000130887               0.999999997               0.000030046               0.000141955               0.999999997               0.000035827               0.000154154               0.999999997               0.000042312               0.000167142               0.999999997               0.000049443               0.000180874               0.999999997               0.000057189               0.000195268               0.999999997               0.000065512               0.000210071               0.999999997               0.000074396               0.000225316               0.999999997               0.000083743               0.000241261               0.999999997               0.000093571               0.000257925               0.999999997               0.000103883               0.000275153               0.999999997               0.000114606               0.000292832               0.999999997               0.000005393               0.000154012               0.999999997               0.000007587               0.000137814               0.999999997               0.000009636               0.000136274               0.999999997               0.000012588               0.000141664               0.999999997               0.000016566               0.000151107               0.999999997               0.000021610               0.000163208               0.999999997               0.000027630               0.000177132               0.999999997               0.000034512               0.000192412               0.999999997               0.000042195               0.000208688               0.999999997               0.000050627               0.000225760               0.999999997               0.000059724               0.000243636               0.999999997               0.000069393               0.000262173               0.999999997               0.000079555               0.000281227               0.999999997               0.000090194               0.000301063               0.999999997               0.000101272               0.000321892               0.999999997               0.000112764               0.000343464               0.999999997               0.000124595               0.000365620               0.999999997               0.000005235               0.000181233               0.999999997               0.000003634               0.000162522               0.999999997               0.000004881               0.000161445               0.999999997               0.000008169               0.000168404               0.999999997               0.000013004               0.000180005               0.999999997               0.000019099               0.000194689               0.999999997               0.000026369               0.000211517               0.999999997               0.000034642               0.000229884               0.999999997               0.000043755               0.000249468               0.999999997               0.000053612               0.000269963               0.999999997               0.000063976               0.000291368               0.999999997               0.000074878               0.000313737               0.999999997               0.000086286               0.000336695               0.999999997               0.000098234               0.000360640               0.999999997               0.000110634               0.000385615               0.999999997               0.000123379               0.000411367               0.999999997               0.000136290               0.000437525               0.999999997               0.000005032               0.000206541               0.999999997              -0.000000359               0.000186053               0.999999997               0.000000492               0.000185605               0.999999997               0.000004502               0.000194086               0.999999997               0.000010361               0.000207887               0.999999997               0.000017774               0.000225225               0.999999997               0.000026529               0.000244907               0.999999997               0.000036265               0.000266374               0.999999997               0.000046806               0.000289315               0.999999997               0.000057948               0.000313373               0.999999997               0.000069632               0.000338521               0.999999997               0.000081861               0.000364743               0.999999997               0.000094590               0.000391879               0.999999997               0.000107797               0.000420045               0.999999997               0.000121349               0.000449144               0.999999997               0.000135033               0.000478754               0.999999997               0.000148640               0.000508438               0.999999997               0.000004923               0.000229542               0.999999997              -0.000004233               0.000208362               0.999999997              -0.000003158               0.000208503               0.999999997               0.000001697               0.000218604               0.999999997               0.000008817               0.000234618               0.999999997               0.000017741               0.000254573               0.999999997               0.000027907               0.000277178               0.999999997               0.000039061               0.000301896               0.999999997               0.000050923               0.000328266               0.999999997               0.000063352               0.000356041               0.999999997               0.000076310               0.000385192               0.999999997               0.000089647               0.000415594               0.999999997               0.000103401               0.000447106               0.999999997               0.000117556               0.000479520               0.999999997               0.000131819               0.000512530               0.999999997               0.000145929               0.000545773               0.999999997               0.000159985               0.000578980               0.999999997               0.000005127               0.000251021               0.999999997              -0.000006773               0.000231482               0.999999997              -0.000007056               0.000229350               0.999999997              -0.000003096               0.000236808               0.999999997               0.000003096               0.000250130               0.999999997               0.000010972               0.000267502               0.999999997               0.000020013               0.000287710               0.999999997               0.000029995               0.000310089               0.999999997               0.000040697               0.000334174               0.999999997               0.000051837               0.000359687               0.999999997               0.000063332               0.000386570               0.999999997               0.000074974               0.000414710               0.999999997               0.000086827               0.000443955               0.999999997               0.000098954               0.000474170               0.999999997               0.000111356               0.000505017               0.999999997               0.000123785               0.000536418               0.999999997               0.000136184               0.000568036               0.999999997               0.000005035               0.000270385               0.999999997              -0.000008266               0.000253559               0.999999997              -0.000009949               0.000250433               0.999999997              -0.000007055               0.000255779               0.999999997              -0.000001922               0.000266750               0.999999997               0.000004788               0.000281748               0.999999997               0.000012601               0.000299683               0.999999997               0.000021321               0.000319853               0.999999997               0.000030837               0.000341768               0.999999997               0.000040749               0.000365102               0.999999997               0.000050743               0.000389825               0.999999997               0.000060727               0.000415812               0.999999997               0.000070835               0.000442856               0.999999997               0.000081029               0.000470772               0.999999997               0.000091348               0.000499518               0.999999997               0.000101673               0.000528877               0.999999997               0.000112108               0.000558690               0.999999997               0.000004703               0.000287276               0.999999997              -0.000008779               0.000274055               0.999999997              -0.000011540               0.000270912               0.999999997              -0.000009796               0.000274905               0.999999997              -0.000005796               0.000284021               0.999999997              -0.000000397               0.000297052               0.999999997               0.000006062               0.000312974               0.999999997               0.000013481               0.000331118               0.999999997               0.000021631               0.000351144               0.999999997               0.000030215               0.000372683               0.999999997               0.000038695               0.000395491               0.999999997               0.000047055               0.000419512               0.999999997               0.000055341               0.000444587               0.999999997               0.000063624               0.000470486               0.999999997               0.000071870               0.000497077               0.999999997               0.000079880               0.000524325               0.999999997               0.000087609               0.000552207               0.999999997               0.000004123               0.000301459               0.999999997              -0.000008348               0.000292204               0.999999997              -0.000011712               0.000289860               0.999999997              -0.000010978               0.000293218               0.999999997              -0.000008132               0.000301061               0.999999997              -0.000004040               0.000312562               0.999999997               0.000001043               0.000326862               0.999999997               0.000006934               0.000343415               0.999999997               0.000013614               0.000361800               0.999999997               0.000020683               0.000381794               0.999999997               0.000027712               0.000403161               0.999999997               0.000034383               0.000425701               0.999999997               0.000040909               0.000449223               0.999999997               0.000047382               0.000473554               0.999999997               0.000053495               0.000498498               0.999999997               0.000059015               0.000524048               0.999999997               0.000063868               0.000550191               0.999999997               0.000003321               0.000312717               0.999999997              -0.000007067               0.000307267               0.999999997              -0.000010413               0.000306165               0.999999997              -0.000010385               0.000309490               0.999999997              -0.000008601               0.000316638               0.999999997              -0.000005770               0.000327095               0.999999997              -0.000002096               0.000340227               0.999999997               0.000002266               0.000355444               0.999999997               0.000007371               0.000372519               0.999999997               0.000012872               0.000391260               0.999999997               0.000018348               0.000411528               0.999999997               0.000023456               0.000432955               0.999999997               0.000028311               0.000455349               0.999999997               0.000032896               0.000478640               0.999999997               0.000037112               0.000502638               0.999999997               0.000040477               0.000527146               0.999999997               0.000042695               0.000552159               0.999999997               0.000002326               0.000320885               0.999999997              -0.000005103               0.000318578               0.999999997              -0.000007792               0.000318790               0.999999997              -0.000008093               0.000322416               0.999999997              -0.000007077               0.000329270               0.999999997              -0.000005375               0.000339024               0.999999997              -0.000002997               0.000351313               0.999999997              -0.000000078               0.000365643               0.999999997               0.000003270               0.000381818               0.999999997               0.000006971               0.000399720               0.999999997               0.000010864               0.000419133               0.999999997               0.000014462               0.000439849               0.999999997               0.000017456               0.000461677               0.999999997               0.000020202               0.000484444               0.999999997               0.000022826               0.000507978               0.999999997               0.000024692               0.000532001               0.999999997               0.000025179               0.000556436               0.999999997               0.000001194               0.000325862               0.999999997              -0.000002671               0.000325578               0.999999997              -0.000004158               0.000326752               0.999999997              -0.000004415               0.000330698               0.999999997              -0.000003980               0.000337485               0.999999997              -0.000003207               0.000346908               0.999999997              -0.000002059               0.000358686               0.999999997              -0.000000569               0.000372609               0.999999997               0.000001048               0.000388362               0.999999997               0.000002879               0.000405718               0.999999997               0.000004974               0.000424608               0.999999997               0.000006744               0.000444958               0.999999997               0.000008078               0.000466522               0.999999997               0.000009421               0.000489079               0.999999997               0.000010682               0.000512457               0.999999997               0.000011536               0.000536403               0.999999997               0.000011506               0.000560716               0.999999997              -0.000000000               0.000327553               0.999999997               0.000000000               0.000327952               0.999999997              -0.000000000               0.000329471               0.999999997              -0.000000000               0.000333598               0.999999997               0.000000000               0.000340351               0.999999997              -0.000000000               0.000349604               0.999999997              -0.000000000               0.000361277               0.999999997              -0.000000000               0.000375179               0.999999997               0.000000000               0.000390780               0.999999997               0.000000000               0.000407926               0.999999997               0.000000000               0.000426640               0.999999997              -0.000000000               0.000446831               0.999999997              -0.000000000               0.000468299               0.999999997              -0.000000000               0.000490732               0.999999997               0.000000000               0.000514108               0.999999997               0.000000000               0.000538155               0.999999997               0.000000000               0.000562484               0.999999997 </DataArray>
<DataArray type="Float64"                                    Name="stress"                                                      NumberOfComponents="10" format="ascii">
              0.000511471               0.006036214               0.000000000              -0.000562724               0.002199626               0.001636902               0.000000000               0.000000000               0.000000000               0.000000000               0.000563467               0.005012447              -0.000000000              -0.000415255               0.001809217               0.001393962               0.000000000               0.000000000               0.000000000               0.000000000               0.000785350               0.004187589              -0.000000000              -0.000228942               0.001472163               0.001243221               0.000000000               0.000000000               0.000000000               0.000000000               0.000816563               0.003732723               0.000000000              -0.000160379               0.001297688               0.001137309               0.000000000               0.000000000               0.000000000               0.000000000               0.000771303               0.003467724               0.000000000              -0.000144227               0.001203972               0.001059745               0.000000000               0.000000000               0.000000000               0.000000000               0.000697651               0.003302854               0.000000000              -0.000151237               0.001151353               0.001000116               0.000000000               0.000000000               0.000000000               0.000000000               0.000624137               0.003201821              -0.000000000              -0.000166176               0.001122655               0.000956479               0.000000000               0.000000000               0.000000000               0.000000000               0.000552106               0.003138184              -0.000000000              -0.000185233               0.001107795               0.000922562               0.000000000               0.000000000               0.000000000               0.000000000               0.000483304               0.003097470              -0.000000000              -0.000205944               0.001101128               0.000895183               0.000000000               0.000000000               0.000000000               0.000000000               0.000422115               0.003077092               0.000000000              -0.000226343               0.001101135               0.000874792               0.000000000               0.000000000               0.000000000               0.000000000               0.000364962               0.003069218               0.000000000              -0.000246791               0.001105326               0.000858535               0.000000000               0.000000000               0.000000000               0.000000000               0.000308425               0.003067396              -0.000000000              -0.000267764               0.001111710               0.000843946               0.000000000               0.000000000               0.000000000               0.000000000               0.000250932               0.003070591               0.000000000              -0.000289724               0.001120095               0.000830371               0.000000000               0.000000000               0.000000000               0.000000000               0.000191113               0.003076884              -0.000000000              -0.000312942               0.001129932               0.000816990               0.000000000               0.000000000               0.000000000               0.000000000               0.000126971               0.003080769               0.000000000              -0.000337481               0.001139406               0.000801925               0.000000000               0.000000000               0.000000000               0.000000000               0.000062718               0.003082132               0.000000000              -0.000361746               0.001147949               0.000786203               0.000000000               0.000000000               0.000000000               0.000000000               0.000032688               0.003084362              -0.000000000              -0.000373286               0.001152539               0.000779253               0.000000000               0.000000000               0.000000000               0.000000000               0.000545529               0.005935173              -0.000460331              -0.000537322               0.002157479               0.001620157               0.000000000               0.000000000               0.000000000               0.000000000               0.000575787               0.004940479              -0.000298596              -0.000401639               0.001780689               0.001379050               0.000000000               0.000000000               0.000000000               0.000000000               0.000774664               0.004147782              -0.000130894              -0.000227973               0.001458571               0.001230598               0.000000000               0.000000000               0.000000000               0.000000000               0.000794168               0.003711879              -0.000051126              -0.000166172               0.001292671               0.001126500               0.000000000               0.000000000               0.000000000               0.000000000               0.000743087               0.003454294              -0.000012838              -0.000153129               0.001202463               0.001049334               0.000000000               0.000000000               0.000000000               0.000000000               0.000670950               0.003295656               0.000006298              -0.000160350               0.001151991               0.000991641               0.000000000               0.000000000               0.000000000               0.000000000               0.000599153               0.003197285               0.000016626              -0.000174978               0.001124077               0.000949099               0.000000000               0.000000000               0.000000000               0.000000000               0.000527931               0.003135018               0.000019982              -0.000193903               0.001109630               0.000915727               0.000000000               0.000000000               0.000000000               0.000000000               0.000460524               0.003096660               0.000021309              -0.000214385               0.001103671               0.000889286               0.000000000               0.000000000               0.000000000               0.000000000               0.000400857               0.003077699               0.000021878              -0.000234391               0.001104020               0.000869629               0.000000000               0.000000000               0.000000000               0.000000000               0.000345576               0.003070322               0.000019562              -0.000254199               0.001108163               0.000853965               0.000000000               0.000000000               0.000000000               0.000000000               0.000292856               0.003068000               0.000017611              -0.000273678               0.001113882               0.000840204               0.000000000               0.000000000               0.000000000               0.000000000               0.000239640               0.003071979               0.000017973              -0.000294132               0.001122027               0.000827895               0.000000000               0.000000000               0.000000000               0.000000000               0.000182947               0.003079962               0.000016508              -0.000316389               0.001132107               0.000815717               0.000000000               0.000000000               0.000000000               0.000000000               0.000122850               0.003088546               0.000013036              -0.000339999               0.001142838               0.000802839               0.000000000               0.000000000               0.000000000               0.000000000               0.000060548               0.003095971               0.000007469              -0.000364290               0.001153410               0.000789120               0.000000000               0.000000000               0.000000000               0.000000000               0.000031508               0.003103829               0.000002823              -0.000376162               0.001159987               0.000783824               0.000000000               0.000000000               0.000000000               0.000000000               0.000643504               0.005649965              -0.000872248              -0.000464931               0.002038280               0.001573349               0.000000000               0.000000000               0.000000000               0.000000000               0.000610726               0.004738633              -0.000567323              -0.000363306               0.001700631               0.001337324               0.000000000               0.000000000               0.000000000               0.000000000               0.000740617               0.004038037              -0.000252765              -0.000227023               0.001421673               0.001194650               0.000000000               0.000000000               0.000000000               0.000000000               0.000729729               0.003650913              -0.000106367              -0.000182715               0.001277864               0.001095149               0.000000000               0.000000000               0.000000000               0.000000000               0.000671248               0.003417547              -0.000034473              -0.000175475               0.001197663               0.001022188               0.000000000               0.000000000               0.000000000               0.000000000               0.000601731               0.003275300               0.000001650              -0.000183763               0.001153010               0.000969247               0.000000000               0.000000000               0.000000000               0.000000000               0.000531061               0.003186100               0.000019136              -0.000199114               0.001128394               0.000929280               0.000000000               0.000000000               0.000000000               0.000000000               0.000462778               0.003130262               0.000025163              -0.000217740               0.001115990               0.000898250               0.000000000               0.000000000               0.000000000               0.000000000               0.000400376               0.003097503               0.000027568              -0.000237046               0.001111506               0.000874460               0.000000000               0.000000000               0.000000000               0.000000000               0.000345946               0.003080337               0.000029145              -0.000255312               0.001111873               0.000856561               0.000000000               0.000000000               0.000000000               0.000000000               0.000297254               0.003073735               0.000024768              -0.000272746               0.001115483               0.000842737               0.000000000               0.000000000               0.000000000               0.000000000               0.000252105               0.003072952               0.000020577              -0.000289579               0.001120833               0.000831254               0.000000000               0.000000000               0.000000000               0.000000000               0.000207259               0.003077065               0.000021544              -0.000306910               0.001127982               0.000821071               0.000000000               0.000000000               0.000000000               0.000000000               0.000158384               0.003086777               0.000020637              -0.000326452               0.001137733               0.000811281               0.000000000               0.000000000               0.000000000               0.000000000               0.000105518               0.003101337               0.000016359              -0.000348097               0.001149801               0.000801704               0.000000000               0.000000000               0.000000000               0.000000000               0.000051432               0.003119416               0.000009171              -0.000370639               0.001163341               0.000792702               0.000000000               0.000000000               0.000000000               0.000000000               0.000028360               0.003137391               0.000003002              -0.000381538               0.001172966               0.000791428               0.000000000               0.000000000               0.000000000               0.000000000               0.000776966               0.005215403              -0.001199471              -0.000360563               0.001858638               0.001498075               0.000000000               0.000000000               0.000000000               0.000000000               0.000652903               0.004434648              -0.000784328              -0.000309492               0.001581365               0.001271873               0.000000000               0.000000000               0.000000000               0.000000000               0.000687549               0.003874543              -0.000359381              -0.000226486               0.001366997               0.001140510               0.000000000               0.000000000               0.000000000               0.000000000               0.000640435               0.003555583              -0.000166290              -0.000204284               0.001253277               0.001048993               0.000000000               0.000000000               0.000000000               0.000000000               0.000571428               0.003361262              -0.000071450              -0.000205872               0.001189033               0.000983162               0.000000000               0.000000000               0.000000000               0.000000000               0.000502936               0.003241024              -0.000024025              -0.000216526               0.001152506               0.000935980               0.000000000               0.000000000               0.000000000               0.000000000               0.000438531               0.003167274              -0.000002076              -0.000231460               0.001132901               0.000901441               0.000000000               0.000000000               0.000000000               0.000000000               0.000378641               0.003121169               0.000006776              -0.000248155               0.001123097               0.000874943               0.000000000               0.000000000               0.000000000               0.000000000               0.000326921               0.003092809               0.000010617              -0.000264005               0.001118928               0.000854923               0.000000000               0.000000000               0.000000000               0.000000000               0.000279771               0.003075891               0.000012996              -0.000279571               0.001118477               0.000838906               0.000000000               0.000000000               0.000000000               0.000000000               0.000234779               0.003067279               0.000009520              -0.000295367               0.001120872               0.000825505               0.000000000               0.000000000               0.000000000               0.000000000               0.000195516               0.003066178               0.000003955              -0.000309953               0.001125367               0.000815414               0.000000000               0.000000000               0.000000000               0.000000000               0.000158858               0.003068787               0.000005133              -0.000324026               0.001130927               0.000806902               0.000000000               0.000000000               0.000000000               0.000000000               0.000120412               0.003077454               0.000008529              -0.000339526               0.001138983               0.000799457               0.000000000               0.000000000               0.000000000               0.000000000               0.000079668               0.003094046               0.000008441              -0.000356879               0.001150298               0.000793419               0.000000000               0.000000000               0.000000000               0.000000000               0.000038411               0.003117217               0.000005269              -0.000375247               0.001164144               0.000788897               0.000000000               0.000000000               0.000000000               0.000000000               0.000022625               0.003139247               0.000000758              -0.000383920               0.001174379               0.000790458               0.000000000               0.000000000               0.000000000               0.000000000               0.000914742               0.004669720              -0.001420887              -0.000240688               0.001636787               0.001396099               0.000000000               0.000000000               0.000000000               0.000000000               0.000688169               0.004057813              -0.000937822              -0.000249163               0.001435645               0.001186482               0.000000000               0.000000000               0.000000000               0.000000000               0.000614864               0.003670081              -0.000448362              -0.000228186               0.001299410               0.001071224               0.000000000               0.000000000               0.000000000               0.000000000               0.000538191               0.003436319              -0.000232252              -0.000227718               0.001221334               0.000993616               0.000000000               0.000000000               0.000000000               0.000000000               0.000466021               0.003289696              -0.000126249              -0.000236454               0.001175372               0.000938919               0.000000000               0.000000000               0.000000000               0.000000000               0.000398853               0.003194589              -0.000071616              -0.000249753               0.001148103               0.000898350               0.000000000               0.000000000               0.000000000               0.000000000               0.000342485               0.003133303              -0.000043228              -0.000263230               0.001132167               0.000868937               0.000000000               0.000000000               0.000000000               0.000000000               0.000293767               0.003093287              -0.000030653              -0.000276497               0.001123251               0.000846754               0.000000000               0.000000000               0.000000000               0.000000000               0.000250063               0.003066748              -0.000025292              -0.000289569               0.001118762               0.000829193               0.000000000               0.000000000               0.000000000               0.000000000               0.000210713               0.003049327              -0.000021717              -0.000302148               0.001117148               0.000815000               0.000000000               0.000000000               0.000000000               0.000000000               0.000174171               0.003039999              -0.000022909              -0.000314685               0.001118218               0.000803533               0.000000000               0.000000000               0.000000000               0.000000000               0.000140691               0.003038860              -0.000027105              -0.000327098               0.001121976               0.000794878               0.000000000               0.000000000               0.000000000               0.000000000               0.000110704               0.003042642              -0.000023840              -0.000338815               0.001127142               0.000788327               0.000000000               0.000000000               0.000000000               0.000000000               0.000082130               0.003051558              -0.000013330              -0.000350645               0.001134058               0.000783412               0.000000000               0.000000000               0.000000000               0.000000000               0.000052260               0.003068554              -0.000004982              -0.000363971               0.001144165               0.000780194               0.000000000               0.000000000               0.000000000               0.000000000               0.000024440               0.003092218              -0.000001154              -0.000377361               0.001156516               0.000779155               0.000000000               0.000000000               0.000000000               0.000000000               0.000016319               0.003113310              -0.000002466              -0.000383043               0.001165441               0.000782397               0.000000000               0.000000000               0.000000000               0.000000000               0.001027204               0.004062226              -0.001531685              -0.000122578               0.001394921               0.001272343               0.000000000               0.000000000               0.000000000               0.000000000               0.000710108               0.003647415              -0.001030891              -0.000189637               0.001279005               0.001089368               0.000000000               0.000000000               0.000000000               0.000000000               0.000537081               0.003448391              -0.000524041              -0.000229643               0.001226000               0.000996357               0.000000000               0.000000000               0.000000000               0.000000000               0.000437356               0.003300595              -0.000303091              -0.000248566               0.001183043               0.000934477               0.000000000               0.000000000               0.000000000               0.000000000               0.000368402               0.003197557              -0.000191405              -0.000261543               0.001153023               0.000891480               0.000000000               0.000000000               0.000000000               0.000000000               0.000310084               0.003126875              -0.000130813              -0.000274577               0.001133807               0.000859230               0.000000000               0.000000000               0.000000000               0.000000000               0.000262282               0.003077860              -0.000097323              -0.000286376               0.001121402               0.000835026               0.000000000               0.000000000               0.000000000               0.000000000               0.000223166               0.003044781              -0.000080222              -0.000296910               0.001113887               0.000816977               0.000000000               0.000000000               0.000000000               0.000000000               0.000187551               0.003023927              -0.000072561              -0.000307659               0.001110519               0.000802860               0.000000000               0.000000000               0.000000000               0.000000000               0.000155239               0.003009949              -0.000065933              -0.000318028               0.001109316               0.000791288               0.000000000               0.000000000               0.000000000               0.000000000               0.000125821               0.003003944              -0.000058961              -0.000328309               0.001110741               0.000782432               0.000000000               0.000000000               0.000000000               0.000000000               0.000100278               0.003008985              -0.000056417              -0.000338518               0.001115824               0.000777306               0.000000000               0.000000000               0.000000000               0.000000000               0.000075688               0.003018180              -0.000048975              -0.000348889               0.001122346               0.000773458               0.000000000               0.000000000               0.000000000               0.000000000               0.000053084               0.003032269              -0.000031810              -0.000359126               0.001130455               0.000771329               0.000000000               0.000000000               0.000000000               0.000000000               0.000032271               0.003050186              -0.000015256              -0.000369171               0.001139775               0.000770605               0.000000000               0.000000000               0.000000000               0.000000000               0.000014387               0.003069406              -0.000004864              -0.000378280               0.001149218               0.000770939               0.000000000               0.000000000               0.000000000               0.000000000               0.000009666               0.003082943              -0.000002404              -0.000381742               0.001154885               0.000773143               0.000000000               0.000000000               0.000000000               0.000000000               0.001093946               0.003444043              -0.001542288              -0.000020278               0.001154761               0.001134484               0.000000000               0.000000000               0.000000000               0.000000000               0.000714209               0.003239618              -0.001072740              -0.000137125               0.001125570               0.000988445               0.000000000               0.000000000               0.000000000               0.000000000               0.000464841               0.003225379              -0.000590872              -0.000228857               0.001151401               0.000922544               0.000000000               0.000000000               0.000000000               0.000000000               0.000354782               0.003152629              -0.000375701              -0.000261035               0.001137878               0.000876843               0.000000000               0.000000000               0.000000000               0.000000000               0.000292599               0.003090959              -0.000259745              -0.000276645               0.001122524               0.000845879               0.000000000               0.000000000               0.000000000               0.000000000               0.000245035               0.003044939              -0.000193900              -0.000288729               0.001111212               0.000822484               0.000000000               0.000000000               0.000000000               0.000000000               0.000206474               0.003010251              -0.000156213              -0.000298853               0.001103025               0.000804172               0.000000000               0.000000000               0.000000000               0.000000000               0.000176290               0.002987735              -0.000132708              -0.000307357               0.001098354               0.000790997               0.000000000               0.000000000               0.000000000               0.000000000               0.000149696               0.002976597              -0.000118157              -0.000315938               0.001097502               0.000781564               0.000000000               0.000000000               0.000000000               0.000000000               0.000128268               0.002974427              -0.000105162              -0.000323702               0.001099367               0.000775664               0.000000000               0.000000000               0.000000000               0.000000000               0.000108597               0.002979424              -0.000089012              -0.000331703               0.001103699               0.000771996               0.000000000               0.000000000               0.000000000               0.000000000               0.000086786               0.002990474              -0.000077839              -0.000341264               0.001110569               0.000769306               0.000000000               0.000000000               0.000000000               0.000000000               0.000063782               0.003007300              -0.000065509              -0.000351993               0.001119754               0.000767761               0.000000000               0.000000000               0.000000000               0.000000000               0.000041373               0.003026261              -0.000044138              -0.000362767               0.001129666               0.000766899               0.000000000               0.000000000               0.000000000               0.000000000               0.000023205               0.003041190              -0.000023542              -0.000371446               0.001137535               0.000766089               0.000000000               0.000000000               0.000000000               0.000000000               0.000010662               0.003048646              -0.000009616              -0.000377082               0.001141899               0.000764817               0.000000000               0.000000000               0.000000000               0.000000000               0.000005596               0.003048721              -0.000003997              -0.000378991               0.001142561               0.000763570               0.000000000               0.000000000               0.000000000               0.000000000               0.001117421               0.002853463              -0.001468242               0.000062348               0.000930362               0.000992709               0.000000000               0.000000000               0.000000000               0.000000000               0.000700797               0.002853754              -0.001071786              -0.000093921               0.000982549               0.000888627               0.000000000               0.000000000               0.000000000               0.000000000               0.000404557               0.003003983              -0.000649667              -0.000223789               0.001075914               0.000852125               0.000000000               0.000000000               0.000000000               0.000000000               0.000299268               0.003004815              -0.000444340              -0.000263376               0.001089387               0.000826011               0.000000000               0.000000000               0.000000000               0.000000000               0.000247336               0.002986028              -0.000325237              -0.000280502               0.001088833               0.000808332               0.000000000               0.000000000               0.000000000               0.000000000               0.000208389               0.002964190              -0.000255388              -0.000292377               0.001085513               0.000793135               0.000000000               0.000000000               0.000000000               0.000000000               0.000176736               0.002944883              -0.000210120              -0.000301834               0.001082229               0.000780395               0.000000000               0.000000000               0.000000000               0.000000000               0.000154206               0.002936995              -0.000176578              -0.000309297               0.001082088               0.000772791               0.000000000               0.000000000               0.000000000               0.000000000               0.000136001               0.002937936              -0.000151170              -0.000316241               0.001084716               0.000768475               0.000000000               0.000000000               0.000000000               0.000000000               0.000121052               0.002948967              -0.000129812              -0.000323226               0.001090721               0.000767495               0.000000000               0.000000000               0.000000000               0.000000000               0.000106199               0.002968053              -0.000108722              -0.000331181               0.001099735               0.000768554               0.000000000               0.000000000               0.000000000               0.000000000               0.000086283               0.002989339              -0.000089851              -0.000341311               0.001110207               0.000768896               0.000000000               0.000000000               0.000000000               0.000000000               0.000063040               0.003013961              -0.000071195              -0.000353104               0.001122345               0.000769241               0.000000000               0.000000000               0.000000000               0.000000000               0.000039768               0.003032212              -0.000047529              -0.000364112               0.001132098               0.000767986               0.000000000               0.000000000               0.000000000               0.000000000               0.000022044               0.003038160              -0.000025156              -0.000371503               0.001136544               0.000765041               0.000000000               0.000000000               0.000000000               0.000000000               0.000009936               0.003031848              -0.000009843              -0.000375254               0.001135691               0.000760437               0.000000000               0.000000000               0.000000000               0.000000000               0.000002587               0.003022597              -0.000002861              -0.000376854               0.001133140               0.000756287               0.000000000               0.000000000               0.000000000               0.000000000               0.001113032               0.002333932              -0.001336779               0.000125643               0.000736088               0.000861731               0.000000000               0.000000000               0.000000000               0.000000000               0.000692152               0.002505115              -0.001049979              -0.000053583               0.000852891               0.000799307               0.000000000               0.000000000               0.000000000               0.000000000               0.000376757               0.002802115              -0.000714696              -0.000208980               0.001003689               0.000794708               0.000000000               0.000000000               0.000000000               0.000000000               0.000280742               0.002878699              -0.000518442              -0.000254559               0.001044410               0.000789851               0.000000000               0.000000000               0.000000000               0.000000000               0.000232324               0.002900701              -0.000396640              -0.000275466               0.001058712               0.000783247               0.000000000               0.000000000               0.000000000               0.000000000               0.000198021               0.002903107              -0.000317955              -0.000288630               0.001063902               0.000775272               0.000000000               0.000000000               0.000000000               0.000000000               0.000172048               0.002904045              -0.000262024              -0.000298487               0.001067501               0.000769014               0.000000000               0.000000000               0.000000000               0.000000000               0.000154955               0.002911588              -0.000219508              -0.000305840               0.001072466               0.000766627               0.000000000               0.000000000               0.000000000               0.000000000               0.000143594               0.002923107              -0.000184951              -0.000311540               0.001078206               0.000766666               0.000000000               0.000000000               0.000000000               0.000000000               0.000133929               0.002945027              -0.000154973              -0.000317904               0.001087634               0.000769730               0.000000000               0.000000000               0.000000000               0.000000000               0.000123497               0.002976237              -0.000126300              -0.000325717               0.001100641               0.000774924               0.000000000               0.000000000               0.000000000               0.000000000               0.000105441               0.003007414              -0.000098736              -0.000336385               0.001114590               0.000778204               0.000000000               0.000000000               0.000000000               0.000000000               0.000078826               0.003033693              -0.000074035              -0.000349651               0.001127771               0.000778120               0.000000000               0.000000000               0.000000000               0.000000000               0.000051205               0.003046843              -0.000049796              -0.000361653               0.001136155               0.000774502               0.000000000               0.000000000               0.000000000               0.000000000               0.000030295               0.003043583              -0.000025875              -0.000369086               0.001137546               0.000768460               0.000000000               0.000000000               0.000000000               0.000000000               0.000011816               0.003028057              -0.000007654              -0.000374075               0.001134034               0.000759959               0.000000000               0.000000000               0.000000000               0.000000000              -0.000001201               0.003014152               0.000000673              -0.000377218               0.001130447               0.000753228               0.000000000               0.000000000               0.000000000               0.000000000               0.001067017               0.001826790              -0.001177501               0.000171780               0.000551663               0.000723443               0.000000000               0.000000000               0.000000000               0.000000000               0.000700319               0.002103735              -0.001019909              -0.000000349               0.000701354               0.000701005               0.000000000               0.000000000               0.000000000               0.000000000               0.000391818               0.002511753              -0.000795784              -0.000167038               0.000892922               0.000725884               0.000000000               0.000000000               0.000000000               0.000000000               0.000299492               0.002673385              -0.000614758              -0.000221863               0.000965074               0.000743210               0.000000000               0.000000000               0.000000000               0.000000000               0.000253837               0.002751448              -0.000487616              -0.000248742               0.001000054               0.000751312               0.000000000               0.000000000               0.000000000               0.000000000               0.000218979               0.002794388              -0.000397437              -0.000267181               0.001020514               0.000753333               0.000000000               0.000000000               0.000000000               0.000000000               0.000192893               0.002824099              -0.000331521              -0.000280677               0.001034916               0.000754239               0.000000000               0.000000000               0.000000000               0.000000000               0.000174686               0.002849488              -0.000282088              -0.000290678               0.001046712               0.000756034               0.000000000               0.000000000               0.000000000               0.000000000               0.000165409               0.002873762              -0.000240942              -0.000297191               0.001056975               0.000759784               0.000000000               0.000000000               0.000000000               0.000000000               0.000158941               0.002905824              -0.000202222              -0.000303624               0.001069806               0.000766182               0.000000000               0.000000000               0.000000000               0.000000000               0.000147726               0.002945559              -0.000162827              -0.000312797               0.001086109               0.000773312               0.000000000               0.000000000               0.000000000               0.000000000               0.000128875               0.002982665              -0.000125352              -0.000324504               0.001102380               0.000777876               0.000000000               0.000000000               0.000000000               0.000000000               0.000102793               0.003011657              -0.000093101              -0.000337909               0.001116512               0.000778603               0.000000000               0.000000000               0.000000000               0.000000000               0.000069373               0.003024793              -0.000064280              -0.000352084               0.001125615               0.000773532               0.000000000               0.000000000               0.000000000               0.000000000               0.000036591               0.003027365              -0.000036631              -0.000364698               0.001130678               0.000765979               0.000000000               0.000000000               0.000000000               0.000000000               0.000007228               0.003020468              -0.000012186              -0.000374847               0.001131762               0.000756915               0.000000000               0.000000000               0.000000000               0.000000000              -0.000011729               0.003008338               0.000000251              -0.000380440               0.001129583               0.000749143               0.000000000               0.000000000               0.000000000               0.000000000               0.000960447               0.001350746              -0.000992143               0.000191322               0.000386470               0.000577791               0.000000000               0.000000000               0.000000000               0.000000000               0.000706474               0.001705006              -0.000962563               0.000051800               0.000551062               0.000602863               0.000000000               0.000000000               0.000000000               0.000000000               0.000443651               0.002188131              -0.000858223              -0.000107148               0.000765085               0.000657937               0.000000000               0.000000000               0.000000000               0.000000000               0.000350879               0.002429349              -0.000709247              -0.000172089               0.000867138               0.000695049               0.000000000               0.000000000               0.000000000               0.000000000               0.000304822               0.002570985              -0.000583778              -0.000207065               0.000926008               0.000718943               0.000000000               0.000000000               0.000000000               0.000000000               0.000266908               0.002662573              -0.000486731              -0.000232731               0.000965092               0.000732362               0.000000000               0.000000000               0.000000000               0.000000000               0.000235098               0.002724859              -0.000412914              -0.000252445               0.000992426               0.000739980               0.000000000               0.000000000               0.000000000               0.000000000               0.000211497               0.002772921              -0.000357992              -0.000267303               0.001013399               0.000746096               0.000000000               0.000000000               0.000000000               0.000000000               0.000196785               0.002815234              -0.000312176              -0.000278109               0.001031105               0.000752996               0.000000000               0.000000000               0.000000000               0.000000000               0.000189049               0.002861704              -0.000265337              -0.000286819               0.001049498               0.000762679               0.000000000               0.000000000               0.000000000               0.000000000               0.000176987               0.002911610              -0.000215632              -0.000297580               0.001069720               0.000772140               0.000000000               0.000000000               0.000000000               0.000000000               0.000157892               0.002954856              -0.000170719              -0.000310147               0.001088324               0.000778178               0.000000000               0.000000000               0.000000000               0.000000000               0.000130633               0.002984593              -0.000131557              -0.000324086               0.001102883               0.000778797               0.000000000               0.000000000               0.000000000               0.000000000               0.000096843               0.003003453              -0.000095327              -0.000339115               0.001114179               0.000775065               0.000000000               0.000000000               0.000000000               0.000000000               0.000057635               0.003013918              -0.000059442              -0.000355126               0.001123005               0.000767879               0.000000000               0.000000000               0.000000000               0.000000000               0.000012983               0.003013224              -0.000025290              -0.000371783               0.001128326               0.000756542               0.000000000               0.000000000               0.000000000               0.000000000              -0.000020582               0.003002594              -0.000005718              -0.000383041               0.001128535               0.000745494               0.000000000               0.000000000               0.000000000               0.000000000               0.000799762               0.000933655              -0.000785219               0.000183202               0.000250147               0.000433349               0.000000000               0.000000000               0.000000000               0.000000000               0.000685225               0.001320926              -0.000861356               0.000091842               0.000409690               0.000501532               0.000000000               0.000000000               0.000000000               0.000000000               0.000507865               0.001828955              -0.000864473              -0.000038171               0.000622369               0.000584198               0.000000000               0.000000000               0.000000000               0.000000000               0.000427773               0.002130955              -0.000760250              -0.000105955               0.000745629               0.000639674               0.000000000               0.000000000               0.000000000               0.000000000               0.000382588               0.002334361              -0.000648484              -0.000148325               0.000827554               0.000679229               0.000000000               0.000000000               0.000000000               0.000000000               0.000342398               0.002477990              -0.000553457              -0.000181350               0.000886438               0.000705089               0.000000000               0.000000000               0.000000000               0.000000000               0.000303783               0.002578205              -0.000479753              -0.000208357               0.000928845               0.000720488               0.000000000               0.000000000               0.000000000               0.000000000               0.000271240               0.002659028              -0.000423119              -0.000230663               0.000963221               0.000732558               0.000000000               0.000000000               0.000000000               0.000000000               0.000247909               0.002730781              -0.000374471              -0.000248381               0.000993045               0.000744664               0.000000000               0.000000000               0.000000000               0.000000000               0.000232386               0.002796468              -0.000323422              -0.000262413               0.001019618               0.000757205               0.000000000               0.000000000               0.000000000               0.000000000               0.000218789               0.002859810              -0.000269295              -0.000275430               0.001045070               0.000769641               0.000000000               0.000000000               0.000000000               0.000000000               0.000198434               0.002915469              -0.000219773              -0.000290020               0.001068487               0.000778466               0.000000000               0.000000000               0.000000000               0.000000000               0.000169809               0.002954582              -0.000176908              -0.000305644               0.001086732               0.000781088               0.000000000               0.000000000               0.000000000               0.000000000               0.000135287               0.002978725              -0.000136889              -0.000321607               0.001100101               0.000778494               0.000000000               0.000000000               0.000000000               0.000000000               0.000091499               0.002992925              -0.000092044              -0.000339803               0.001110899               0.000771096               0.000000000               0.000000000               0.000000000               0.000000000               0.000037319               0.003002832              -0.000043409              -0.000361359               0.001121387               0.000760028               0.000000000               0.000000000               0.000000000               0.000000000              -0.000008261               0.002996395              -0.000013302              -0.000377646               0.001124670               0.000747024               0.000000000               0.000000000               0.000000000               0.000000000               0.000603516               0.000596022              -0.000577180               0.000151814               0.000148067               0.000299881               0.000000000               0.000000000               0.000000000               0.000000000               0.000642580               0.000971358              -0.000722476               0.000119546               0.000283934               0.000403480               0.000000000               0.000000000               0.000000000               0.000000000               0.000577247               0.001460816              -0.000805379               0.000033864               0.000475645               0.000509510               0.000000000               0.000000000               0.000000000               0.000000000               0.000525943               0.001799335              -0.000748127              -0.000027689               0.000609002               0.000581313               0.000000000               0.000000000               0.000000000               0.000000000               0.000484789               0.002052575              -0.000659621              -0.000074777               0.000709110               0.000634334               0.000000000               0.000000000               0.000000000               0.000000000               0.000444048               0.002244986              -0.000576149              -0.000114105               0.000786356               0.000672251               0.000000000               0.000000000               0.000000000               0.000000000               0.000400564               0.002387678              -0.000508014              -0.000148248               0.000845301               0.000697052               0.000000000               0.000000000               0.000000000               0.000000000               0.000357149               0.002500756              -0.000453990              -0.000178663               0.000893131               0.000714468               0.000000000               0.000000000               0.000000000               0.000000000               0.000323467               0.002601103              -0.000406923              -0.000203837               0.000934972               0.000731134               0.000000000               0.000000000               0.000000000               0.000000000               0.000300549               0.002695541              -0.000356682              -0.000224236               0.000973250               0.000749014               0.000000000               0.000000000               0.000000000               0.000000000               0.000284387               0.002781916              -0.000302828              -0.000241094               0.001007661               0.000766567               0.000000000               0.000000000               0.000000000               0.000000000               0.000263448               0.002852525              -0.000252598              -0.000257772               0.001036756               0.000778984               0.000000000               0.000000000               0.000000000               0.000000000               0.000236230               0.002906728              -0.000211163              -0.000274754               0.001060485               0.000785730               0.000000000               0.000000000               0.000000000               0.000000000               0.000202021               0.002944494              -0.000170005              -0.000292303               0.001078922               0.000786619               0.000000000               0.000000000               0.000000000               0.000000000               0.000160344               0.002970983              -0.000120379              -0.000311243               0.001094066               0.000782822               0.000000000               0.000000000               0.000000000               0.000000000               0.000108115               0.002992773              -0.000062458              -0.000333553               0.001108765               0.000775213               0.000000000               0.000000000               0.000000000               0.000000000               0.000062482               0.002992592              -0.000026909              -0.000350642               0.001114402               0.000763759               0.000000000               0.000000000               0.000000000               0.000000000               0.000397783               0.000345723              -0.000388174               0.000105952               0.000079922               0.000185874               0.000000000               0.000000000               0.000000000               0.000000000               0.000586999               0.000677905              -0.000557221               0.000135385               0.000180838               0.000316222               0.000000000               0.000000000               0.000000000               0.000000000               0.000644453               0.001118735              -0.000679360               0.000101827               0.000338965               0.000440792               0.000000000               0.000000000               0.000000000               0.000000000               0.000634074               0.001471330              -0.000660360               0.000053860               0.000472485               0.000526345               0.000000000               0.000000000               0.000000000               0.000000000               0.000604903               0.001757430              -0.000598746               0.000007159               0.000583418               0.000590577               0.000000000               0.000000000               0.000000000               0.000000000               0.000564896               0.001987924              -0.000532434              -0.000036655               0.000674853               0.000638198               0.000000000               0.000000000               0.000000000               0.000000000               0.000517645               0.002164776              -0.000475800              -0.000076481               0.000747078               0.000670598               0.000000000               0.000000000               0.000000000               0.000000000               0.000468215               0.002308137              -0.000430110              -0.000112936               0.000807017               0.000694080               0.000000000               0.000000000               0.000000000               0.000000000               0.000421949               0.002439664              -0.000390133              -0.000146727               0.000862122               0.000715395               0.000000000               0.000000000               0.000000000               0.000000000               0.000387976               0.002565726              -0.000347217              -0.000175225               0.000913642               0.000738417               0.000000000               0.000000000               0.000000000               0.000000000               0.000365793               0.002676859              -0.000298864              -0.000197435               0.000958089               0.000760654               0.000000000               0.000000000               0.000000000               0.000000000               0.000344276               0.002766213              -0.000251722              -0.000216672               0.000994286               0.000777613               0.000000000               0.000000000               0.000000000               0.000000000               0.000315013               0.002841312              -0.000211780              -0.000237034               0.001026106               0.000789072               0.000000000               0.000000000               0.000000000               0.000000000               0.000283103               0.002903195              -0.000175285              -0.000256735               0.001053300               0.000796565               0.000000000               0.000000000               0.000000000               0.000000000               0.000253521               0.002948256              -0.000130724              -0.000273461               0.001073896               0.000800435               0.000000000               0.000000000               0.000000000               0.000000000               0.000220088               0.002981889              -0.000070339              -0.000290202               0.001090687               0.000800485               0.000000000               0.000000000               0.000000000               0.000000000               0.000188918               0.002990700              -0.000033403              -0.000302993               0.001097888               0.000794895               0.000000000               0.000000000               0.000000000               0.000000000               0.000214328               0.000178929              -0.000231275               0.000058006               0.000040307               0.000098313               0.000000000               0.000000000               0.000000000               0.000000000               0.000529843               0.000456933              -0.000376254               0.000141573               0.000105118               0.000246691               0.000000000               0.000000000               0.000000000               0.000000000               0.000699717               0.000839212              -0.000491506               0.000157491               0.000227237               0.000384728               0.000000000               0.000000000               0.000000000               0.000000000               0.000731822               0.001187795              -0.000494715               0.000125958               0.000353942               0.000479899               0.000000000               0.000000000               0.000000000               0.000000000               0.000716465               0.001487599              -0.000457712               0.000082723               0.000468287               0.000551010               0.000000000               0.000000000               0.000000000               0.000000000               0.000680631               0.001742422              -0.000412350               0.000037433               0.000568324               0.000605757               0.000000000               0.000000000               0.000000000               0.000000000               0.000633449               0.001951025              -0.000373202              -0.000006335               0.000652447               0.000646112               0.000000000               0.000000000               0.000000000               0.000000000               0.000581273               0.002126882              -0.000340468              -0.000047883               0.000724915               0.000677031               0.000000000               0.000000000               0.000000000               0.000000000               0.000524732               0.002285899              -0.000311214              -0.000088963               0.000791613               0.000702650               0.000000000               0.000000000               0.000000000               0.000000000               0.000475585               0.002432685              -0.000282861              -0.000125741               0.000852801               0.000727059               0.000000000               0.000000000               0.000000000               0.000000000               0.000441675               0.002565911              -0.000247620              -0.000155111               0.000906999               0.000751888               0.000000000               0.000000000               0.000000000               0.000000000               0.000414187               0.002682173              -0.000205181              -0.000179951               0.000954032               0.000774081               0.000000000               0.000000000               0.000000000               0.000000000               0.000386811               0.002781087              -0.000170555              -0.000202581               0.000994547               0.000791966               0.000000000               0.000000000               0.000000000               0.000000000               0.000365957               0.002864865              -0.000147677              -0.000220874               0.001028570               0.000807696               0.000000000               0.000000000               0.000000000               0.000000000               0.000350563               0.002926956              -0.000117150              -0.000234408               0.001053778               0.000819370               0.000000000               0.000000000               0.000000000               0.000000000               0.000341896               0.002972337              -0.000065224              -0.000243331               0.001071879               0.000828549               0.000000000               0.000000000               0.000000000               0.000000000               0.000336595               0.002991046              -0.000032803              -0.000247657               0.001079558               0.000831900               0.000000000               0.000000000               0.000000000               0.000000000               0.000086872               0.000082436              -0.000106725               0.000022272               0.000020054               0.000042326               0.000000000               0.000000000               0.000000000               0.000000000               0.000485887               0.000317650              -0.000188968               0.000142500               0.000058382               0.000200882               0.000000000               0.000000000               0.000000000               0.000000000               0.000734390               0.000654467              -0.000257587               0.000193586               0.000153625               0.000347211               0.000000000               0.000000000               0.000000000               0.000000000               0.000798675               0.000993770              -0.000265273               0.000175280               0.000272827               0.000448107               0.000000000               0.000000000               0.000000000               0.000000000               0.000793046               0.001296954              -0.000247867               0.000135272               0.000387223               0.000522495               0.000000000               0.000000000               0.000000000               0.000000000               0.000763128               0.001565469              -0.000224833               0.000090489               0.000491655               0.000582144               0.000000000               0.000000000               0.000000000               0.000000000               0.000718300               0.001801370              -0.000206516               0.000044191               0.000585720               0.000629911               0.000000000               0.000000000               0.000000000               0.000000000               0.000663440               0.002002740              -0.000190447              -0.000001553               0.000668091               0.000666538               0.000000000               0.000000000               0.000000000               0.000000000               0.000603147               0.002173357              -0.000174717              -0.000045489               0.000739608               0.000694119               0.000000000               0.000000000               0.000000000               0.000000000               0.000544702               0.002329506              -0.000161838              -0.000086925               0.000805469               0.000718544               0.000000000               0.000000000               0.000000000               0.000000000               0.000496064               0.002479892              -0.000142227              -0.000123962               0.000867943               0.000743981               0.000000000               0.000000000               0.000000000               0.000000000               0.000464215               0.002618297              -0.000114335              -0.000153206               0.000923826               0.000770619               0.000000000               0.000000000               0.000000000               0.000000000               0.000448142               0.002736584              -0.000095588              -0.000174019               0.000970192               0.000796173               0.000000000               0.000000000               0.000000000               0.000000000               0.000439315               0.002836408              -0.000085939              -0.000189807               0.001008729               0.000818922               0.000000000               0.000000000               0.000000000               0.000000000               0.000433721               0.002914336              -0.000070861              -0.000201646               0.001038651               0.000837005               0.000000000               0.000000000               0.000000000               0.000000000               0.000440814               0.002969716              -0.000042043              -0.000205909               0.001058532               0.000852623               0.000000000               0.000000000               0.000000000               0.000000000               0.000455544               0.002994630              -0.000023594              -0.000203499               0.001066033               0.000862534               0.000000000               0.000000000               0.000000000               0.000000000               0.000041128               0.000049816               0.000000000               0.000009196               0.000013540               0.000022736               0.000000000               0.000000000               0.000000000               0.000000000               0.000469246               0.000269505              -0.000000000               0.000142278               0.000042408               0.000184686               0.000000000               0.000000000               0.000000000               0.000000000               0.000745800               0.000591067              -0.000000000               0.000205789               0.000128424               0.000334213               0.000000000               0.000000000               0.000000000               0.000000000               0.000821682               0.000925089               0.000000000               0.000192493               0.000244196               0.000436688               0.000000000               0.000000000               0.000000000               0.000000000               0.000819679               0.001225630              -0.000000000               0.000154174               0.000357148               0.000511322               0.000000000               0.000000000               0.000000000               0.000000000               0.000793905               0.001501221              -0.000000000               0.000110061               0.000463715               0.000573776               0.000000000               0.000000000               0.000000000               0.000000000               0.000752375               0.001752236              -0.000000000               0.000063111               0.000563036               0.000626147               0.000000000               0.000000000               0.000000000               0.000000000               0.000694817               0.001959938              -0.000000000               0.000015564               0.000648118               0.000663682               0.000000000               0.000000000               0.000000000               0.000000000               0.000632896               0.002129816               0.000000000              -0.000028891               0.000719562               0.000690671               0.000000000               0.000000000               0.000000000               0.000000000               0.000571969               0.002289585              -0.000000000              -0.000071710               0.000787090               0.000715381               0.000000000               0.000000000               0.000000000               0.000000000               0.000516435               0.002445840              -0.000000000              -0.000112066               0.000852627               0.000740561               0.000000000               0.000000000               0.000000000               0.000000000               0.000486003               0.002593093              -0.000000000              -0.000141885               0.000911651               0.000769766               0.000000000               0.000000000               0.000000000               0.000000000               0.000476320               0.002718516              -0.000000000              -0.000161194               0.000959894               0.000798700               0.000000000               0.000000000               0.000000000               0.000000000               0.000470276               0.002824990              -0.000000000              -0.000176770               0.001000577               0.000823807               0.000000000               0.000000000               0.000000000               0.000000000               0.000468490               0.002913372               0.000000000              -0.000188487               0.001033943               0.000845456               0.000000000               0.000000000               0.000000000               0.000000000               0.000479357               0.002971700              -0.000000000              -0.000191703               0.001054458               0.000862755               0.000000000               0.000000000               0.000000000               0.000000000               0.000499087               0.002995988               0.000000000              -0.000187341               0.001061100               0.000873759               0.000000000               0.000000000               0.000000000               0.000000000               0.000000000               0.000000000               0.000000000               0.000000000               0.000000000               0.000000000               0.000000000               0.000000000               0.000000000               0.000000000               0.000000000               0.000000000               0.000000000               0.000000000               0.000000000               0.000000000               0.000000000               0.000000000               0.000000000               0.000000000               0.000000000               0.000000000               0.000000000               0.000000000               0.000000000               0.000000000               0.000000000               0.000000000               0.000000000               0.000000000               0.000000000               0.000000000               0.000000000               0.000000000               0.000000000               0.000000000               0.000000000               0.000000000               0.000000000               0.000000000               0.000000000               0.000000000               0.000000000               0.000000000               0.000000000               0.000000000               0.000000000               0.000000000               0.000000000               0.000000000               0.000000000               0.000000000               0.000000000               0.000000000               0.000000000               0.000000000               0.000000000               0.000000000               0.000000000               0.000000000               0.000000000               0.000000000               0.000000000               0.000000000               0.000000000               0.000000000               0.000000000               0.000000000               0.000000000               0.000000000               0.000000000               0.000000000               0.000000000               0.000000000               0.000000000               0.000000000               0.000000000               0.000000000               0.000000000               0.000000000               0.000000000               0.000000000               0.000000000               0.000000000               0.000000000               0.000000000               0.000000000               0.000000000               0.000000000               0.000000000               0.000000000               0.000000000               0.000000000               0.000000000               0.000000000               0.000000000               0.000000000               0.000000000               0.000000000               0.000000000               0.000000000               0.000000000               0.000000000               0.000000000               0.000000000               0.000000000               0.000000000               0.000000000               0.000000000               0.000000000               0.000000000               0.000000000               0.000000000               0.000000000               0.000000000               0.000000000               0.000000000               0.000000000               0.000000000               0.000000000               0.000000000               0.000000000               0.000000000               0.000000000               0.000000000               0.000000000               0.000000000               0.000000000               0.000000000               0.000000000               0.000000000               0.000000000               0.000000000               0.000000000               0.000000000               0.000000000               0.000000000               0.000000000               0.000000000               0.000000000               0.000000000               0.000000000               0.000000000               0.000000000               0.000000000               0.000000000               0.000000000               0.000000000               0.000000000               0.000000000               0.000000000               0.000000000               0.000000000               0.000000000               0.000000000               0.000000000               0.000000000               0.000000000               0.000000000               0.000000000               0.000000000               0.000000000               0.000000000               0.000000000               0.000000000               0.000000000               0.000000000               0.000000000               0.000000000               0.000000000               0.000545529               0.005935173               0.000460331              -0.000537322               0.002157479               0.001620157               0.000000000               0.000000000               0.000000000               0.000000000               0.000575787               0.004940479               0.000298596              -0.000401639               0.001780689               0.001379050               0.000000000               0.000000000               0.000000000               0.000000000               0.000774664               0.004147782               0.000130894              -0.000227973               0.001458571               0.001230598               0.000000000               0.000000000               0.000000000               0.000000000               0.000794168               0.003711879               0.000051126              -0.000166172               0.001292671               0.001126500               0.000000000               0.000000000               0.000000000               0.000000000               0.000743087               0.003454294               0.000012838              -0.000153129               0.001202463               0.001049334               0.000000000               0.000000000               0.000000000               0.000000000               0.000670950               0.003295656              -0.000006298              -0.000160350               0.001151991               0.000991641               0.000000000               0.000000000               0.000000000               0.000000000               0.000599153               0.003197285              -0.000016626              -0.000174978               0.001124077               0.000949099               0.000000000               0.000000000               0.000000000               0.000000000               0.000527931               0.003135018              -0.000019982              -0.000193903               0.001109630               0.000915727               0.000000000               0.000000000               0.000000000               0.000000000               0.000460524               0.003096660              -0.000021309              -0.000214385               0.001103671               0.000889286               0.000000000               0.000000000               0.000000000               0.000000000               0.000400857               0.003077699              -0.000021878              -0.000234391               0.001104020               0.000869629               0.000000000               0.000000000               0.000000000               0.000000000               0.000345576               0.003070322              -0.000019562              -0.000254199               0.001108163               0.000853965               0.000000000               0.000000000               0.000000000               0.000000000               0.000292856               0.003068000              -0.000017611              -0.000273678               0.001113882               0.000840204               0.000000000               0.000000000               0.000000000               0.000000000               0.000239640               0.003071979              -0.000017973              -0.000294132               0.001122027               0.000827895               0.000000000               0.000000000               0.000000000               0.000000000               0.000182947               0.003079962              -0.000016508              -0.000316389               0.001132107               0.000815717               0.000000000               0.000000000               0.000000000               0.000000000               0.000122850               0.003088546              -0.000013036              -0.000339999               0.001142838               0.000802839               0.000000000               0.000000000               0.000000000               0.000000000               0.000060548               0.003095971              -0.000007469              -0.000364290               0.001153410               0.000789120               0.000000000               0.000000000               0.000000000               0.000000000               0.000031508               0.003103829              -0.000002823              -0.000376162               0.001159987               0.000783824               0.000000000               0.000000000               0.000000000               0.000000000               0.000643504               0.005649965               0.000872248              -0.000464931               0.002038280               0.001573349               0.000000000               0.000000000               0.000000000               0.000000000               0.000610726               0.004738633               0.000567323              -0.000363306               0.001700631               0.001337324               0.000000000               0.000000000               0.000000000               0.000000000               0.000740617               0.004038037               0.000252765              -0.000227023               0.001421673               0.001194650               0.000000000               0.000000000               0.000000000               0.000000000               0.000729729               0.003650913               0.000106367              -0.000182715               0.001277864               0.001095149               0.000000000               0.000000000               0.000000000               0.000000000               0.000671248               0.003417547               0.000034473              -0.000175475               0.001197663               0.001022188               0.000000000               0.000000000               0.000000000               0.000000000               0.000601731               0.003275300              -0.000001650              -0.000183763               0.001153010               0.000969247               0.000000000               0.000000000               0.000000000               0.000000000               0.000531061               0.003186100              -0.000019136              -0.000199114               0.001128394               0.000929280               0.000000000               0.000000000               0.000000000               0.000000000               0.000462778               0.003130262              -0.000025163              -0.000217740               0.001115990               0.000898250               0.000000000               0.000000000               0.000000000               0.000000000               0.000400376               0.003097503              -0.000027568              -0.000237046               0.001111506               0.000874460               0.000000000               0.000000000               0.000000000               0.000000000               0.000345946               0.003080337              -0.000029145              -0.000255312               0.001111873               0.000856561               0.000000000               0.000000000               0.000000000               0.000000000               0.000297254               0.003073735              -0.000024768              -0.000272746               0.001115483               0.000842737               0.000000000               0.000000000               0.000000000               0.000000000               0.000252105               0.003072952              -0.000020577              -0.000289579               0.001120833               0.000831254               0.000000000               0.000000000               0.000000000               0.000000000               0.000207259               0.003077065              -0.000021544              -0.000306910               0.001127982               0.000821071               0.000000000               0.000000000               0.000000000               0.000000000               0.000158384               0.003086777              -0.000020637              -0.000326452               0.001137733               0.000811281               0.000000000               0.000000000               0.000000000               0.000000000               0.000105518               0.003101337              -0.000016359              -0.000348097               0.001149801               0.000801704               0.000000000               0.000000000               0.000000000               0.000000000               0.000051432               0.003119416              -0.000009171              -0.000370639               0.001163341               0.000792702               0.000000000               0.000000000               0.000000000               0.000000000               0.000028360               0.003137391              -0.000003002              -0.000381538               0.001172966               0.000791428               0.000000000               0.000000000               0.000000000               0.000000000               0.000776966               0.005215403               0.001199471              -0.000360563               0.001858638               0.001498075               0.000000000               0.000000000               0.000000000               0.000000000               0.000652903               0.004434648               0.000784328              -0.000309492               0.001581365               0.001271873               0.000000000               0.000000000               0.000000000               0.000000000               0.000687549               0.003874543               0.000359381              -0.000226486               0.001366997               0.001140510               0.000000000               0.000000000               0.000000000               0.000000000               0.000640435               0.003555583               0.000166290              -0.000204284               0.001253277               0.001048993               0.000000000               0.000000000               0.000000000               0.000000000               0.000571428               0.003361262               0.000071450              -0.000205872               0.001189033               0.000983162               0.000000000               0.000000000               0.000000000               0.000000000               0.000502936               0.003241024               0.000024025              -0.000216526               0.001152506               0.000935980               0.000000000               0.000000000               0.000000000               0.000000000               0.000438531               0.003167274               0.000002076              -0.000231460               0.001132901               0.000901441               0.000000000               0.000000000               0.000000000               0.000000000               0.000378641               0.003121169              -0.000006776              -0.000248155               0.001123097               0.000874943               0.000000000               0.000000000               0.000000000               0.000000000               0.000326921               0.003092809              -0.000010617              -0.000264005               0.001118928               0.000854923               0.000000000               0.000000000               0.000000000               0.000000000               0.000279771               0.003075891              -0.000012996              -0.000279571               0.001118477               0.000838906               0.000000000               0.000000000               0.000000000               0.000000000               0.000234779               0.003067279              -0.000009520              -0.000295367               0.001120872               0.000825505               0.000000000               0.000000000               0.000000000               0.000000000               0.000195516               0.003066178              -0.000003955              -0.000309953               0.001125367               0.000815414               0.000000000               0.000000000               0.000000000               0.000000000               0.000158858               0.003068787              -0.000005133              -0.000324026               0.001130927               0.000806902               0.000000000               0.000000000               0.000000000               0.000000000               0.000120412               0.003077454              -0.000008529              -0.000339526               0.001138983               0.000799457               0.000000000               0.000000000               0.000000000               0.000000000               0.000079668               0.003094046              -0.000008441              -0.000356879               0.001150298               0.000793419               0.000000000               0.000000000               0.000000000               0.000000000               0.000038411               0.003117217              -0.000005269              -0.000375247               0.001164144               0.000788897               0.000000000               0.000000000               0.000000000               0.000000000               0.000022625               0.003139247              -0.000000758              -0.000383920               0.001174379               0.000790458               0.000000000               0.000000000               0.000000000               0.000000000               0.000914742               0.004669720               0.001420887              -0.000240688               0.001636787               0.001396099               0.000000000               0.000000000               0.000000000               0.000000000               0.000688169               0.004057813               0.000937822              -0.000249163               0.001435645               0.001186482               0.000000000               0.000000000               0.000000000               0.000000000               0.000614864               0.003670081               0.000448362              -0.000228186               0.001299410               0.001071224               0.000000000               0.000000000               0.000000000               0.000000000               0.000538191               0.003436319               0.000232252              -0.000227718               0.001221334               0.000993616               0.000000000               0.000000000               0.000000000               0.000000000               0.000466021               0.003289696               0.000126249              -0.000236454               0.001175372               0.000938919               0.000000000               0.000000000               0.000000000               0.000000000               0.000398853               0.003194589               0.000071616              -0.000249753               0.001148103               0.000898350               0.000000000               0.000000000               0.000000000               0.000000000               0.000342485               0.003133303               0.000043228              -0.000263230               0.001132167               0.000868937               0.000000000               0.000000000               0.000000000               0.000000000               0.000293767               0.003093287               0.000030653              -0.000276497               0.001123251               0.000846754               0.000000000               0.000000000               0.000000000               0.000000000               0.000250063               0.003066748               0.000025292              -0.000289569               0.001118762               0.000829193               0.000000000               0.000000000               0.000000000               0.000000000               0.000210713               0.003049327               0.000021717              -0.000302148               0.001117148               0.000815000               0.000000000               0.000000000               0.000000000               0.000000000               0.000174171               0.003039999               0.000022909              -0.000314685               0.001118218               0.000803533               0.000000000               0.000000000               0.000000000               0.000000000               0.000140691               0.003038860               0.000027105              -0.000327098               0.001121976               0.000794878               0.000000000               0.000000000               0.000000000               0.000000000               0.000110704               0.003042642               0.000023840              -0.000338815               0.001127142               0.000788327               0.000000000               0.000000000               0.000000000               0.000000000               0.000082130               0.003051558               0.000013330              -0.000350645               0.001134058               0.000783412               0.000000000               0.000000000               0.000000000               0.000000000               0.000052260               0.003068554               0.000004982              -0.000363971               0.001144165               0.000780194               0.000000000               0.000000000               0.000000000               0.000000000               0.000024440               0.003092218               0.000001154              -0.000377361               0.001156516               0.000779155               0.000000000               0.000000000               0.000000000               0.000000000               0.000016319               0.003113310               0.000002466              -0.000383043               0.001165441               0.000782397               0.000000000               0.000000000               0.000000000               0.000000000               0.001027204               0.004062226               0.001531685              -0.000122578               0.001394921               0.001272343               0.000000000               0.000000000               0.000000000               0.000000000               0.000710108               0.003647415               0.001030891              -0.000189637               0.001279005               0.001089368               0.000000000               0.000000000               0.000000000               0.000000000               0.000537081               0.003448391               0.000524041              -0.000229643               0.001226000               0.000996357               0.000000000               0.000000000               0.000000000               0.000000000               0.000437356               0.003300595               0.000303091              -0.000248566               0.001183043               0.000934477               0.000000000               0.000000000               0.000000000               0.000000000               0.000368402               0.003197557               0.000191405              -0.000261543               0.001153023               0.000891480               0.000000000               0.000000000               0.000000000               0.000000000               0.000310084               0.003126875               0.000130813              -0.000274577               0.001133807               0.000859230               0.000000000               0.000000000               0.000000000               0.000000000               0.000262282               0.003077860               0.000097323              -0.000286376               0.001121402               0.000835026               0.000000000               0.000000000               0.000000000               0.000000000               0.000223166               0.003044781               0.000080222              -0.000296910               0.001113887               0.000816977               0.000000000               0.000000000               0.000000000               0.000000000               0.000187551               0.003023927               0.000072561              -0.000307659               0.001110519               0.000802860               0.000000000               0.000000000               0.000000000               0.000000000               0.000155239               0.003009949               0.000065933              -0.000318028               0.001109316               0.000791288               0.000000000               0.000000000               0.000000000               0.000000000               0.000125821               0.003003944               0.000058961              -0.000328309               0.001110741               0.000782432               0.000000000               0.000000000               0.000000000               0.000000000               0.000100278               0.003008985               0.000056417              -0.000338518               0.001115824               0.000777306               0.000000000               0.000000000               0.000000000               0.000000000               0.000075688               0.003018180               0.000048975              -0.000348889               0.001122346               0.000773458               0.000000000               0.000000000               0.000000000               0.000000000               0.000053084               0.003032269               0.000031810              -0.000359126               0.001130455               0.000771329               0.000000000               0.000000000               0.000000000               0.000000000               0.000032271               0.003050186               0.000015256              -0.000369171               0.001139775               0.000770605               0.000000000               0.000000000               0.000000000               0.000000000               0.000014387               0.003069406               0.000004864              -0.000378280               0.001149218               0.000770939               0.000000000               0.000000000               0.000000000               0.000000000               0.000009666               0.003082943               0.000002404              -0.000381742               0.001154885               0.000773143               0.000000000               0.000000000               0.000000000               0.000000000               0.001093946               0.003444043               0.001542288              -0.000020278               0.001154761               0.001134484               0.000000000               0.000000000               0.000000000               0.000000000               0.000714209               0.003239618               0.001072740              -0.000137125               0.001125570               0.000988445               0.000000000               0.000000000               0.000000000               0.000000000               0.000464841               0.003225379               0.000590872              -0.000228857               0.001151401               0.000922544               0.000000000               0.000000000               0.000000000               0.000000000               0.000354782               0.003152629               0.000375701              -0.000261035               0.001137878               0.000876843               0.000000000               0.000000000               0.000000000               0.000000000               0.000292599               0.003090959               0.000259745              -0.000276645               0.001122524               0.000845879               0.000000000               0.000000000               0.000000000               0.000000000               0.000245035               0.003044939               0.000193900              -0.000288729               0.001111212               0.000822484               0.000000000               0.000000000               0.000000000               0.000000000               0.000206474               0.003010251               0.000156213              -0.000298853               0.001103025               0.000804172               0.000000000               0.000000000               0.000000000               0.000000000               0.000176290               0.002987735               0.000132708              -0.000307357               0.001098354               0.000790997               0.000000000               0.000000000               0.000000000               0.000000000               0.000149696               0.002976597               0.000118157              -0.000315938               0.001097502               0.000781564               0.000000000               0.000000000               0.000000000               0.000000000               0.000128268               0.002974427               0.000105162              -0.000323702               0.001099367               0.000775664               0.000000000               0.000000000               0.000000000               0.000000000               0.000108597               0.002979424               0.000089012              -0.000331703               0.001103699               0.000771996               0.000000000               0.000000000               0.000000000               0.000000000               0.000086786               0.002990474               0.000077839              -0.000341264               0.001110569               0.000769306               0.000000000               0.000000000               0.000000000               0.000000000               0.000063782               0.003007300               0.000065509              -0.000351993               0.001119754               0.000767761               0.000000000               0.000000000               0.000000000               0.000000000               0.000041373               0.003026261               0.000044138              -0.000362767               0.001129666               0.000766899               0.000000000               0.000000000               0.000000000               0.000000000               0.000023205               0.003041190               0.000023542              -0.000371446               0.001137535               0.000766089               0.000000000               0.000000000               0.000000000               0.000000000               0.000010662               0.003048646               0.000009616              -0.000377082               0.001141899               0.000764817               0.000000000               0.000000000               0.000000000               0.000000000               0.000005596               0.003048721               0.000003997              -0.000378991               0.001142561               0.000763570               0.000000000               0.000000000               0.000000000               0.000000000               0.001117421               0.002853463               0.001468242               0.000062348               0.000930362               0.000992709               0.000000000               0.000000000               0.000000000               0.000000000               0.000700797               0.002853754               0.001071786              -0.000093921               0.000982549               0.000888627               0.000000000               0.000000000               0.000000000               0.000000000               0.000404557               0.003003983               0.000649667              -0.000223789               0.001075914               0.000852125               0.000000000               0.000000000               0.000000000               0.000000000               0.000299268               0.003004815               0.000444340              -0.000263376               0.001089387               0.000826011               0.000000000               0.000000000               0.000000000               0.000000000               0.000247336               0.002986028               0.000325237              -0.000280502               0.001088833               0.000808332               0.000000000               0.000000000               0.000000000               0.000000000               0.000208389               0.002964190               0.000255388              -0.000292377               0.001085513               0.000793135               0.000000000               0.000000000               0.000000000               0.000000000               0.000176736               0.002944883               0.000210120              -0.000301834               0.001082229               0.000780395               0.000000000               0.000000000               0.000000000               0.000000000               0.000154206               0.002936995               0.000176578              -0.000309297               0.001082088               0.000772791               0.000000000               0.000000000               0.000000000               0.000000000               0.000136001               0.002937936               0.000151170              -0.000316241               0.001084716               0.000768475               0.000000000               0.000000000               0.000000000               0.000000000               0.000121052               0.002948967               0.000129812              -0.000323226               0.001090721               0.000767495               0.000000000               0.000000000               0.000000000               0.000000000               0.000106199               0.002968053               0.000108722              -0.000331181               0.001099735               0.000768554               0.000000000               0.000000000               0.000000000               0.000000000               0.000086283               0.002989339               0.000089851              -0.000341311               0.001110207               0.000768896               0.000000000               0.000000000               0.000000000               0.000000000               0.000063040               0.003013961               0.000071195              -0.000353104               0.001122345               0.000769241               0.000000000               0.000000000               0.000000000               0.000000000               0.000039768               0.003032212               0.000047529              -0.000364112               0.001132098               0.000767986               0.000000000               0.000000000               0.000000000               0.000000000               0.000022044               0.003038160               0.000025156              -0.000371503               0.001136544               0.000765041               0.000000000               0.000000000               0.000000000               0.000000000               0.000009936               0.003031848               0.000009843              -0.000375254               0.001135691               0.000760437               0.000000000               0.000000000               0.000000000               0.000000000               0.000002587               0.003022597               0.000002861              -0.000376854               0.001133140               0.000756287               0.000000000               0.000000000               0.000000000               0.000000000               0.001113032               0.002333932               0.001336779               0.000125643               0.000736088               0.000861731               0.000000000               0.000000000               0.000000000               0.000000000               0.000692152               0.002505115               0.001049979              -0.000053583               0.000852891               0.000799307               0.000000000               0.000000000               0.000000000               0.000000000               0.000376757               0.002802115               0.000714696              -0.000208980               0.001003689               0.000794708               0.000000000               0.000000000               0.000000000               0.000000000               0.000280742               0.002878699               0.000518442              -0.000254559               0.001044410               0.000789851               0.000000000               0.000000000               0.000000000               0.000000000               0.000232324               0.002900701               0.000396640              -0.000275466               0.001058712               0.000783247               0.000000000               0.000000000               0.000000000               0.000000000               0.000198021               0.002903107               0.000317955              -0.000288630               0.001063902               0.000775272               0.000000000               0.000000000               0.000000000               0.000000000               0.000172048               0.002904045               0.000262024              -0.000298487               0.001067501               0.000769014               0.000000000               0.000000000               0.000000000               0.000000000               0.000154955               0.002911588               0.000219508              -0.000305840               0.001072466               0.000766627               0.000000000               0.000000000               0.000000000               0.000000000               0.000143594               0.002923107               0.000184951              -0.000311540               0.001078206               0.000766666               0.000000000               0.000000000               0.000000000               0.000000000               0.000133929               0.002945027               0.000154973              -0.000317904               0.001087634               0.000769730               0.000000000               0.000000000               0.000000000               0.000000000               0.000123497               0.002976237               0.000126300              -0.000325717               0.001100641               0.000774924               0.000000000               0.000000000               0.000000000               0.000000000               0.000105441               0.003007414               0.000098736              -0.000336385               0.001114590               0.000778204               0.000000000               0.000000000               0.000000000               0.000000000               0.000078826               0.003033693               0.000074035              -0.000349651               0.001127771               0.000778120               0.000000000               0.000000000               0.000000000               0.000000000               0.000051205               0.003046843               0.000049796              -0.000361653               0.001136155               0.000774502               0.000000000               0.000000000               0.000000000               0.000000000               0.000030295               0.003043583               0.000025875              -0.000369086               0.001137546               0.000768460               0.000000000               0.000000000               0.000000000               0.000000000               0.000011816               0.003028057               0.000007654              -0.000374075               0.001134034               0.000759959               0.000000000               0.000000000               0.000000000               0.000000000              -0.000001201               0.003014152              -0.000000673              -0.000377218               0.001130447               0.000753228               0.000000000               0.000000000               0.000000000               0.000000000               0.001067017               0.001826790               0.001177501               0.000171780               0.000551663               0.000723443               0.000000000               0.000000000               0.000000000               0.000000000               0.000700319               0.002103735               0.001019909              -0.000000349               0.000701354               0.000701005               0.000000000               0.000000000               0.000000000               0.000000000               0.000391818               0.002511753               0.000795784              -0.000167038               0.000892922               0.000725884               0.000000000               0.000000000               0.000000000               0.000000000               0.000299492               0.002673385               0.000614758              -0.000221863               0.000965074               0.000743210               0.000000000               0.000000000               0.000000000               0.000000000               0.000253837               0.002751448               0.000487616              -0.000248742               0.001000054               0.000751312               0.000000000               0.000000000               0.000000000               0.000000000               0.000218979               0.002794388               0.000397437              -0.000267181               0.001020514               0.000753333               0.000000000               0.000000000               0.000000000               0.000000000               0.000192893               0.002824099               0.000331521              -0.000280677               0.001034916               0.000754239               0.000000000               0.000000000               0.000000000               0.000000000               0.000174686               0.002849488               0.000282088              -0.000290678               0.001046712               0.000756034               0.000000000               0.000000000               0.000000000               0.000000000               0.000165409               0.002873762               0.000240942              -0.000297191               0.001056975               0.000759784               0.000000000               0.000000000               0.000000000               0.000000000               0.000158941               0.002905824               0.000202222              -0.000303624               0.001069806               0.000766182               0.000000000               0.000000000               0.000000000               0.000000000               0.000147726               0.002945559               0.000162827              -0.000312797               0.001086109               0.000773312               0.000000000               0.000000000               0.000000000               0.000000000               0.000128875               0.002982665               0.000125352              -0.000324504               0.001102380               0.000777876               0.000000000               0.000000000               0.000000000               0.000000000               0.000102793               0.003011657               0.000093101              -0.000337909               0.001116512               0.000778603               0.000000000               0.000000000               0.000000000               0.000000000               0.000069373               0.003024793               0.000064280              -0.000352084               0.001125615               0.000773532               0.000000000               0.000000000               0.000000000               0.000000000               0.000036591               0.003027365               0.000036631              -0.000364698               0.001130678               0.000765979               0.000000000               0.000000000               0.000000000               0.000000000               0.000007228               0.003020468               0.000012186              -0.000374847               0.001131762               0.000756915               0.000000000               0.000000000               0.000000000               0.000000000              -0.000011729               0.003008338              -0.000000251              -0.000380440               0.001129583               0.000749143               0.000000000               0.000000000               0.000000000               0.000000000               0.000960447               0.001350746               0.000992143               0.000191322               0.000386470               0.000577791               0.000000000               0.000000000               0.000000000               0.000000000               0.000706474               0.001705006               0.000962563               0.000051800               0.000551062               0.000602863               0.000000000               0.000000000               0.000000000               0.000000000               0.000443651               0.002188131               0.000858223              -0.000107148               0.000765085               0.000657937               0.000000000               0.000000000               0.000000000               0.000000000               0.000350879               0.002429349               0.000709247              -0.000172089               0.000867138               0.000695049               0.000000000               0.000000000               0.000000000               0.000000000               0.000304822               0.002570985               0.000583778              -0.000207065               0.000926008               0.000718943               0.000000000               0.000000000               0.000000000               0.000000000               0.000266908               0.002662573               0.000486731              -0.000232731               0.000965092               0.000732362               0.000000000               0.000000000               0.000000000               0.000000000               0.000235098               0.002724859               0.000412914              -0.000252445               0.000992426               0.000739980               0.000000000               0.000000000               0.000000000               0.000000000               0.000211497               0.002772921               0.000357992              -0.000267303               0.001013399               0.000746096               0.000000000               0.000000000               0.000000000               0.000000000               0.000196785               0.002815234               0.000312176              -0.000278109               0.001031105               0.000752996               0.000000000               0.000000000               0.000000000               0.000000000               0.000189049               0.002861704               0.000265337              -0.000286819               0.001049498               0.000762679               0.000000000               0.000000000               0.000000000               0.000000000               0.000176987               0.002911610               0.000215632              -0.000297580               0.001069720               0.000772140               0.000000000               0.000000000               0.000000000               0.000000000               0.000157892               0.002954856               0.000170719              -0.000310147               0.001088324               0.000778178               0.000000000               0.000000000               0.000000000               0.000000000               0.000130633               0.002984593               0.000131557              -0.000324086               0.001102883               0.000778797               0.000000000               0.000000000               0.000000000               0.000000000               0.000096843               0.003003453               0.000095327              -0.000339115               0.001114179               0.000775065               0.000000000               0.000000000               0.000000000               0.000000000               0.000057635               0.003013918               0.000059442              -0.000355126               0.001123005               0.000767879               0.000000000               0.000000000               0.000000000               0.000000000               0.000012983               0.003013224               0.000025290              -0.000371783               0.001128326               0.000756542               0.000000000               0.000000000               0.000000000               0.000000000              -0.000020582               0.003002594               0.000005718              -0.000383041               0.001128535               0.000745494               0.000000000               0.000000000               0.000000000               0.000000000               0.000799762               0.000933655               0.000785219               0.000183202               0.000250147               0.000433349               0.000000000               0.000000000               0.000000000               0.000000000               0.000685225               0.001320926               0.000861356               0.000091842               0.000409690               0.000501532               0.000000000               0.000000000               0.000000000               0.000000000               0.000507865               0.001828955               0.000864473              -0.000038171               0.000622369               0.000584198               0.000000000               0.000000000               0.000000000               0.000000000               0.000427773               0.002130955               0.000760250              -0.000105955               0.000745629               0.000639674               0.000000000               0.000000000               0.000000000               0.000000000               0.000382588               0.002334361               0.000648484              -0.000148325               0.000827554               0.000679229               0.000000000               0.000000000               0.000000000               0.000000000               0.000342398               0.002477990               0.000553457              -0.000181350               0.000886438               0.000705089               0.000000000               0.000000000               0.000000000               0.000000000               0.000303783               0.002578205               0.000479753              -0.000208357               0.000928845               0.000720488               0.000000000               0.000000000               0.000000000               0.000000000               0.000271240               0.002659028               0.000423119              -0.000230663               0.000963221               0.000732558               0.000000000               0.000000000               0.000000000               0.000000000               0.000247909               0.002730781               0.000374471              -0.000248381               0.000993045               0.000744664               0.000000000               0.000000000               0.000000000               0.000000000               0.000232386               0.002796468               0.000323422              -0.000262413               0.001019618               0.000757205               0.000000000               0.000000000               0.000000000               0.000000000               0.000218789               0.002859810               0.000269295              -0.000275430               0.001045070               0.000769641               0.000000000               0.000000000               0.000000000               0.000000000               0.000198434               0.002915469               0.000219773              -0.000290020               0.001068487               0.000778466               0.000000000               0.000000000               0.000000000               0.000000000               0.000169809               0.002954582               0.000176908              -0.000305644               0.001086732               0.000781088               0.000000000               0.000000000               0.000000000               0.000000000               0.000135287               0.002978725               0.000136889              -0.000321607               0.001100101               0.000778494               0.000000000               0.000000000               0.000000000               0.000000000               0.000091499               0.002992925               0.000092044              -0.000339803               0.001110899               0.000771096               0.000000000               0.000000000               0.000000000               0.000000000               0.000037319               0.003002832               0.000043409              -0.000361359               0.001121387               0.000760028               0.000000000               0.000000000               0.000000000               0.000000000              -0.000008261               0.002996395               0.000013302              -0.000377646               0.001124670               0.000747024               0.000000000               0.000000000               0.000000000               0.000000000               0.000603516               0.000596022               0.000577180               0.000151814               0.000148067               0.000299881               0.000000000               0.000000000               0.000000000               0.000000000               0.000642580               0.000971358               0.000722476               0.000119546               0.000283934               0.000403480               0.000000000               0.000000000               0.000000000               0.000000000               0.000577247               0.001460816               0.000805379               0.000033864               0.000475645               0.000509510               0.000000000               0.000000000               0.000000000               0.000000000               0.000525943               0.001799335               0.000748127              -0.000027689               0.000609002               0.000581313               0.000000000               0.000000000               0.000000000               0.000000000               0.000484789               0.002052575               0.000659621              -0.000074777               0.000709110               0.000634334               0.000000000               0.000000000               0.000000000               0.000000000               0.000444048               0.002244986               0.000576149              -0.000114105               0.000786356               0.000672251               0.000000000               0.000000000               0.000000000               0.000000000               0.000400564               0.002387678               0.000508014              -0.000148248               0.000845301               0.000697052               0.000000000               0.000000000               0.000000000               0.000000000               0.000357149               0.002500756               0.000453990              -0.000178663               0.000893131               0.000714468               0.000000000               0.000000000               0.000000000               0.000000000               0.000323467               0.002601103               0.000406923              -0.000203837               0.000934972               0.000731134               0.000000000               0.000000000               0.000000000               0.000000000               0.000300549               0.002695541               0.000356682              -0.000224236               0.000973250               0.000749014               0.000000000               0.000000000               0.000000000               0.000000000               0.000284387               0.002781916               0.000302828              -0.000241094               0.001007661               0.000766567               0.000000000               0.000000000               0.000000000               0.000000000               0.000263448               0.002852525               0.000252598              -0.000257772               0.001036756               0.000778984               0.000000000               0.000000000               0.000000000               0.000000000               0.000236230               0.002906728               0.000211163              -0.000274754               0.001060485               0.000785730               0.000000000               0.000000000               0.000000000               0.000000000               0.000202021               0.002944494               0.000170005              -0.000292303               0.001078922               0.000786619               0.000000000               0.000000000               0.000000000               0.000000000               0.000160344               0.002970983               0.000120379              -0.000311243               0.001094066               0.000782822               0.000000000               0.000000000               0.000000000               0.000000000               0.000108115               0.002992773               0.000062458              -0.000333553               0.001108765               0.000775213               0.000000000               0.000000000               0.000000000               0.000000000               0.000062482               0.002992592               0.000026909              -0.000350642               0.001114402               0.000763759               0.000000000               0.000000000               0.000000000               0.000000000               0.000397783               0.000345723               0.000388174               0.000105952               0.000079922               0.000185874               0.000000000               0.000000000               0.000000000               0.000000000               0.000586999               0.000677905               0.000557221               0.000135385               0.000180838               0.000316222               0.000000000               0.000000000               0.000000000               0.000000000               0.000644453               0.001118735               0.000679360               0.000101827               0.000338965               0.000440792               0.000000000               0.000000000               0.000000000               0.000000000               0.000634074               0.001471330               0.000660360               0.000053860               0.000472485               0.000526345               0.000000000               0.000000000               0.000000000               0.000000000               0.000604903               0.001757430               0.000598746               0.000007159               0.000583418               0.000590577               0.000000000               0.000000000               0.000000000               0.000000000               0.000564896               0.001987924               0.000532434              -0.000036655               0.000674853               0.000638198               0.000000000               0.000000000               0.000000000               0.000000000               0.000517645               0.002164776               0.000475800              -0.000076481               0.000747078               0.000670598               0.000000000               0.000000000               0.000000000               0.000000000               0.000468215               0.002308137               0.000430110              -0.000112936               0.000807017               0.000694080               0.000000000               0.000000000               0.000000000               0.000000000               0.000421949               0.002439664               0.000390133              -0.000146727               0.000862122               0.000715395               0.000000000               0.000000000               0.000000000               0.000000000               0.000387976               0.002565726               0.000347217              -0.000175225               0.000913642               0.000738417               0.000000000               0.000000000               0.000000000               0.000000000               0.000365793               0.002676859               0.000298864              -0.000197435               0.000958089               0.000760654               0.000000000               0.000000000               0.000000000               0.000000000               0.000344276               0.002766213               0.000251722              -0.000216672               0.000994286               0.000777613               0.000000000               0.000000000               0.000000000               0.000000000               0.000315013               0.002841312               0.000211780              -0.000237034               0.001026106               0.000789072               0.000000000               0.000000000               0.000000000               0.000000000               0.000283103               0.002903195               0.000175285              -0.000256735               0.001053300               0.000796565               0.000000000               0.000000000               0.000000000               0.000000000               0.000253521               0.002948256               0.000130724              -0.000273461               0.001073896               0.000800435               0.000000000               0.000000000               0.000000000               0.000000000               0.000220088               0.002981889               0.000070339              -0.000290202               0.001090687               0.000800485               0.000000000               0.000000000               0.000000000               0.000000000               0.000188918               0.002990700               0.000033403              -0.000302993               0.001097888               0.000794895               0.000000000               0.000000000               0.000000000               0.000000000               0.000214328               0.000178929               0.000231275               0.000058006               0.000040307               0.000098313               0.000000000               0.000000000               0.000000000               0.000000000               0.000529843               0.000456933               0.000376254               0.000141573               0.000105118               0.000246691               0.000000000               0.000000000               0.000000000               0.000000000               0.000699717               0.000839212               0.000491506               0.000157491               0.000227237               0.000384728               0.000000000               0.000000000               0.000000000               0.000000000               0.000731822               0.001187795               0.000494715               0.000125958               0.000353942               0.000479899               0.000000000               0.000000000               0.000000000               0.000000000               0.000716465               0.001487599               0.000457712               0.000082723               0.000468287               0.000551010               0.000000000               0.000000000               0.000000000               0.000000000               0.000680631               0.001742422               0.000412350               0.000037433               0.000568324               0.000605757               0.000000000               0.000000000               0.000000000               0.000000000               0.000633449               0.001951025               0.000373202              -0.000006335               0.000652447               0.000646112               0.000000000               0.000000000               0.000000000               0.000000000               0.000581273               0.002126882               0.000340468              -0.000047883               0.000724915               0.000677031               0.000000000               0.000000000               0.000000000               0.000000000               0.000524732               0.002285899               0.000311214              -0.000088963               0.000791613               0.000702650               0.000000000               0.000000000               0.000000000               0.000000000               0.000475585               0.002432685               0.000282861              -0.000125741               0.000852801               0.000727059               0.000000000               0.000000000               0.000000000               0.000000000               0.000441675               0.002565911               0.000247620              -0.000155111               0.000906999               0.000751888               0.000000000               0.000000000               0.000000000               0.000000000               0.000414187               0.002682173               0.000205181              -0.000179951               0.000954032               0.000774081               0.000000000               0.000000000               0.000000000               0.000000000               0.000386811               0.002781087               0.000170555              -0.000202581               0.000994547               0.000791966               0.000000000               0.000000000               0.000000000               0.000000000               0.000365957               0.002864865               0.000147677              -0.000220874               0.001028570               0.000807696               0.000000000               0.000000000               0.000000000               0.000000000               0.000350563               0.002926956               0.000117150              -0.000234408               0.001053778               0.000819370               0.000000000               0.000000000               0.000000000               0.000000000               0.000341896               0.002972337               0.000065224              -0.000243331               0.001071879               0.000828549               0.000000000               0.000000000               0.000000000               0.000000000               0.000336595               0.002991046               0.000032803              -0.000247657               0.001079558               0.000831900               0.000000000               0.000000000               0.000000000               0.000000000               0.000086872               0.000082436               0.000106725               0.000022272               0.000020054               0.000042326               0.000000000               0.000000000               0.000000000               0.000000000               0.000485887               0.000317650               0.000188968               0.000142500               0.000058382               0.000200882               0.000000000               0.000000000               0.000000000               0.000000000               0.000734390               0.000654467               0.000257587               0.000193586               0.000153625               0.000347211               0.000000000               0.000000000               0.000000000               0.000000000               0.000798675               0.000993770               0.000265273               0.000175280               0.000272827               0.000448107               0.000000000               0.000000000               0.000000000               0.000000000               0.000793046               0.001296954               0.000247867               0.000135272               0.000387223               0.000522495               0.000000000               0.000000000               0.000000000               0.000000000               0.000763128               0.001565469               0.000224833               0.000090489               0.000491655               0.000582144               0.000000000               0.000000000               0.000000000               0.000000000               0.000718300               0.001801370               0.000206516               0.000044191               0.000585720               0.000629911               0.000000000               0.000000000               0.000000000               0.000000000               0.000663440               0.002002740               0.000190447              -0.000001553               0.000668091               0.000666538               0.000000000               0.000000000               0.000000000               0.000000000               0.000603147               0.002173357               0.000174717              -0.000045489               0.000739608               0.000694119               0.000000000               0.000000000               0.000000000               0.000000000               0.000544702               0.002329506               0.000161838              -0.000086925               0.000805469               0.000718544               0.000000000               0.000000000               0.000000000               0.000000000               0.000496064               0.002479892               0.000142227              -0.000123962               0.000867943               0.000743981               0.000000000               0.000000000               0.000000000               0.000000000               0.000464215               0.002618297               0.000114335              -0.000153206               0.000923826               0.000770619               0.000000000               0.000000000               0.000000000               0.000000000               0.000448142               0.002736584               0.000095588              -0.000174019               0.000970192               0.000796173               0.000000000               0.000000000               0.000000000               0.000000000               0.000439315               0.002836408               0.000085939              -0.000189807               0.001008729               0.000818922               0.000000000               0.000000000               0.000000000               0.000000000               0.000433721               0.002914336               0.000070861              -0.000201646               0.001038651               0.000837005               0.000000000               0.000000000               0.000000000               0.000000000               0.000440814               0.002969716               0.000042043              -0.000205909               0.001058532               0.000852623               0.000000000               0.000000000               0.000000000               0.000000000               0.000455544               0.002994630               0.000023594              -0.000203499               0.001066033               0.000862534               0.000000000               0.000000000               0.000000000               0.000000000               0.000041128               0.000049816               0.000000000               0.000009196               0.000013540               0.000022736               0.000000000               0.000000000               0.000000000               0.000000000               0.000469246               0.000269505              -0.000000000               0.000142278               0.000042408               0.000184686               0.000000000               0.000000000               0.000000000               0.000000000               0.000745800               0.000591067              -0.000000000               0.000205789               0.000128424               0.000334213               0.000000000               0.000000000               0.000000000               0.000000000               0.000821682               0.000925089              -0.000000000               0.000192493               0.000244196               0.000436688               0.000000000               0.000000000               0.000000000               0.000000000               0.000819679               0.001225630              -0.000000000               0.000154174               0.000357148               0.000511322               0.000000000               0.000000000               0.000000000               0.000000000               0.000793905               0.001501221               0.000000000               0.000110061               0.000463715               0.000573776               0.000000000               0.000000000               0.000000000               0.000000000               0.000752375               0.001752236               0.000000000               0.000063111               0.000563036               0.000626147               0.000000000               0.000000000               0.000000000               0.000000000               0.000694817               0.001959938               0.000000000               0.000015564               0.000648118               0.000663682               0.000000000               0.000000000               0.000000000               0.000000000               0.000632896               0.002129816               0.000000000              -0.000028891               0.000719562               0.000690671               0.000000000               0.000000000               0.000000000               0.000000000               0.000571969               0.002289585               0.000000000              -0.000071710               0.000787090               0.000715381               0.000000000               0.000000000               0.000000000               0.000000000               0.000516435               0.002445840               0.000000000              -0.000112066               0.000852627               0.000740561               0.000000000               0.000000000               0.000000000               0.000000000               0.000486003               0.002593093              -0.000000000              -0.000141885               0.000911651               0.000769766               0.000000000               0.000000000               0.000000000               0.000000000               0.000476320               0.002718516              -0.000000000              -0.000161194               0.000959894               0.000798700               0.000000000               0.000000000               0.000000000               0.000000000               0.000470276               0.002824990               0.000000000              -0.000176770               0.001000577               0.000823807               0.000000000               0.000000000               0.000000000               0.000000000               0.000468490               0.002913372               0.000000000              -0.000188487               0.001033943               0.000845456               0.000000000               0.000000000               0.000000000               0.000000000               0.000479357               0.002971700              -0.000000000              -0.000191703               0.001054458               0.000862755               0.000000000               0.000000000               0.000000000               0.000000000               0.000499087               0.002995988               0.000000000              -0.000187341               0.001061100               0.000873759               0.000000000               0.000000000               0.000000000               0.000000000               0.000511471               0.006036214               0.000000000              -0.000562724               0.002199626               0.001636902               0.000000000               0.000000000               0.000000000               0.000000000               0.000563467               0.005012447               0.000000000              -0.000415255               0.001809217               0.001393962               0.000000000               0.000000000               0.000000000               0.000000000               0.000785350               0.004187589              -0.000000000              -0.000228942               0.001472163               0.001243221               0.000000000               0.000000000               0.000000000               0.000000000               0.000816563               0.003732723              -0.000000000              -0.000160379               0.001297688               0.001137309               0.000000000               0.000000000               0.000000000               0.000000000               0.000771303               0.003467724              -0.000000000              -0.000144227               0.001203972               0.001059745               0.000000000               0.000000000               0.000000000               0.000000000               0.000697651               0.003302854               0.000000000              -0.000151237               0.001151353               0.001000116               0.000000000               0.000000000               0.000000000               0.000000000               0.000624137               0.003201821              -0.000000000              -0.000166176               0.001122655               0.000956479               0.000000000               0.000000000               0.000000000               0.000000000               0.000552106               0.003138184              -0.000000000              -0.000185233               0.001107795               0.000922562               0.000000000               0.000000000               0.000000000               0.000000000               0.000483304               0.003097470              -0.000000000              -0.000205944               0.001101128               0.000895183               0.000000000               0.000000000               0.000000000               0.000000000               0.000422115               0.003077092              -0.000000000              -0.000226343               0.001101135               0.000874792               0.000000000               0.000000000               0.000000000               0.000000000               0.000364962               0.003069218               0.000000000              -0.000246791               0.001105326               0.000858535               0.000000000               0.000000000               0.000000000               0.000000000               0.000308425               0.003067396               0.000000000              -0.000267764               0.001111710               0.000843946               0.000000000               0.000000000               0.000000000               0.000000000               0.000250932               0.003070591              -0.000000000              -0.000289724               0.001120095               0.000830371               0.000000000               0.000000000               0.000000000               0.000000000               0.000191113               0.003076884              -0.000000000              -0.000312942               0.001129932               0.000816990               0.000000000               0.000000000               0.000000000               0.000000000               0.000126971               0.003080769              -0.000000000              -0.000337481               0.001139406               0.000801925               0.000000000               0.000000000               0.000000000               0.000000000               0.000062718               0.003082132               0.000000000              -0.000361746               0.001147949               0.000786203               0.000000000               0.000000000               0.000000000               0.000000000               0.000032688               0.003084362               0.000000000              -0.000373286               0.001152539               0.000779253               0.000000000               0.000000000               0.000000000               0.000000000               0.000545529               0.005935173              -0.000460331              -0.000537322               0.002157479               0.001620157               0.000000000               0.000000000               0.000000000               0.000000000               0.000575787               0.004940479              -0.000298596              -0.000401639               0.001780689               0.001379050               0.000000000               0.000000000               0.000000000               0.000000000               0.000774664               0.004147782              -0.000130894              -0.000227973               0.001458571               0.001230598               0.000000000               0.000000000               0.000000000               0.000000000               0.000794168               0.003711879              -0.000051126              -0.000166172               0.001292671               0.001126500               0.000000000               0.000000000               0.000000000               0.000000000               0.000743087               0.003454294              -0.000012838              -0.000153129               0.001202463               0.001049334               0.000000000               0.000000000               0.000000000               0.000000000               0.000670950               0.003295656               0.000006298              -0.000160350               0.001151991               0.000991641               0.000000000               0.000000000               0.000000000               0.000000000               0.000599153               0.003197285               0.000016626              -0.000174978               0.001124077               0.000949099               0.000000000               0.000000000               0.000000000               0.000000000               0.000527931               0.003135018               0.000019982              -0.000193903               0.001109630               0.000915727               0.000000000               0.000000000               0.000000000               0.000000000               0.000460524               0.003096660               0.000021309              -0.000214385               0.001103671               0.000889286               0.000000000               0.000000000               0.000000000               0.000000000               0.000400857               0.003077699               0.000021878              -0.000234391               0.001104020               0.000869629               0.000000000               0.000000000               0.000000000               0.000000000               0.000345576               0.003070322               0.000019562              -0.000254199               0.001108163               0.000853965               0.000000000               0.000000000               0.000000000               0.000000000               0.000292856               0.003068000               0.000017611              -0.000273678               0.001113882               0.000840204               0.000000000               0.000000000               0.000000000               0.000000000               0.000239640               0.003071979               0.000017973              -0.000294132               0.001122027               0.000827895               0.000000000               0.000000000               0.000000000               0.000000000               0.000182947               0.003079962               0.000016508              -0.000316389               0.001132107               0.000815717               0.000000000               0.000000000               0.000000000               0.000000000               0.000122850               0.003088546               0.000013036              -0.000339999               0.001142838               0.000802839               0.000000000               0.000000000               0.000000000               0.000000000               0.000060548               0.003095971               0.000007469              -0.000364290               0.001153410               0.000789120               0.000000000               0.000000000               0.000000000               0.000000000               0.000031508               0.003103829               0.000002823              -0.000376162               0.001159987               0.000783824               0.000000000               0.000000000               0.000000000               0.000000000               0.000643504               0.005649965              -0.000872248              -0.000464931               0.002038280               0.001573349               0.000000000               0.000000000               0.000000000               0.000000000               0.000610726               0.004738633              -0.000567323              -0.000363306               0.001700631               0.001337324               0.000000000               0.000000000               0.000000000               0.000000000               0.000740617               0.004038037              -0.000252765              -0.000227023               0.001421673               0.001194650               0.000000000               0.000000000               0.000000000               0.000000000               0.000729729               0.003650913              -0.000106367              -0.000182715               0.001277864               0.001095149               0.000000000               0.000000000               0.000000000               0.000000000               0.000671248               0.003417547              -0.000034473              -0.000175475               0.001197663               0.001022188               0.000000000               0.000000000               0.000000000               0.000000000               0.000601731               0.003275300               0.000001650              -0.000183763               0.001153010               0.000969247               0.000000000               0.000000000               0.000000000               0.000000000               0.000531061               0.003186100               0.000019136              -0.000199114               0.001128394               0.000929280               0.000000000               0.000000000               0.000000000               0.000000000               0.000462778               0.003130262               0.000025163              -0.000217740               0.001115990               0.000898250               0.000000000               0.000000000               0.000000000               0.000000000               0.000400376               0.003097503               0.000027568              -0.000237046               0.001111506               0.000874460               0.000000000               0.000000000               0.000000000               0.000000000               0.000345946               0.003080337               0.000029145              -0.000255312               0.001111873               0.000856561               0.000000000               0.000000000               0.000000000               0.000000000               0.000297254               0.003073735               0.000024768              -0.000272746               0.001115483               0.000842737               0.000000000               0.000000000               0.000000000               0.000000000               0.000252105               0.003072952               0.000020577              -0.000289579               0.001120833               0.000831254               0.000000000               0.000000000               0.000000000               0.000000000               0.000207259               0.003077065               0.000021544              -0.000306910               0.001127982               0.000821071               0.000000000               0.000000000               0.000000000               0.000000000               0.000158384               0.003086777               0.000020637              -0.000326452               0.001137733               0.000811281               0.000000000               0.000000000               0.000000000               0.000000000               0.000105518               0.003101337               0.000016359              -0.000348097               0.001149801               0.000801704               0.000000000               0.000000000               0.000000000               0.000000000               0.000051432               0.003119416               0.000009171              -0.000370639               0.001163341               0.000792702               0.000000000               0.000000000               0.000000000               0.000000000               0.000028360               0.003137391               0.000003002              -0.000381538               0.001172966               0.000791428               0.000000000               0.000000000               0.000000000               0.000000000               0.000776966               0.005215403              -0.001199471              -0.000360563               0.001858638               0.001498075               0.000000000               0.000000000               0.000000000               0.000000000               0.000652903               0.004434648              -0.000784328              -0.000309492               0.001581365               0.001271873               0.000000000               0.000000000               0.000000000               0.000000000               0.000687549               0.003874543              -0.000359381              -0.000226486               0.001366997               0.001140510               0.000000000               0.000000000               0.000000000               0.000000000               0.000640435               0.003555583              -0.000166290              -0.000204284               0.001253277               0.001048993               0.000000000               0.000000000               0.000000000               0.000000000               0.000571428               0.003361262              -0.000071450              -0.000205872               0.001189033               0.000983162               0.000000000               0.000000000               0.000000000               0.000000000               0.000502936               0.003241024              -0.000024025              -0.000216526               0.001152506               0.000935980               0.000000000               0.000000000               0.000000000               0.000000000               0.000438531               0.003167274              -0.000002076              -0.000231460               0.001132901               0.000901441               0.000000000               0.000000000               0.000000000               0.000000000               0.000378641               0.003121169               0.000006776              -0.000248155               0.001123097               0.000874943               0.000000000               0.000000000               0.000000000               0.000000000               0.000326921               0.003092809               0.000010617              -0.000264005               0.001118928               0.000854923               0.000000000               0.000000000               0.000000000               0.000000000               0.000279771               0.003075891               0.000012996              -0.000279571               0.001118477               0.000838906               0.000000000               0.000000000               0.000000000               0.000000000               0.000234779               0.003067279               0.000009520              -0.000295367               0.001120872               0.000825505               0.000000000               0.000000000               0.000000000               0.000000000               0.000195516               0.003066178               0.000003955              -0.000309953               0.001125367               0.000815414               0.000000000               0.000000000               0.000000000               0.000000000               0.000158858               0.003068787               0.000005133              -0.000324026               0.001130927               0.000806902               0.000000000               0.000000000               0.000000000               0.000000000               0.000120412               0.003077454               0.000008529              -0.000339526               0.001138983               0.000799457               0.000000000               0.000000000               0.000000000               0.000000000               0.000079668               0.003094046               0.000008441              -0.000356879               0.001150298               0.000793419               0.000000000               0.000000000               0.000000000               0.000000000               0.000038411               0.003117217               0.000005269              -0.000375247               0.001164144               0.000788897               0.000000000               0.000000000               0.000000000               0.000000000               0.000022625               0.003139247               0.000000758              -0.000383920               0.001174379               0.000790458               0.000000000               0.000000000               0.000000000               0.000000000               0.000914742               0.004669720              -0.001420887              -0.000240688               0.001636787               0.001396099               0.000000000               0.000000000               0.000000000               0.000000000               0.000688169               0.004057813              -0.000937822              -0.000249163               0.001435645               0.001186482               0.000000000               0.000000000               0.000000000               0.000000000               0.000614864               0.003670081              -0.000448362              -0.000228186               0.001299410               0.001071224               0.000000000               0.000000000               0.000000000               0.000000000               0.000538191               0.003436319              -0.000232252              -0.000227718               0.001221334               0.000993616               0.000000000               0.000000000               0.000000000               0.000000000               0.000466021               0.003289696              -0.000126249              -0.000236454               0.001175372               0.000938919               0.000000000               0.000000000               0.000000000               0.000000000               0.000398853               0.003194589              -0.000071616              -0.000249753               0.001148103               0.000898350               0.000000000               0.000000000               0.000000000               0.000000000               0.000342485               0.003133303              -0.000043228              -0.000263230               0.001132167               0.000868937               0.000000000               0.000000000               0.000000000               0.000000000               0.000293767               0.003093287              -0.000030653              -0.000276497               0.001123251               0.000846754               0.000000000               0.000000000               0.000000000               0.000000000               0.000250063               0.003066748              -0.000025292              -0.000289569               0.001118762               0.000829193               0.000000000               0.000000000               0.000000000               0.000000000               0.000210713               0.003049327              -0.000021717              -0.000302148               0.001117148               0.000815000               0.000000000               0.000000000               0.000000000               0.000000000               0.000174171               0.003039999              -0.000022909              -0.000314685               0.001118218               0.000803533               0.000000000               0.000000000               0.000000000               0.000000000               0.000140691               0.003038860              -0.000027105              -0.000327098               0.001121976               0.000794878               0.000000000               0.000000000               0.000000000               0.000000000               0.000110704               0.003042642              -0.000023840              -0.000338815               0.001127142               0.000788327               0.000000000               0.000000000               0.000000000               0.000000000               0.000082130               0.003051558              -0.000013330              -0.000350645               0.001134058               0.000783412               0.000000000               0.000000000               0.000000000               0.000000000               0.000052260               0.003068554              -0.000004982              -0.000363971               0.001144165               0.000780194               0.000000000               0.000000000               0.000000000               0.000000000               0.000024440               0.003092218              -0.000001154              -0.000377361               0.001156516               0.000779155               0.000000000               0.000000000               0.000000000               0.000000000               0.000016319               0.003113310              -0.000002466              -0.000383043               0.001165441               0.000782397               0.000000000               0.000000000               0.000000000               0.000000000               0.001027204               0.004062226              -0.001531685              -0.000122578               0.001394921               0.001272343               0.000000000               0.000000000               0.000000000               0.000000000               0.000710108               0.003647415              -0.001030891              -0.000189637               0.001279005               0.001089368               0.000000000               0.000000000               0.000000000               0.000000000               0.000537081               0.003448391              -0.000524041              -0.000229643               0.001226000               0.000996357               0.000000000               0.000000000               0.000000000               0.000000000               0.000437356               0.003300595              -0.000303091              -0.000248566               0.001183043               0.000934477               0.000000000               0.000000000               0.000000000               0.000000000               0.000368402               0.003197557              -0.000191405              -0.000261543               0.001153023               0.000891480               0.000000000               0.000000000               0.000000000               0.000000000               0.000310084               0.003126875              -0.000130813              -0.000274577               0.001133807               0.000859230               0.000000000               0.000000000               0.000000000               0.000000000               0.000262282               0.003077860              -0.000097323              -0.000286376               0.001121402               0.000835026               0.000000000               0.000000000               0.000000000               0.000000000               0.000223166               0.003044781              -0.000080222              -0.000296910               0.001113887               0.000816977               0.000000000               0.000000000               0.000000000               0.000000000               0.000187551               0.003023927              -0.000072561              -0.000307659               0.001110519               0.000802860               0.000000000               0.000000000               0.000000000               0.000000000               0.000155239               0.003009949              -0.000065933              -0.000318028               0.001109316               0.000791288               0.000000000               0.000000000               0.000000000               0.000000000               0.000125821               0.003003944              -0.000058961              -0.000328309               0.001110741               0.000782432               0.000000000               0.000000000               0.000000000               0.000000000               0.000100278               0.003008985              -0.000056417              -0.000338518               0.001115824               0.000777306               0.000000000               0.000000000               0.000000000               0.000000000               0.000075688               0.003018180              -0.000048975              -0.000348889               0.001122346               0.000773458               0.000000000               0.000000000               0.000000000               0.000000000               0.000053084               0.003032269              -0.000031810              -0.000359126               0.001130455               0.000771329               0.000000000               0.000000000               0.000000000               0.000000000               0.000032271               0.003050186              -0.000015256              -0.000369171               0.001139775               0.000770605               0.000000000               0.000000000               0.000000000               0.000000000               0.000014387               0.003069406              -0.000004864              -0.000378280               0.001149218               0.000770939               0.000000000               0.000000000               0.000000000               0.000000000               0.000009666               0.003082943              -0.000002404              -0.000381742               0.001154885               0.000773143               0.000000000               0.000000000               0.000000000               0.000000000               0.001093946               0.003444043              -0.001542288              -0.000020278               0.001154761               0.001134484               0.000000000               0.000000000               0.000000000               0.000000000               0.000714209               0.003239618              -0.001072740              -0.000137125               0.001125570               0.000988445               0.000000000               0.000000000               0.000000000               0.000000000               0.000464841               0.003225379              -0.000590872              -0.000228857               0.001151401               0.000922544               0.000000000               0.000000000               0.000000000               0.000000000               0.000354782               0.003152629              -0.000375701              -0.000261035               0.001137878               0.000876843               0.000000000               0.000000000               0.000000000               0.000000000               0.000292599               0.003090959              -0.000259745              -0.000276645               0.001122524               0.000845879               0.000000000               0.000000000               0.000000000               0.000000000               0.000245035               0.003044939              -0.000193900              -0.000288729               0.001111212               0.000822484               0.000000000               0.000000000               0.000000000               0.000000000               0.000206474               0.003010251              -0.000156213              -0.000298853               0.001103025               0.000804172               0.000000000               0.000000000               0.000000000               0.000000000               0.000176290               0.002987735              -0.000132708              -0.000307357               0.001098354               0.000790997               0.000000000               0.000000000               0.000000000               0.000000000               0.000149696               0.002976597              -0.000118157              -0.000315938               0.001097502               0.000781564               0.000000000               0.000000000               0.000000000               0.000000000               0.000128268               0.002974427              -0.000105162              -0.000323702               0.001099367               0.000775664               0.000000000               0.000000000               0.000000000               0.000000000               0.000108597               0.002979424              -0.000089012              -0.000331703               0.001103699               0.000771996               0.000000000               0.000000000               0.000000000               0.000000000               0.000086786               0.002990474              -0.000077839              -0.000341264               0.001110569               0.000769306               0.000000000               0.000000000               0.000000000               0.000000000               0.000063782               0.003007300              -0.000065509              -0.000351993               0.001119754               0.000767761               0.000000000               0.000000000               0.000000000               0.000000000               0.000041373               0.003026261              -0.000044138              -0.000362767               0.001129666               0.000766899               0.000000000               0.000000000               0.000000000               0.000000000               0.000023205               0.003041190              -0.000023542              -0.000371446               0.001137535               0.000766089               0.000000000               0.000000000               0.000000000               0.000000000               0.000010662               0.003048646              -0.000009616              -0.000377082               0.001141899               0.000764817               0.000000000               0.000000000               0.000000000               0.000000000               0.000005596               0.003048721              -0.000003997              -0.000378991               0.001142561               0.000763570               0.000000000               0.000000000               0.000000000               0.000000000               0.001117421               0.002853463              -0.001468242               0.000062348               0.000930362               0.000992709               0.000000000               0.000000000               0.000000000               0.000000000               0.000700797               0.002853754              -0.001071786              -0.000093921               0.000982549               0.000888627               0.000000000               0.000000000               0.000000000               0.000000000               0.000404557               0.003003983              -0.000649667              -0.000223789               0.001075914               0.000852125               0.000000000               0.000000000               0.000000000               0.000000000               0.000299268               0.003004815              -0.000444340              -0.000263376               0.001089387               0.000826011               0.000000000               0.000000000               0.000000000               0.000000000               0.000247336               0.002986028              -0.000325237              -0.000280502               0.001088833               0.000808332               0.000000000               0.000000000               0.000000000               0.000000000               0.000208389               0.002964190              -0.000255388              -0.000292377               0.001085513               0.000793135               0.000000000               0.000000000               0.000000000               0.000000000               0.000176736               0.002944883              -0.000210120              -0.000301834               0.001082229               0.000780395               0.000000000               0.000000000               0.000000000               0.000000000               0.000154206               0.002936995              -0.000176578              -0.000309297               0.001082088               0.000772791               0.000000000               0.000000000               0.000000000               0.000000000               0.000136001               0.002937936              -0.000151170              -0.000316241               0.001084716               0.000768475               0.000000000               0.000000000               0.000000000               0.000000000               0.000121052               0.002948967              -0.000129812              -0.000323226               0.001090721               0.000767495               0.000000000               0.000000000               0.000000000               0.000000000               0.000106199               0.002968053              -0.000108722              -0.000331181               0.001099735               0.000768554               0.000000000               0.000000000               0.000000000               0.000000000               0.000086283               0.002989339              -0.000089851              -0.000341311               0.001110207               0.000768896               0.000000000               0.000000000               0.000000000               0.000000000               0.000063040               0.003013961              -0.000071195              -0.000353104               0.001122345               0.000769241               0.000000000               0.000000000               0.000000000               0.000000000               0.000039768               0.003032212              -0.000047529              -0.000364112               0.001132098               0.000767986               0.000000000               0.000000000               0.000000000               0.000000000               0.000022044               0.003038160              -0.000025156              -0.000371503               0.001136544               0.000765041               0.000000000               0.000000000               0.000000000               0.000000000               0.000009936               0.003031848              -0.000009843              -0.000375254               0.001135691               0.000760437               0.000000000               0.000000000               0.000000000               0.000000000               0.000002587               0.003022597              -0.000002861              -0.000376854               0.001133140               0.000756287               0.000000000               0.000000000               0.000000000               0.000000000               0.001113032               0.002333932              -0.001336779               0.000125643               0.000736088               0.000861731               0.000000000               0.000000000               0.000000000               0.000000000               0.000692152               0.002505115              -0.001049979              -0.000053583               0.000852891               0.000799307               0.000000000               0.000000000               0.000000000               0.000000000               0.000376757               0.002802115              -0.000714696              -0.000208980               0.001003689               0.000794708               0.000000000               0.000000000               0.000000000               0.000000000               0.000280742               0.002878699              -0.000518442              -0.000254559               0.001044410               0.000789851               0.000000000               0.000000000               0.000000000               0.000000000               0.000232324               0.002900701              -0.000396640              -0.000275466               0.001058712               0.000783247               0.000000000               0.000000000               0.000000000               0.000000000               0.000198021               0.002903107              -0.000317955              -0.000288630               0.001063902               0.000775272               0.000000000               0.000000000               0.000000000               0.000000000               0.000172048               0.002904045              -0.000262024              -0.000298487               0.001067501               0.000769014               0.000000000               0.000000000               0.000000000               0.000000000               0.000154955               0.002911588              -0.000219508              -0.000305840               0.001072466               0.000766627               0.000000000               0.000000000               0.000000000               0.000000000               0.000143594               0.002923107              -0.000184951              -0.000311540               0.001078206               0.000766666               0.000000000               0.000000000               0.000000000               0.000000000               0.000133929               0.002945027              -0.000154973              -0.000317904               0.001087634               0.000769730               0.000000000               0.000000000               0.000000000               0.000000000               0.000123497               0.002976237              -0.000126300              -0.000325717               0.001100641               0.000774924               0.000000000               0.000000000               0.000000000               0.000000000               0.000105441               0.003007414              -0.000098736              -0.000336385               0.001114590               0.000778204               0.000000000               0.000000000               0.000000000               0.000000000               0.000078826               0.003033693              -0.000074035              -0.000349651               0.001127771               0.000778120               0.000000000               0.000000000               0.000000000               0.000000000               0.000051205               0.003046843              -0.000049796              -0.000361653               0.001136155               0.000774502               0.000000000               0.000000000               0.000000000               0.000000000               0.000030295               0.003043583              -0.000025875              -0.000369086               0.001137546               0.000768460               0.000000000               0.000000000               0.000000000               0.000000000               0.000011816               0.003028057              -0.000007654              -0.000374075               0.001134034               0.000759959               0.000000000               0.000000000               0.000000000               0.000000000              -0.000001201               0.003014152               0.000000673              -0.000377218               0.001130447               0.000753228               0.000000000               0.000000000               0.000000000               0.000000000               0.001067017               0.001826790              -0.001177501               0.000171780               0.000551663               0.000723443               0.000000000               0.000000000               0.000000000               0.000000000               0.000700319               0.002103735              -0.001019909              -0.000000349               0.000701354               0.000701005               0.000000000               0.000000000               0.000000000               0.000000000               0.000391818               0.002511753              -0.000795784              -0.000167038               0.000892922               0.000725884               0.000000000               0.000000000               0.000000000               0.000000000               0.000299492               0.002673385              -0.000614758              -0.000221863               0.000965074               0.000743210               0.000000000               0.000000000               0.000000000               0.000000000               0.000253837               0.002751448              -0.000487616              -0.000248742               0.001000054               0.000751312               0.000000000               0.000000000               0.000000000               0.000000000               0.000218979               0.002794388              -0.000397437              -0.000267181               0.001020514               0.000753333               0.000000000               0.000000000               0.000000000               0.000000000               0.000192893               0.002824099              -0.000331521              -0.000280677               0.001034916               0.000754239               0.000000000               0.000000000               0.000000000               0.000000000               0.000174686               0.002849488              -0.000282088              -0.000290678               0.001046712               0.000756034               0.000000000               0.000000000               0.000000000               0.000000000               0.000165409               0.002873762              -0.000240942              -0.000297191               0.001056975               0.000759784               0.000000000               0.000000000               0.000000000               0.000000000               0.000158941               0.002905824              -0.000202222              -0.000303624               0.001069806               0.000766182               0.000000000               0.000000000               0.000000000               0.000000000               0.000147726               0.002945559              -0.000162827              -0.000312797               0.001086109               0.000773312               0.000000000               0.000000000               0.000000000               0.000000000               0.000128875               0.002982665              -0.000125352              -0.000324504               0.001102380               0.000777876               0.000000000               0.000000000               0.000000000               0.000000000               0.000102793               0.003011657              -0.000093101              -0.000337909               0.001116512               0.000778603               0.000000000               0.000000000               0.000000000               0.000000000               0.000069373               0.003024793              -0.000064280              -0.000352084               0.001125615               0.000773532               0.000000000               0.000000000               0.000000000               0.000000000               0.000036591               0.003027365              -0.000036631              -0.000364698               0.001130678               0.000765979               0.000000000               0.000000000               0.000000000               0.000000000               0.000007228               0.003020468              -0.000012186              -0.000374847               0.001131762               0.000756915               0.000000000               0.000000000               0.000000000               0.000000000              -0.000011729               0.003008338               0.000000251              -0.000380440               0.001129583               0.000749143               0.000000000               0.000000000               0.000000000               0.000000000               0.000960447               0.001350746              -0.000992143               0.000191322               0.000386470               0.000577791               0.000000000               0.000000000               0.000000000               0.000000000               0.000706474               0.001705006              -0.000962563               0.000051800               0.000551062               0.000602863               0.000000000               0.000000000               0.000000000               0.000000000               0.000443651               0.002188131              -0.000858223              -0.000107148               0.000765085               0.000657937               0.000000000               0.000000000               0.000000000               0.000000000               0.000350879               0.002429349              -0.000709247              -0.000172089               0.000867138               0.000695049               0.000000000               0.000000000               0.000000000               0.000000000               0.000304822               0.002570985              -0.000583778              -0.000207065               0.000926008               0.000718943               0.000000000               0.000000000               0.000000000               0.000000000               0.000266908               0.002662573              -0.000486731              -0.000232731               0.000965092               0.000732362               0.000000000               0.000000000               0.000000000               0.000000000               0.000235098               0.002724859              -0.000412914              -0.000252445               0.000992426               0.000739980               0.000000000               0.000000000               0.000000000               0.000000000               0.000211497               0.002772921              -0.000357992              -0.000267303               0.001013399               0.000746096               0.000000000               0.000000000               0.000000000               0.000000000               0.000196785               0.002815234              -0.000312176              -0.000278109               0.001031105               0.000752996               0.000000000               0.000000000               0.000000000               0.000000000               0.000189049               0.002861704              -0.000265337              -0.000286819               0.001049498               0.000762679               0.000000000               0.000000000               0.000000000               0.000000000               0.000176987               0.002911610              -0.000215632              -0.000297580               0.001069720               0.000772140               0.000000000               0.000000000               0.000000000               0.000000000               0.000157892               0.002954856              -0.000170719              -0.000310147               0.001088324               0.000778178               0.000000000               0.000000000               0.000000000               0.000000000               0.000130633               0.002984593              -0.000131557              -0.000324086               0.001102883               0.000778797               0.000000000               0.000000000               0.000000000               0.000000000               0.000096843               0.003003453              -0.000095327              -0.000339115               0.001114179               0.000775065               0.000000000               0.000000000               0.000000000               0.000000000               0.000057635               0.003013918              -0.000059442              -0.000355126               0.001123005               0.000767879               0.000000000               0.000000000               0.000000000               0.000000000               0.000012983               0.003013224              -0.000025290              -0.000371783               0.001128326               0.000756542               0.000000000               0.000000000               0.000000000               0.000000000              -0.000020582               0.003002594              -0.000005718              -0.000383041               0.001128535               0.000745494               0.000000000               0.000000000               0.000000000               0.000000000               0.000799762               0.000933655              -0.000785219               0.000183202               0.000250147               0.000433349               0.000000000               0.000000000               0.000000000               0.000000000               0.000685225               0.001320926              -0.000861356               0.000091842               0.000409690               0.000501532               0.000000000               0.000000000               0.000000000               0.000000000               0.000507865               0.001828955              -0.000864473              -0.000038171               0.000622369               0.000584198               0.000000000               0.000000000               0.000000000               0.000000000               0.000427773               0.002130955              -0.000760250              -0.000105955               0.000745629               0.000639674               0.000000000               0.000000000               0.000000000               0.000000000               0.000382588               0.002334361              -0.000648484              -0.000148325               0.000827554               0.000679229               0.000000000               0.000000000               0.000000000               0.000000000               0.000342398               0.002477990              -0.000553457              -0.000181350               0.000886438               0.000705089               0.000000000               0.000000000               0.000000000               0.000000000               0.000303783               0.002578205              -0.000479753              -0.000208357               0.000928845               0.000720488               0.000000000               0.000000000               0.000000000               0.000000000               0.000271240               0.002659028              -0.000423119              -0.000230663               0.000963221               0.000732558               0.000000000               0.000000000               0.000000000               0.000000000               0.000247909               0.002730781              -0.000374471              -0.000248381               0.000993045               0.000744664               0.000000000               0.000000000               0.000000000               0.000000000               0.000232386               0.002796468              -0.000323422              -0.000262413               0.001019618               0.000757205               0.000000000               0.000000000               0.000000000               0.000000000               0.000218789               0.002859810              -0.000269295              -0.000275430               0.001045070               0.000769641               0.000000000               0.000000000               0.000000000               0.000000000               0.000198434               0.002915469              -0.000219773              -0.000290020               0.001068487               0.000778466               0.000000000               0.000000000               0.000000000               0.000000000               0.000169809               0.002954582              -0.000176908              -0.000305644               0.001086732               0.000781088               0.000000000               0.000000000               0.000000000               0.000000000               0.000135287               0.002978725              -0.000136889              -0.000321607               0.001100101               0.000778494               0.000000000               0.000000000               0.000000000               0.000000000               0.000091499               0.002992925              -0.000092044              -0.000339803               0.001110899               0.000771096               0.000000000               0.000000000               0.000000000               0.000000000               0.000037319               0.003002832              -0.000043409              -0.000361359               0.001121387               0.000760028               0.000000000               0.000000000               0.000000000               0.000000000              -0.000008261               0.002996395              -0.000013302              -0.000377646               0.001124670               0.000747024               0.000000000               0.000000000               0.000000000               0.000000000               0.000603516               0.000596022              -0.000577180               0.000151814               0.000148067               0.000299881               0.000000000               0.000000000               0.000000000               0.000000000               0.000642580               0.000971358              -0.000722476               0.000119546               0.000283934               0.000403480               0.000000000               0.000000000               0.000000000               0.000000000               0.000577247               0.001460816              -0.000805379               0.000033864               0.000475645               0.000509510               0.000000000               0.000000000               0.000000000               0.000000000               0.000525943               0.001799335              -0.000748127              -0.000027689               0.000609002               0.000581313               0.000000000               0.000000000               0.000000000               0.000000000               0.000484789               0.002052575              -0.000659621              -0.000074777               0.000709110               0.000634334               0.000000000               0.000000000               0.000000000               0.000000000               0.000444048               0.002244986              -0.000576149              -0.000114105               0.000786356               0.000672251               0.000000000               0.000000000               0.000000000               0.000000000               0.000400564               0.002387678              -0.000508014              -0.000148248               0.000845301               0.000697052               0.000000000               0.000000000               0.000000000               0.000000000               0.000357149               0.002500756              -0.000453990              -0.000178663               0.000893131               0.000714468               0.000000000               0.000000000               0.000000000               0.000000000               0.000323467               0.002601103              -0.000406923              -0.000203837               0.000934972               0.000731134               0.000000000               0.000000000               0.000000000               0.000000000               0.000300549               0.002695541              -0.000356682              -0.000224236               0.000973250               0.000749014               0.000000000               0.000000000               0.000000000               0.000000000               0.000284387               0.002781916              -0.000302828              -0.000241094               0.001007661               0.000766567               0.000000000               0.000000000               0.000000000               0.000000000               0.000263448               0.002852525              -0.000252598              -0.000257772               0.001036756               0.000778984               0.000000000               0.000000000               0.000000000               0.000000000               0.000236230               0.002906728              -0.000211163              -0.000274754               0.001060485               0.000785730               0.000000000               0.000000000               0.000000000               0.000000000               0.000202021               0.002944494              -0.000170005              -0.000292303               0.001078922               0.000786619               0.000000000               0.000000000               0.000000000               0.000000000               0.000160344               0.002970983              -0.000120379              -0.000311243               0.001094066               0.000782822               0.000000000               0.000000000               0.000000000               0.000000000               0.000108115               0.002992773              -0.000062458              -0.000333553               0.001108765               0.000775213               0.000000000               0.000000000               0.000000000               0.000000000               0.000062482               0.002992592              -0.000026909              -0.000350642               0.001114402               0.000763759               0.000000000               0.000000000               0.000000000               0.000000000               0.000397783               0.000345723              -0.000388174               0.000105952               0.000079922               0.000185874               0.000000000               0.000000000               0.000000000               0.000000000               0.000586999               0.000677905              -0.000557221               0.000135385               0.000180838               0.000316222               0.000000000               0.000000000               0.000000000               0.000000000               0.000644453               0.001118735              -0.000679360               0.000101827               0.000338965               0.000440792               0.000000000               0.000000000               0.000000000               0.000000000               0.000634074               0.001471330              -0.000660360               0.000053860               0.000472485               0.000526345               0.000000000               0.000000000               0.000000000               0.000000000               0.000604903               0.001757430              -0.000598746               0.000007159               0.000583418               0.000590577               0.000000000               0.000000000               0.000000000               0.000000000               0.000564896               0.001987924              -0.000532434              -0.000036655               0.000674853               0.000638198               0.000000000               0.000000000               0.000000000               0.000000000               0.000517645               0.002164776              -0.000475800              -0.000076481               0.000747078               0.000670598               0.000000000               0.000000000               0.000000000               0.000000000               0.000468215               0.002308137              -0.000430110              -0.000112936               0.000807017               0.000694080               0.000000000               0.000000000               0.000000000               0.000000000               0.000421949               0.002439664              -0.000390133              -0.000146727               0.000862122               0.000715395               0.000000000               0.000000000               0.000000000               0.000000000               0.000387976               0.002565726              -0.000347217              -0.000175225               0.000913642               0.000738417               0.000000000               0.000000000               0.000000000               0.000000000               0.000365793               0.002676859              -0.000298864              -0.000197435               0.000958089               0.000760654               0.000000000               0.000000000               0.000000000               0.000000000               0.000344276               0.002766213              -0.000251722              -0.000216672               0.000994286               0.000777613               0.000000000               0.000000000               0.000000000               0.000000000               0.000315013               0.002841312              -0.000211780              -0.000237034               0.001026106               0.000789072               0.000000000               0.000000000               0.000000000               0.000000000               0.000283103               0.002903195              -0.000175285              -0.000256735               0.001053300               0.000796565               0.000000000               0.000000000               0.000000000               0.000000000               0.000253521               0.002948256              -0.000130724              -0.000273461               0.001073896               0.000800435               0.000000000               0.000000000               0.000000000               0.000000000               0.000220088               0.002981889              -0.000070339              -0.000290202               0.001090687               0.000800485               0.000000000               0.000000000               0.000000000               0.000000000               0.000188918               0.002990700              -0.000033403              -0.000302993               0.001097888               0.000794895               0.000000000               0.000000000               0.000000000               0.000000000               0.000214328               0.000178929              -0.000231275               0.000058006               0.000040307               0.000098313               0.000000000               0.000000000               0.000000000               0.000000000               0.000529843               0.000456933              -0.000376254               0.000141573               0.000105118               0.000246691               0.000000000               0.000000000               0.000000000               0.000000000               0.000699717               0.000839212              -0.000491506               0.000157491               0.000227237               0.000384728               0.000000000               0.000000000               0.000000000               0.000000000               0.000731822               0.001187795              -0.000494715               0.000125958               0.000353942               0.000479899               0.000000000               0.000000000               0.000000000               0.000000000               0.000716465               0.001487599              -0.000457712               0.000082723               0.000468287               0.000551010               0.000000000               0.000000000               0.000000000               0.000000000               0.000680631               0.001742422              -0.000412350               0.000037433               0.000568324               0.000605757               0.000000000               0.000000000               0.000000000               0.000000000               0.000633449               0.001951025              -0.000373202              -0.000006335               0.000652447               0.000646112               0.000000000               0.000000000               0.000000000               0.000000000               0.000581273               0.002126882              -0.000340468              -0.000047883               0.000724915               0.000677031               0.000000000               0.000000000               0.000000000               0.000000000               0.000524732               0.002285899              -0.000311214              -0.000088963               0.000791613               0.000702650               0.000000000               0.000000000               0.000000000               0.000000000               0.000475585               0.002432685              -0.000282861              -0.000125741               0.000852801               0.000727059               0.000000000               0.000000000               0.000000000               0.000000000               0.000441675               0.002565911              -0.000247620              -0.000155111               0.000906999               0.000751888               0.000000000               0.000000000               0.000000000               0.000000000               0.000414187               0.002682173              -0.000205181              -0.000179951               0.000954032               0.000774081               0.000000000               0.000000000               0.000000000               0.000000000               0.000386811               0.002781087              -0.000170555              -0.000202581               0.000994547               0.000791966               0.000000000               0.000000000               0.000000000               0.000000000               0.000365957               0.002864865              -0.000147677              -0.000220874               0.001028570               0.000807696               0.000000000               0.000000000               0.000000000               0.000000000               0.000350563               0.002926956              -0.000117150              -0.000234408               0.001053778               0.000819370               0.000000000               0.000000000               0.000000000               0.000000000               0.000341896               0.002972337              -0.000065224              -0.000243331               0.001071879               0.000828549               0.000000000               0.000000000               0.000000000               0.000000000               0.000336595               0.002991046              -0.000032803              -0.000247657               0.001079558               0.000831900               0.000000000               0.000000000               0.000000000               0.000000000               0.000086872               0.000082436              -0.000106725               0.000022272               0.000020054               0.000042326               0.000000000               0.000000000               0.000000000               0.000000000               0.000485887               0.000317650              -0.000188968               0.000142500               0.000058382               0.000200882               0.000000000               0.000000000               0.000000000               0.000000000               0.000734390               0.000654467              -0.000257587               0.000193586               0.000153625               0.000347211               0.000000000               0.000000000               0.000000000               0.000000000               0.000798675               0.000993770              -0.000265273               0.000175280               0.000272827               0.000448107               0.000000000               0.000000000               0.000000000               0.000000000               0.000793046               0.001296954              -0.000247867               0.000135272               0.000387223               0.000522495               0.000000000               0.000000000               0.000000000               0.000000000               0.000763128               0.001565469              -0.000224833               0.000090489               0.000491655               0.000582144               0.000000000               0.000000000               0.000000000               0.000000000               0.000718300               0.001801370              -0.000206516               0.000044191               0.000585720               0.000629911               0.000000000               0.000000000               0.000000000               0.000000000               0.000663440               0.002002740              -0.000190447              -0.000001553               0.000668091               0.000666538               0.000000000               0.000000000               0.000000000               0.000000000               0.000603147               0.002173357              -0.000174717              -0.000045489               0.000739608               0.000694119               0.000000000               0.000000000               0.000000000               0.000000000               0.000544702               0.002329506              -0.000161838              -0.000086925               0.000805469               0.000718544               0.000000000               0.000000000               0.000000000               0.000000000               0.000496064               0.002479892              -0.000142227              -0.000123962               0.000867943               0.000743981               0.000000000               0.000000000               0.000000000               0.000000000               0.000464215               0.002618297              -0.000114335              -0.000153206               0.000923826               0.000770619               0.000000000               0.000000000               0.000000000               0.000000000               0.000448142               0.002736584              -0.000095588              -0.000174019               0.000970192               0.000796173               0.000000000               0.000000000               0.000000000               0.000000000               0.000439315               0.002836408              -0.000085939              -0.000189807               0.001008729               0.000818922               0.000000000               0.000000000               0.000000000               0.000000000               0.000433721               0.002914336              -0.000070861              -0.000201646               0.001038651               0.000837005               0.000000000               0.000000000               0.000000000               0.000000000               0.000440814               0.002969716              -0.000042043              -0.000205909               0.001058532               0.000852623               0.000000000               0.000000000               0.000000000               0.000000000               0.000455544               0.002994630              -0.000023594              -0.000203499               0.001066033               0.000862534               0.000000000               0.000000000               0.000000000               0.000000000               0.000000000               0.000000000               0.000000000               0.000000000               0.000000000               0.000000000               0.000000000               0.000000000               0.000000000               0.000000000               0.000000000               0.000000000               0.000000000               0.000000000               0.000000000               0.000000000               0.000000000               0.000000000               0.000000000               0.000000000               0.000000000               0.000000000               0.000000000               0.000000000               0.000000000               0.000000000               0.000000000               0.000000000               0.000000000               0.000000000               0.000000000               0.000000000               0.000000000               0.000000000               0.000000000               0.000000000               0.000000000               0.000000000               0.000000000               0.000000000               0.000000000               0.000000000               0.000000000               0.000000000               0.000000000               0.000000000               0.000000000               0.000000000               0.000000000               0.000000000               0.000000000               0.000000000               0.000000000               0.000000000               0.000000000               0.000000000               0.000000000               0.000000000               0.000000000               0.000000000               0.000000000               0.000000000               0.000000000               0.000000000               0.000000000               0.000000000               0.000000000               0.000000000               0.000000000               0.000000000               0.000000000               0.000000000               0.000000000               0.000000000               0.000000000               0.000000000               0.000000000               0.000000000               0.000000000               0.000000000               0.000000000               0.000000000               0.000000000               0.000000000               0.000000000               0.000000000               0.000000000               0.000000000               0.000000000               0.000000000               0.000000000               0.000000000               0.000000000               0.000000000               0.000000000               0.000000000               0.000000000               0.000000000               0.000000000               0.000000000               0.000000000               0.000000000               0.000000000               0.000000000               0.000000000               0.000000000               0.000000000               0.000000000               0.000000000               0.000000000               0.000000000               0.000000000               0.000000000               0.000000000               0.000000000               0.000000000               0.000000000               0.000000000               0.000000000               0.000000000               0.000000000               0.000000000               0.000000000               0.000000000               0.000000000               0.000000000               0.000000000               0.000000000               0.000000000               0.000000000               0.000000000               0.000000000               0.000000000               0.000000000               0.000000000               0.000000000               0.000000000               0.000000000               0.000000000               0.000000000               0.000000000               0.000000000               0.000000000               0.000000000               0.000000000               0.000000000               0.000000000               0.000000000               0.000000000               0.000000000               0.000000000               0.000000000               0.000000000               0.000000000               0.000000000               0.000000000               0.000000000               0.000000000               0.000000000               0.000000000               0.000000000               0.000000000               0.000000000               0.000000000               0.000000000               0.000000000               0.000000000               0.000000000               0.000000000               0.000000000               0.000000000               0.000000000               0.000000000               0.000000000               0.000000000               0.000000000               0.000000000               0.000000000               0.000000000               0.000000000               0.000000000               0.000000000               0.000000000               0.000000000               0.000000000               0.000000000               0.000000000               0.000000000               0.000000000               0.000000000               0.000000000               0.000000000               0.000000000               0.000000000               0.000000000               0.000000000               0.000000000               0.000000000               0.000000000               0.000000000               0.000000000               0.000000000               0.000000000               0.000000000               0.000000000               0.000000000               0.000000000               0.000000000               0.000000000               0.000000000               0.000000000               0.000000000               0.000000000               0.000000000               0.000000000               0.000000000               0.000000000               0.000000000               0.000000000               0.000000000               0.000000000               0.000000000               0.000000000               0.000000000               0.000000000               0.000000000               0.000000000               0.000000000               0.000000000               0.000000000               0.000000000               0.000000000               0.000000000               0.000000000               0.000000000               0.000000000               0.000000000               0.000000000               0.000000000               0.000000000               0.000000000               0.000000000               0.000000000               0.000000000               0.000000000               0.000000000               0.000000000               0.000000000               0.000000000               0.000000000               0.000000000               0.000000000               0.000000000               0.000000000               0.000000000               0.000000000               0.000000000               0.000000000               0.000000000               0.000000000               0.000000000               0.000000000               0.000000000               0.000000000               0.000000000               0.000000000               0.000000000               0.000000000               0.000000000               0.000000000               0.000000000               0.000000000               0.000000000               0.000000000               0.000000000               0.000000000               0.000000000               0.000000000               0.000000000               0.000000000               0.000000000               0.000000000               0.000000000               0.000000000               0.000000000               0.000000000               0.000000000               0.000000000               0.000000000               0.000000000               0.000000000               0.000000000               0.000000000               0.000000000               0.000000000               0.000000000               0.000000000               0.000000000               0.000000000               0.000000000               0.000000000               0.000000000               0.000000000               0.000000000               0.000000000               0.000000000               0.000000000               0.000000000               0.000000000               0.000000000               0.000000000               0.000000000               0.000000000               0.000000000               0.000000000               0.000000000               0.000000000               0.000000000               0.000000000               0.000000000               0.000000000               0.000000000               0.000000000               0.000000000               0.000000000               0.000000000               0.000000000               0.000000000               0.000000000               0.000000000               0.000000000               0.000000000               0.000000000               0.000000000               0.000000000               0.000000000               0.000000000               0.000000000               0.000000000               0.000000000               0.000545529               0.005935173               0.000460331              -0.000537322               0.002157479               0.001620157               0.000000000               0.000000000               0.000000000               0.000000000               0.000575787               0.004940479               0.000298596              -0.000401639               0.001780689               0.001379050               0.000000000               0.000000000               0.000000000               0.000000000               0.000774664               0.004147782               0.000130894              -0.000227973               0.001458571               0.001230598               0.000000000               0.000000000               0.000000000               0.000000000               0.000794168               0.003711879               0.000051126              -0.000166172               0.001292671               0.001126500               0.000000000               0.000000000               0.000000000               0.000000000               0.000743087               0.003454294               0.000012838              -0.000153129               0.001202463               0.001049334               0.000000000               0.000000000               0.000000000               0.000000000               0.000670950               0.003295656              -0.000006298              -0.000160350               0.001151991               0.000991641               0.000000000               0.000000000               0.000000000               0.000000000               0.000599153               0.003197285              -0.000016626              -0.000174978               0.001124077               0.000949099               0.000000000               0.000000000               0.000000000               0.000000000               0.000527931               0.003135018              -0.000019982              -0.000193903               0.001109630               0.000915727               0.000000000               0.000000000               0.000000000               0.000000000               0.000460524               0.003096660              -0.000021309              -0.000214385               0.001103671               0.000889286               0.000000000               0.000000000               0.000000000               0.000000000               0.000400857               0.003077699              -0.000021878              -0.000234391               0.001104020               0.000869629               0.000000000               0.000000000               0.000000000               0.000000000               0.000345576               0.003070322              -0.000019562              -0.000254199               0.001108163               0.000853965               0.000000000               0.000000000               0.000000000               0.000000000               0.000292856               0.003068000              -0.000017611              -0.000273678               0.001113882               0.000840204               0.000000000               0.000000000               0.000000000               0.000000000               0.000239640               0.003071979              -0.000017973              -0.000294132               0.001122027               0.000827895               0.000000000               0.000000000               0.000000000               0.000000000               0.000182947               0.003079962              -0.000016508              -0.000316389               0.001132107               0.000815717               0.000000000               0.000000000               0.000000000               0.000000000               0.000122850               0.003088546              -0.000013036              -0.000339999               0.001142838               0.000802839               0.000000000               0.000000000               0.000000000               0.000000000               0.000060548               0.003095971              -0.000007469              -0.000364290               0.001153410               0.000789120               0.000000000               0.000000000               0.000000000               0.000000000               0.000031508               0.003103829              -0.000002823              -0.000376162               0.001159987               0.000783824               0.000000000               0.000000000               0.000000000               0.000000000               0.000643504               0.005649965               0.000872248              -0.000464931               0.002038280               0.001573349               0.000000000               0.000000000               0.000000000               0.000000000               0.000610726               0.004738633               0.000567323              -0.000363306               0.001700631               0.001337324               0.000000000               0.000000000               0.000000000               0.000000000               0.000740617               0.004038037               0.000252765              -0.000227023               0.001421673               0.001194650               0.000000000               0.000000000               0.000000000               0.000000000               0.000729729               0.003650913               0.000106367              -0.000182715               0.001277864               0.001095149               0.000000000               0.000000000               0.000000000               0.000000000               0.000671248               0.003417547               0.000034473              -0.000175475               0.001197663               0.001022188               0.000000000               0.000000000               0.000000000               0.000000000               0.000601731               0.003275300              -0.000001650              -0.000183763               0.001153010               0.000969247               0.000000000               0.000000000               0.000000000               0.000000000               0.000531061               0.003186100              -0.000019136              -0.000199114               0.001128394               0.000929280               0.000000000               0.000000000               0.000000000               0.000000000               0.000462778               0.003130262              -0.000025163              -0.000217740               0.001115990               0.000898250               0.000000000               0.000000000               0.000000000               0.000000000               0.000400376               0.003097503              -0.000027568              -0.000237046               0.001111506               0.000874460               0.000000000               0.000000000               0.000000000               0.000000000               0.000345946               0.003080337              -0.000029145              -0.000255312               0.001111873               0.000856561               0.000000000               0.000000000               0.000000000               0.000000000               0.000297254               0.003073735              -0.000024768              -0.000272746               0.001115483               0.000842737               0.000000000               0.000000000               0.000000000               0.000000000               0.000252105               0.003072952              -0.000020577              -0.000289579               0.001120833               0.000831254               0.000000000               0.000000000               0.000000000               0.000000000               0.000207259               0.003077065              -0.000021544              -0.000306910               0.001127982               0.000821071               0.000000000               0.000000000               0.000000000               0.000000000               0.000158384               0.003086777              -0.000020637              -0.000326452               0.001137733               0.000811281               0.000000000               0.000000000               0.000000000               0.000000000               0.000105518               0.003101337              -0.000016359              -0.000348097               0.001149801               0.000801704               0.000000000               0.000000000               0.000000000               0.000000000               0.000051432               0.003119416              -0.000009171              -0.000370639               0.001163341               0.000792702               0.000000000               0.000000000               0.000000000               0.000000000               0.000028360               0.003137391              -0.000003002              -0.000381538               0.001172966               0.000791428               0.000000000               0.000000000               0.000000000               0.000000000               0.000776966               0.005215403               0.001199471              -0.000360563               0.001858638               0.001498075               0.000000000               0.000000000               0.000000000               0.000000000               0.000652903               0.004434648               0.000784328              -0.000309492               0.001581365               0.001271873               0.000000000               0.000000000               0.000000000               0.000000000               0.000687549               0.003874543               0.000359381              -0.000226486               0.001366997               0.001140510               0.000000000               0.000000000               0.000000000               0.000000000               0.000640435               0.003555583               0.000166290              -0.000204284               0.001253277               0.001048993               0.000000000               0.000000000               0.000000000               0.000000000               0.000571428               0.003361262               0.000071450              -0.000205872               0.001189033               0.000983162               0.000000000               0.000000000               0.000000000               0.000000000               0.000502936               0.003241024               0.000024025              -0.000216526               0.001152506               0.000935980               0.000000000               0.000000000               0.000000000               0.000000000               0.000438531               0.003167274               0.000002076              -0.000231460               0.001132901               0.000901441               0.000000000               0.000000000               0.000000000               0.000000000               0.000378641               0.003121169              -0.000006776              -0.000248155               0.001123097               0.000874943               0.000000000               0.000000000               0.000000000               0.000000000               0.000326921               0.003092809              -0.000010617              -0.000264005               0.001118928               0.000854923               0.000000000               0.000000000               0.000000000               0.000000000               0.000279771               0.003075891              -0.000012996              -0.000279571               0.001118477               0.000838906               0.000000000               0.000000000               0.000000000               0.000000000               0.000234779               0.003067279              -0.000009520              -0.000295367               0.001120872               0.000825505               0.000000000               0.000000000               0.000000000               0.000000000               0.000195516               0.003066178              -0.000003955              -0.000309953               0.001125367               0.000815414               0.000000000               0.000000000               0.000000000               0.000000000               0.000158858               0.003068787              -0.000005133              -0.000324026               0.001130927               0.000806902               0.000000000               0.000000000               0.000000000               0.000000000               0.000120412               0.003077454              -0.000008529              -0.000339526               0.001138983               0.000799457               0.000000000               0.000000000               0.000000000               0.000000000               0.000079668               0.003094046              -0.000008441              -0.000356879               0.001150298               0.000793419               0.000000000               0.000000000               0.000000000               0.000000000               0.000038411               0.003117217              -0.000005269              -0.000375247               0.001164144               0.000788897               0.000000000               0.000000000               0.000000000               0.000000000               0.000022625               0.003139247              -0.000000758              -0.000383920               0.001174379               0.000790458               0.000000000               0.000000000               0.000000000               0.000000000               0.000914742               0.004669720               0.001420887              -0.000240688               0.001636787               0.001396099               0.000000000               0.000000000               0.000000000               0.000000000               0.000688169               0.004057813               0.000937822              -0.000249163               0.001435645               0.001186482               0.000000000               0.000000000               0.000000000               0.000000000               0.000614864               0.003670081               0.000448362              -0.000228186               0.001299410               0.001071224               0.000000000               0.000000000               0.000000000               0.000000000               0.000538191               0.003436319               0.000232252              -0.000227718               0.001221334               0.000993616               0.000000000               0.000000000               0.000000000               0.000000000               0.000466021               0.003289696               0.000126249              -0.000236454               0.001175372               0.000938919               0.000000000               0.000000000               0.000000000               0.000000000               0.000398853               0.003194589               0.000071616              -0.000249753               0.001148103               0.000898350               0.000000000               0.000000000               0.000000000               0.000000000               0.000342485               0.003133303               0.000043228              -0.000263230               0.001132167               0.000868937               0.000000000               0.000000000               0.000000000               0.000000000               0.000293767               0.003093287               0.000030653              -0.000276497               0.001123251               0.000846754               0.000000000               0.000000000               0.000000000               0.000000000               0.000250063               0.003066748               0.000025292              -0.000289569               0.001118762               0.000829193               0.000000000               0.000000000               0.000000000               0.000000000               0.000210713               0.003049327               0.000021717              -0.000302148               0.001117148               0.000815000               0.000000000               0.000000000               0.000000000               0.000000000               0.000174171               0.003039999               0.000022909              -0.000314685               0.001118218               0.000803533               0.000000000               0.000000000               0.000000000               0.000000000               0.000140691               0.003038860               0.000027105              -0.000327098               0.001121976               0.000794878               0.000000000               0.000000000               0.000000000               0.000000000               0.000110704               0.003042642               0.000023840              -0.000338815               0.001127142               0.000788327               0.000000000               0.000000000               0.000000000               0.000000000               0.000082130               0.003051558               0.000013330              -0.000350645               0.001134058               0.000783412               0.000000000               0.000000000               0.000000000               0.000000000               0.000052260               0.003068554               0.000004982              -0.000363971               0.001144165               0.000780194               0.000000000               0.000000000               0.000000000               0.000000000               0.000024440               0.003092218               0.000001154              -0.000377361               0.001156516               0.000779155               0.000000000               0.000000000               0.000000000               0.000000000               0.000016319               0.003113310               0.000002466              -0.000383043               0.001165441               0.000782397               0.000000000               0.000000000               0.000000000               0.000000000               0.001027204               0.004062226               0.001531685              -0.000122578               0.001394921               0.001272343               0.000000000               0.000000000               0.000000000               0.000000000               0.000710108               0.003647415               0.001030891              -0.000189637               0.001279005               0.001089368               0.000000000               0.000000000               0.000000000               0.000000000               0.000537081               0.003448391               0.000524041              -0.000229643               0.001226000               0.000996357               0.000000000               0.000000000               0.000000000               0.000000000               0.000437356               0.003300595               0.000303091              -0.000248566               0.001183043               0.000934477               0.000000000               0.000000000               0.000000000               0.000000000               0.000368402               0.003197557               0.000191405              -0.000261543               0.001153023               0.000891480               0.000000000               0.000000000               0.000000000               0.000000000               0.000310084               0.003126875               0.000130813              -0.000274577               0.001133807               0.000859230               0.000000000               0.000000000               0.000000000               0.000000000               0.000262282               0.003077860               0.000097323              -0.000286376               0.001121402               0.000835026               0.000000000               0.000000000               0.000000000               0.000000000               0.000223166               0.003044781               0.000080222              -0.000296910               0.001113887               0.000816977               0.000000000               0.000000000               0.000000000               0.000000000               0.000187551               0.003023927               0.000072561              -0.000307659               0.001110519               0.000802860               0.000000000               0.000000000               0.000000000               0.000000000               0.000155239               0.003009949               0.000065933              -0.000318028               0.001109316               0.000791288               0.000000000               0.000000000               0.000000000               0.000000000               0.000125821               0.003003944               0.000058961              -0.000328309               0.001110741               0.000782432               0.000000000               0.000000000               0.000000000               0.000000000               0.000100278               0.003008985               0.000056417              -0.000338518               0.001115824               0.000777306               0.000000000               0.000000000               0.000000000               0.000000000               0.000075688               0.003018180               0.000048975              -0.000348889               0.001122346               0.000773458               0.000000000               0.000000000               0.000000000               0.000000000               0.000053084               0.003032269               0.000031810              -0.000359126               0.001130455               0.000771329               0.000000000               0.000000000               0.000000000               0.000000000               0.000032271               0.003050186               0.000015256              -0.000369171               0.001139775               0.000770605               0.000000000               0.000000000               0.000000000               0.000000000               0.000014387               0.003069406               0.000004864              -0.000378280               0.001149218               0.000770939               0.000000000               0.000000000               0.000000000               0.000000000               0.000009666               0.003082943               0.000002404              -0.000381742               0.001154885               0.000773143               0.000000000               0.000000000               0.000000000               0.000000000               0.001093946               0.003444043               0.001542288              -0.000020278               0.001154761               0.001134484               0.000000000               0.000000000               0.000000000               0.000000000               0.000714209               0.003239618               0.001072740              -0.000137125               0.001125570               0.000988445               0.000000000               0.000000000               0.000000000               0.000000000               0.000464841               0.003225379               0.000590872              -0.000228857               0.001151401               0.000922544               0.000000000               0.000000000               0.000000000               0.000000000               0.000354782               0.003152629               0.000375701              -0.000261035               0.001137878               0.000876843               0.000000000               0.000000000               0.000000000               0.000000000               0.000292599               0.003090959               0.000259745              -0.000276645               0.001122524               0.000845879               0.000000000               0.000000000               0.000000000               0.000000000               0.000245035               0.003044939               0.000193900              -0.000288729               0.001111212               0.000822484               0.000000000               0.000000000               0.000000000               0.000000000               0.000206474               0.003010251               0.000156213              -0.000298853               0.001103025               0.000804172               0.000000000               0.000000000               0.000000000               0.000000000               0.000176290               0.002987735               0.000132708              -0.000307357               0.001098354               0.000790997               0.000000000               0.000000000               0.000000000               0.000000000               0.000149696               0.002976597               0.000118157              -0.000315938               0.001097502               0.000781564               0.000000000               0.000000000               0.000000000               0.000000000               0.000128268               0.002974427               0.000105162              -0.000323702               0.001099367               0.000775664               0.000000000               0.000000000               0.000000000               0.000000000               0.000108597               0.002979424               0.000089012              -0.000331703               0.001103699               0.000771996               0.000000000               0.000000000               0.000000000               0.000000000               0.000086786               0.002990474               0.000077839              -0.000341264               0.001110569               0.000769306               0.000000000               0.000000000               0.000000000               0.000000000               0.000063782               0.003007300               0.000065509              -0.000351993               0.001119754               0.000767761               0.000000000               0.000000000               0.000000000               0.000000000               0.000041373               0.003026261               0.000044138              -0.000362767               0.001129666               0.000766899               0.000000000               0.000000000               0.000000000               0.000000000               0.000023205               0.003041190               0.000023542              -0.000371446               0.001137535               0.000766089               0.000000000               0.000000000               0.000000000               0.000000000               0.000010662               0.003048646               0.000009616              -0.000377082               0.001141899               0.000764817               0.000000000               0.000000000               0.000000000               0.000000000               0.000005596               0.003048721               0.000003997              -0.000378991               0.001142561               0.000763570               0.000000000               0.000000000               0.000000000               0.000000000               0.001117421               0.002853463               0.001468242               0.000062348               0.000930362               0.000992709               0.000000000               0.000000000               0.000000000               0.000000000               0.000700797               0.002853754               0.001071786              -0.000093921               0.000982549               0.000888627               0.000000000               0.000000000               0.000000000               0.000000000               0.000404557               0.003003983               0.000649667              -0.000223789               0.001075914               0.000852125               0.000000000               0.000000000               0.000000000               0.000000000               0.000299268               0.003004815               0.000444340              -0.000263376               0.001089387               0.000826011               0.000000000               0.000000000               0.000000000               0.000000000               0.000247336               0.002986028               0.000325237              -0.000280502               0.001088833               0.000808332               0.000000000               0.000000000               0.000000000               0.000000000               0.000208389               0.002964190               0.000255388              -0.000292377               0.001085513               0.000793135               0.000000000               0.000000000               0.000000000               0.000000000               0.000176736               0.002944883               0.000210120              -0.000301834               0.001082229               0.000780395               0.000000000               0.000000000               0.000000000               0.000000000               0.000154206               0.002936995               0.000176578              -0.000309297               0.001082088               0.000772791               0.000000000               0.000000000               0.000000000               0.000000000               0.000136001               0.002937936               0.000151170              -0.000316241               0.001084716               0.000768475               0.000000000               0.000000000               0.000000000               0.000000000               0.000121052               0.002948967               0.000129812              -0.000323226               0.001090721               0.000767495               0.000000000               0.000000000               0.000000000               0.000000000               0.000106199               0.002968053               0.000108722              -0.000331181               0.001099735               0.000768554               0.000000000               0.000000000               0.000000000               0.000000000               0.000086283               0.002989339               0.000089851              -0.000341311               0.001110207               0.000768896               0.000000000               0.000000000               0.000000000               0.000000000               0.000063040               0.003013961               0.000071195              -0.000353104               0.001122345               0.000769241               0.000000000               0.000000000               0.000000000               0.000000000               0.000039768               0.003032212               0.000047529              -0.000364112               0.001132098               0.000767986               0.000000000               0.000000000               0.000000000               0.000000000               0.000022044               0.003038160               0.000025156              -0.000371503               0.001136544               0.000765041               0.000000000               0.000000000               0.000000000               0.000000000               0.000009936               0.003031848               0.000009843              -0.000375254               0.001135691               0.000760437               0.000000000               0.000000000               0.000000000               0.000000000               0.000002587               0.003022597               0.000002861              -0.000376854               0.001133140               0.000756287               0.000000000               0.000000000               0.000000000               0.000000000               0.001113032               0.002333932               0.001336779               0.000125643               0.000736088               0.000861731               0.000000000               0.000000000               0.000000000               0.000000000               0.000692152               0.002505115               0.001049979              -0.000053583               0.000852891               0.000799307               0.000000000               0.000000000               0.000000000               0.000000000               0.000376757               0.002802115               0.000714696              -0.000208980               0.001003689               0.000794708               0.000000000               0.000000000               0.000000000               0.000000000               0.000280742               0.002878699               0.000518442              -0.000254559               0.001044410               0.000789851               0.000000000               0.000000000               0.000000000               0.000000000               0.000232324               0.002900701               0.000396640              -0.000275466               0.001058712               0.000783247               0.000000000               0.000000000               0.000000000               0.000000000               0.000198021               0.002903107               0.000317955              -0.000288630               0.001063902               0.000775272               0.000000000               0.000000000               0.000000000               0.000000000               0.000172048               0.002904045               0.000262024              -0.000298487               0.001067501               0.000769014               0.000000000               0.000000000               0.000000000               0.000000000               0.000154955               0.002911588               0.000219508              -0.000305840               0.001072466               0.000766627               0.000000000               0.000000000               0.000000000               0.000000000               0.000143594               0.002923107               0.000184951              -0.000311540               0.001078206               0.000766666               0.000000000               0.000000000               0.000000000               0.000000000               0.000133929               0.002945027               0.000154973              -0.000317904               0.001087634               0.000769730               0.000000000               0.000000000               0.000000000               0.000000000               0.000123497               0.002976237               0.000126300              -0.000325717               0.001100641               0.000774924               0.000000000               0.000000000               0.000000000               0.000000000               0.000105441               0.003007414               0.000098736              -0.000336385               0.001114590               0.000778204               0.000000000               0.000000000               0.000000000               0.000000000               0.000078826               0.003033693               0.000074035              -0.000349651               0.001127771               0.000778120               0.000000000               0.000000000               0.000000000               0.000000000               0.000051205               0.003046843               0.000049796              -0.000361653               0.001136155               0.000774502               0.000000000               0.000000000               0.000000000               0.000000000               0.000030295               0.003043583               0.000025875              -0.000369086               0.001137546               0.000768460               0.000000000               0.000000000               0.000000000               0.000000000               0.000011816               0.003028057               0.000007654              -0.000374075               0.001134034               0.000759959               0.000000000               0.000000000               0.000000000               0.000000000              -0.000001201               0.003014152              -0.000000673              -0.000377218               0.001130447               0.000753228               0.000000000               0.000000000               0.000000000               0.000000000               0.001067017               0.001826790               0.001177501               0.000171780               0.000551663               0.000723443               0.000000000               0.000000000               0.000000000               0.000000000               0.000700319               0.002103735               0.001019909              -0.000000349               0.000701354               0.000701005               0.000000000               0.000000000               0.000000000               0.000000000               0.000391818               0.002511753               0.000795784              -0.000167038               0.000892922               0.000725884               0.000000000               0.000000000               0.000000000               0.000000000               0.000299492               0.002673385               0.000614758              -0.000221863               0.000965074               0.000743210               0.000000000               0.000000000               0.000000000               0.000000000               0.000253837               0.002751448               0.000487616              -0.000248742               0.001000054               0.000751312               0.000000000               0.000000000               0.000000000               0.000000000               0.000218979               0.002794388               0.000397437              -0.000267181               0.001020514               0.000753333               0.000000000               0.000000000               0.000000000               0.000000000               0.000192893               0.002824099               0.000331521              -0.000280677               0.001034916               0.000754239               0.000000000               0.000000000               0.000000000               0.000000000               0.000174686               0.002849488               0.000282088              -0.000290678               0.001046712               0.000756034               0.000000000               0.000000000               0.000000000               0.000000000               0.000165409               0.002873762               0.000240942              -0.000297191               0.001056975               0.000759784               0.000000000               0.000000000               0.000000000               0.000000000               0.000158941               0.002905824               0.000202222              -0.000303624               0.001069806               0.000766182               0.000000000               0.000000000               0.000000000               0.000000000               0.000147726               0.002945559               0.000162827              -0.000312797               0.001086109               0.000773312               0.000000000               0.000000000               0.000000000               0.000000000               0.000128875               0.002982665               0.000125352              -0.000324504               0.001102380               0.000777876               0.000000000               0.000000000               0.000000000               0.000000000               0.000102793               0.003011657               0.000093101              -0.000337909               0.001116512               0.000778603               0.000000000               0.000000000               0.000000000               0.000000000               0.000069373               0.003024793               0.000064280              -0.000352084               0.001125615               0.000773532               0.000000000               0.000000000               0.000000000               0.000000000               0.000036591               0.003027365               0.000036631              -0.000364698               0.001130678               0.000765979               0.000000000               0.000000000               0.000000000               0.000000000               0.000007228               0.003020468               0.000012186              -0.000374847               0.001131762               0.000756915               0.000000000               0.000000000               0.000000000               0.000000000              -0.000011729               0.003008338              -0.000000251              -0.000380440               0.001129583               0.000749143               0.000000000               0.000000000               0.000000000               0.000000000               0.000960447               0.001350746               0.000992143               0.000191322               0.000386470               0.000577791               0.000000000               0.000000000               0.000000000               0.000000000               0.000706474               0.001705006               0.000962563               0.000051800               0.000551062               0.000602863               0.000000000               0.000000000               0.000000000               0.000000000               0.000443651               0.002188131               0.000858223              -0.000107148               0.000765085               0.000657937               0.000000000               0.000000000               0.000000000               0.000000000               0.000350879               0.002429349               0.000709247              -0.000172089               0.000867138               0.000695049               0.000000000               0.000000000               0.000000000               0.000000000               0.000304822               0.002570985               0.000583778              -0.000207065               0.000926008               0.000718943               0.000000000               0.000000000               0.000000000               0.000000000               0.000266908               0.002662573               0.000486731              -0.000232731               0.000965092               0.000732362               0.000000000               0.000000000               0.000000000               0.000000000               0.000235098               0.002724859               0.000412914              -0.000252445               0.000992426               0.000739980               0.000000000               0.000000000               0.000000000               0.000000000               0.000211497               0.002772921               0.000357992              -0.000267303               0.001013399               0.000746096               0.000000000               0.000000000               0.000000000               0.000000000               0.000196785               0.002815234               0.000312176              -0.000278109               0.001031105               0.000752996               0.000000000               0.000000000               0.000000000               0.000000000               0.000189049               0.002861704               0.000265337              -0.000286819               0.001049498               0.000762679               0.000000000               0.000000000               0.000000000               0.000000000               0.000176987               0.002911610               0.000215632              -0.000297580               0.001069720               0.000772140               0.000000000               0.000000000               0.000000000               0.000000000               0.000157892               0.002954856               0.000170719              -0.000310147               0.001088324               0.000778178               0.000000000               0.000000000               0.000000000               0.000000000               0.000130633               0.002984593               0.000131557              -0.000324086               0.001102883               0.000778797               0.000000000               0.000000000               0.000000000               0.000000000               0.000096843               0.003003453               0.000095327              -0.000339115               0.001114179               0.000775065               0.000000000               0.000000000               0.000000000               0.000000000               0.000057635               0.003013918               0.000059442              -0.000355126               0.001123005               0.000767879               0.000000000               0.000000000               0.000000000               0.000000000               0.000012983               0.003013224               0.000025290              -0.000371783               0.001128326               0.000756542               0.000000000               0.000000000               0.000000000               0.000000000              -0.000020582               0.003002594               0.000005718              -0.000383041               0.001128535               0.000745494               0.000000000               0.000000000               0.000000000               0.000000000               0.000799762               0.000933655               0.000785219               0.000183202               0.000250147               0.000433349               0.000000000               0.000000000               0.000000000               0.000000000               0.000685225               0.001320926               0.000861356               0.000091842               0.000409690               0.000501532               0.000000000               0.000000000               0.000000000               0.000000000               0.000507865               0.001828955               0.000864473              -0.000038171               0.000622369               0.000584198               0.000000000               0.000000000               0.000000000               0.000000000               0.000427773               0.002130955               0.000760250              -0.000105955               0.000745629               0.000639674               0.000000000               0.000000000               0.000000000               0.000000000               0.000382588               0.002334361               0.000648484              -0.000148325               0.000827554               0.000679229               0.000000000               0.000000000               0.000000000               0.000000000               0.000342398               0.002477990               0.000553457              -0.000181350               0.000886438               0.000705089               0.000000000               0.000000000               0.000000000               0.000000000               0.000303783               0.002578205               0.000479753              -0.000208357               0.000928845               0.000720488               0.000000000               0.000000000               0.000000000               0.000000000               0.000271240               0.002659028               0.000423119              -0.000230663               0.000963221               0.000732558               0.000000000               0.000000000               0.000000000               0.000000000               0.000247909               0.002730781               0.000374471              -0.000248381               0.000993045               0.000744664               0.000000000               0.000000000               0.000000000               0.000000000               0.000232386               0.002796468               0.000323422              -0.000262413               0.001019618               0.000757205               0.000000000               0.000000000               0.000000000               0.000000000               0.000218789               0.002859810               0.000269295              -0.000275430               0.001045070               0.000769641               0.000000000               0.000000000               0.000000000               0.000000000               0.000198434               0.002915469               0.000219773              -0.000290020               0.001068487               0.000778466               0.000000000               0.000000000               0.000000000               0.000000000               0.000169809               0.002954582               0.000176908              -0.000305644               0.001086732               0.000781088               0.000000000               0.000000000               0.000000000               0.000000000               0.000135287               0.002978725               0.000136889              -0.000321607               0.001100101               0.000778494               0.000000000               0.000000000               0.000000000               0.000000000               0.000091499               0.002992925               0.000092044              -0.000339803               0.001110899               0.000771096               0.000000000               0.000000000               0.000000000               0.000000000               0.000037319               0.003002832               0.000043409              -0.000361359               0.001121387               0.000760028               0.000000000               0.000000000               0.000000000               0.000000000              -0.000008261               0.002996395               0.000013302              -0.000377646               0.001124670               0.000747024               0.000000000               0.000000000               0.000000000               0.000000000               0.000603516               0.000596022               0.000577180               0.000151814               0.000148067               0.000299881               0.000000000               0.000000000               0.000000000               0.000000000               0.000642580               0.000971358               0.000722476               0.000119546               0.000283934               0.000403480               0.000000000               0.000000000               0.000000000               0.000000000               0.000577247               0.001460816               0.000805379               0.000033864               0.000475645               0.000509510               0.000000000               0.000000000               0.000000000               0.000000000               0.000525943               0.001799335               0.000748127              -0.000027689               0.000609002               0.000581313               0.000000000               0.000000000               0.000000000               0.000000000               0.000484789               0.002052575               0.000659621              -0.000074777               0.000709110               0.000634334               0.000000000               0.000000000               0.000000000               0.000000000               0.000444048               0.002244986               0.000576149              -0.000114105               0.000786356               0.000672251               0.000000000               0.000000000               0.000000000               0.000000000               0.000400564               0.002387678               0.000508014              -0.000148248               0.000845301               0.000697052               0.000000000               0.000000000               0.000000000               0.000000000               0.000357149               0.002500756               0.000453990              -0.000178663               0.000893131               0.000714468               0.000000000               0.000000000               0.000000000               0.000000000               0.000323467               0.002601103               0.000406923              -0.000203837               0.000934972               0.000731134               0.000000000               0.000000000               0.000000000               0.000000000               0.000300549               0.002695541               0.000356682              -0.000224236               0.000973250               0.000749014               0.000000000               0.000000000               0.000000000               0.000000000               0.000284387               0.002781916               0.000302828              -0.000241094               0.001007661               0.000766567               0.000000000               0.000000000               0.000000000               0.000000000               0.000263448               0.002852525               0.000252598              -0.000257772               0.001036756               0.000778984               0.000000000               0.000000000               0.000000000               0.000000000               0.000236230               0.002906728               0.000211163              -0.000274754               0.001060485               0.000785730               0.000000000               0.000000000               0.000000000               0.000000000               0.000202021               0.002944494               0.000170005              -0.000292303               0.001078922               0.000786619               0.000000000               0.000000000               0.000000000               0.000000000               0.000160344               0.002970983               0.000120379              -0.000311243               0.001094066               0.000782822               0.000000000               0.000000000               0.000000000               0.000000000               0.000108115               0.002992773               0.000062458              -0.000333553               0.001108765               0.000775213               0.000000000               0.000000000               0.000000000               0.000000000               0.000062482               0.002992592               0.000026909              -0.000350642               0.001114402               0.000763759               0.000000000               0.000000000               0.000000000               0.000000000               0.000397783               0.000345723               0.000388174               0.000105952               0.000079922               0.000185874               0.000000000               0.000000000               0.000000000               0.000000000               0.000586999               0.000677905               0.000557221               0.000135385               0.000180838               0.000316222               0.000000000               0.000000000               0.000000000               0.000000000               0.000644453               0.001118735               0.000679360               0.000101827               0.000338965               0.000440792               0.000000000               0.000000000               0.000000000               0.000000000               0.000634074               0.001471330               0.000660360               0.000053860               0.000472485               0.000526345               0.000000000               0.000000000               0.000000000               0.000000000               0.000604903               0.001757430               0.000598746               0.000007159               0.000583418               0.000590577               0.000000000               0.000000000               0.000000000               0.000000000               0.000564896               0.001987924               0.000532434              -0.000036655               0.000674853               0.000638198               0.000000000               0.000000000               0.000000000               0.000000000               0.000517645               0.002164776               0.000475800              -0.000076481               0.000747078               0.000670598               0.000000000               0.000000000               0.000000000               0.000000000               0.000468215               0.002308137               0.000430110              -0.000112936               0.000807017               0.000694080               0.000000000               0.000000000               0.000000000               0.000000000               0.000421949               0.002439664               0.000390133              -0.000146727               0.000862122               0.000715395               0.000000000               0.000000000               0.000000000               0.000000000               0.000387976               0.002565726               0.000347217              -0.000175225               0.000913642               0.000738417               0.000000000               0.000000000               0.000000000               0.000000000               0.000365793               0.002676859               0.000298864              -0.000197435               0.000958089               0.000760654               0.000000000               0.000000000               0.000000000               0.000000000               0.000344276               0.002766213               0.000251722              -0.000216672               0.000994286               0.000777613               0.000000000               0.000000000               0.000000000               0.000000000               0.000315013               0.002841312               0.000211780              -0.000237034               0.001026106               0.000789072               0.000000000               0.000000000               0.000000000               0.000000000               0.000283103               0.002903195               0.000175285              -0.000256735               0.001053300               0.000796565               0.000000000               0.000000000               0.000000000               0.000000000               0.000253521               0.002948256               0.000130724              -0.000273461               0.001073896               0.000800435               0.000000000               0.000000000               0.000000000               0.000000000               0.000220088               0.002981889               0.000070339              -0.000290202               0.001090687               0.000800485               0.000000000               0.000000000               0.000000000               0.000000000               0.000188918               0.002990700               0.000033403              -0.000302993               0.001097888               0.000794895               0.000000000               0.000000000               0.000000000               0.000000000               0.000214328               0.000178929               0.000231275               0.000058006               0.000040307               0.000098313               0.000000000               0.000000000               0.000000000               0.000000000               0.000529843               0.000456933               0.000376254               0.000141573               0.000105118               0.000246691               0.000000000               0.000000000               0.000000000               0.000000000               0.000699717               0.000839212               0.000491506               0.000157491               0.000227237               0.000384728               0.000000000               0.000000000               0.000000000               0.000000000               0.000731822               0.001187795               0.000494715               0.000125958               0.000353942               0.000479899               0.000000000               0.000000000               0.000000000               0.000000000               0.000716465               0.001487599               0.000457712               0.000082723               0.000468287               0.000551010               0.000000000               0.000000000               0.000000000               0.000000000               0.000680631               0.001742422               0.000412350               0.000037433               0.000568324               0.000605757               0.000000000               0.000000000               0.000000000               0.000000000               0.000633449               0.001951025               0.000373202              -0.000006335               0.000652447               0.000646112               0.000000000               0.000000000               0.000000000               0.000000000               0.000581273               0.002126882               0.000340468              -0.000047883               0.000724915               0.000677031               0.000000000               0.000000000               0.000000000               0.000000000               0.000524732               0.002285899               0.000311214              -0.000088963               0.000791613               0.000702650               0.000000000               0.000000000               0.000000000               0.000000000               0.000475585               0.002432685               0.000282861              -0.000125741               0.000852801               0.000727059               0.000000000               0.000000000               0.000000000               0.000000000               0.000441675               0.002565911               0.000247620              -0.000155111               0.000906999               0.000751888               0.000000000               0.000000000               0.000000000               0.000000000               0.000414187               0.002682173               0.000205181              -0.000179951               0.000954032               0.000774081               0.000000000               0.000000000               0.000000000               0.000000000               0.000386811               0.002781087               0.000170555              -0.000202581               0.000994547               0.000791966               0.000000000               0.000000000               0.000000000               0.000000000               0.000365957               0.002864865               0.000147677              -0.000220874               0.001028570               0.000807696               0.000000000               0.000000000               0.000000000               0.000000000               0.000350563               0.002926956               0.000117150              -0.000234408               0.001053778               0.000819370               0.000000000               0.000000000               0.000000000               0.000000000               0.000341896               0.002972337               0.000065224              -0.000243331               0.001071879               0.000828549               0.000000000               0.000000000               0.000000000               0.000000000               0.000336595               0.002991046               0.000032803              -0.000247657               0.001079558               0.000831900               0.000000000               0.000000000               0.000000000               0.000000000               0.000086872               0.000082436               0.000106725               0.000022272               0.000020054               0.000042326               0.000000000               0.000000000               0.000000000               0.000000000               0.000485887               0.000317650               0.000188968               0.000142500               0.000058382               0.000200882               0.000000000               0.000000000               0.000000000               0.000000000               0.000734390               0.000654467               0.000257587               0.000193586               0.000153625               0.000347211               0.000000000               0.000000000               0.000000000               0.000000000               0.000798675               0.000993770               0.000265273               0.000175280               0.000272827               0.000448107               0.000000000               0.000000000               0.000000000               0.000000000               0.000793046               0.001296954               0.000247867               0.000135272               0.000387223               0.000522495               0.000000000               0.000000000               0.000000000               0.000000000               0.000763128               0.001565469               0.000224833               0.000090489               0.000491655               0.000582144               0.000000000               0.000000000               0.000000000               0.000000000               0.000718300               0.001801370               0.000206516               0.000044191               0.000585720               0.000629911               0.000000000               0.000000000               0.000000000               0.000000000               0.000663440               0.002002740               0.000190447              -0.000001553               0.000668091               0.000666538               0.000000000               0.000000000               0.000000000               0.000000000               0.000603147               0.002173357               0.000174717              -0.000045489               0.000739608               0.000694119               0.000000000               0.000000000               0.000000000               0.000000000               0.000544702               0.002329506               0.000161838              -0.000086925               0.000805469               0.000718544               0.000000000               0.000000000               0.000000000               0.000000000               0.000496064               0.002479892               0.000142227              -0.000123962               0.000867943               0.000743981               0.000000000               0.000000000               0.000000000               0.000000000               0.000464215               0.002618297               0.000114335              -0.000153206               0.000923826               0.000770619               0.000000000               0.000000000               0.000000000               0.000000000               0.000448142               0.002736584               0.000095588              -0.000174019               0.000970192               0.000796173               0.000000000               0.000000000               0.000000000               0.000000000               0.000439315               0.002836408               0.000085939              -0.000189807               0.001008729               0.000818922               0.000000000               0.000000000               0.000000000               0.000000000               0.000433721               0.002914336               0.000070861              -0.000201646               0.001038651               0.000837005               0.000000000               0.000000000               0.000000000               0.000000000               0.000440814               0.002969716               0.000042043              -0.000205909               0.001058532               0.000852623               0.000000000               0.000000000               0.000000000               0.000000000               0.000455544               0.002994630               0.000023594              -0.000203499               0.001066033               0.000862534               0.000000000               0.000000000               0.000000000               0.000000000               0.000000000               0.000000000               0.000000000               0.000000000               0.000000000               0.000000000               0.000000000               0.000000000               0.000000000               0.000000000               0.000000000               0.000000000               0.000000000               0.000000000               0.000000000               0.000000000               0.000000000               0.000000000               0.000000000               0.000000000               0.000000000               0.000000000               0.000000000               0.000000000               0.000000000               0.000000000               0.000000000               0.000000000               0.000000000               0.000000000               0.000000000               0.000000000               0.000000000               0.000000000               0.000000000               0.000000000               0.000000000               0.000000000               0.000000000               0.000000000               0.000000000               0.000000000               0.000000000               0.000000000               0.000000000               0.000000000               0.000000000               0.000000000               0.000000000               0.000000000               0.000000000               0.000000000               0.000000000               0.000000000               0.000000000               0.000000000               0.000000000               0.000000000               0.000000000               0.000000000               0.000000000               0.000000000               0.000000000               0.000000000               0.000000000               0.000000000               0.000000000               0.000000000               0.000000000               0.000000000               0.000000000               0.000000000               0.000000000               0.000000000               0.000000000               0.000000000               0.000000000               0.000000000               0.000000000               0.000000000               0.000000000               0.000000000               0.000000000               0.000000000               0.000000000               0.000000000               0.000000000               0.000000000               0.000000000               0.000000000               0.000000000               0.000000000               0.000000000               0.000000000               0.000000000               0.000000000               0.000000000               0.000000000               0.000000000               0.000000000               0.000000000               0.000000000               0.000000000               0.000000000               0.000000000               0.000000000               0.000000000               0.000000000               0.000000000               0.000000000               0.000000000               0.000000000               0.000000000               0.000000000               0.000000000               0.000000000               0.000000000               0.000000000               0.000000000               0.000000000               0.000000000               0.000000000               0.000000000               0.000000000               0.000000000               0.000000000               0.000000000               0.000000000               0.000000000               0.000000000               0.000000000               0.000000000               0.000000000               0.000000000               0.000000000               0.000000000               0.000000000               0.000000000               0.000000000               0.000000000               0.000000000               0.000000000               0.000000000               0.000000000               0.000000000               0.000000000               0.000000000               0.000000000               0.000000000               0.000000000               0.000000000               0.000000000               0.000000000               0.000000000               0.000000000               0.000000000               0.000000000               0.000000000               0.000000000               0.000000000               0.000000000               0.000000000               0.000000000               0.000000000               0.000000000               0.000000000               0.000000000               0.000000000               0.000000000               0.000000000 </DataArray>
</PointData>
</Piece>
</UnstructuredGrid> </VTKFile>
