<?xml version="1.0"?>
<VTKFile type="UnstructuredGrid" version="0.1">
<UnstructuredGrid>
<Piece NumberOfPoints="      1156" NumberOfCells="      1024">
<Points>
<DataArray type="Float64"                                    Name="coordinates"                                                      NumberOfComponents=" 3" format="ascii">
              0.133000000               0.000000000               0.000000000               0.155937500               0.000000000               0.000000000               0.178875000               0.000000000               0.000000000               0.201812500               0.000000000               0.000000000               0.224750000               0.000000000               0.000000000               0.247687500               0.000000000               0.000000000               0.270625000               0.000000000               0.000000000               0.293562500               0.000000000               0.000000000               0.316500000               0.000000000               0.000000000               0.339437500               0.000000000               0.000000000               0.362375000               0.000000000               0.000000000               0.385312500               0.000000000               0.000000000               0.408250000               0.000000000               0.000000000               0.431187500               0.000000000               0.000000000               0.454125000               0.000000000               0.000000000               0.477062500               0.000000000               0.000000000               0.500000000               0.000000000               0.000000000               0.132359569               0.013036280               0.000000000               0.155337096               0.016127762               0.000000000               0.178314623               0.019219245               0.000000000               0.201292150               0.022310727               0.000000000               0.224269676               0.025402210               0.000000000               0.247247203               0.028493692               0.000000000               0.270224730               0.031585175               0.000000000               0.293202257               0.034676657               0.000000000               0.316179784               0.037768140               0.000000000               0.339157311               0.040859622               0.000000000               0.362134838               0.043951105               0.000000000               0.385112365               0.047042587               0.000000000               0.408089892               0.050134070               0.000000000               0.431067419               0.053225552               0.000000000               0.454044946               0.056317035               0.000000000               0.477022473               0.059408517               0.000000000               0.500000000               0.062500000               0.000000000               0.130444442               0.025947013               0.000000000               0.153541665               0.032137825               0.000000000               0.176638887               0.038328636               0.000000000               0.199736109               0.044519448               0.000000000               0.222833332               0.050710260               0.000000000               0.245930554               0.056901071               0.000000000               0.269027776               0.063091883               0.000000000               0.292124999               0.069282695               0.000000000               0.315222221               0.075473506               0.000000000               0.338319444               0.081664318               0.000000000               0.361416666               0.087855130               0.000000000               0.384513888               0.094045942               0.000000000               0.407611111               0.100236753               0.000000000               0.430708333               0.106427565               0.000000000               0.453805555               0.112618377               0.000000000               0.476902778               0.118809188               0.000000000               0.500000000               0.125000000               0.000000000               0.127273065               0.038607862               0.000000000               0.150568498               0.047913621               0.000000000               0.173863932               0.057219379               0.000000000               0.197159365               0.066525138               0.000000000               0.220454798               0.075830897               0.000000000               0.243750232               0.085136655               0.000000000               0.267045665               0.094442414               0.000000000               0.290341099               0.103748172               0.000000000               0.313636532               0.113053931               0.000000000               0.336931966               0.122359690               0.000000000               0.360227399               0.131665448               0.000000000               0.383522833               0.140971207               0.000000000               0.406818266               0.150276966               0.000000000               0.430113700               0.159582724               0.000000000               0.453409133               0.168888483               0.000000000               0.476704567               0.178194241               0.000000000               0.500000000               0.187500000               0.000000000               0.122875978               0.050896897               0.000000000               0.146446229               0.063340840               0.000000000               0.170016481               0.075784784               0.000000000               0.193586732               0.088228728               0.000000000               0.217156983               0.100672672               0.000000000               0.240727235               0.113116616               0.000000000               0.264297486               0.125560560               0.000000000               0.287867738               0.138004504               0.000000000               0.311437989               0.150448448               0.000000000               0.335008240               0.162892392               0.000000000               0.358578492               0.175336336               0.000000000               0.382148743               0.187780280               0.000000000               0.405718994               0.200224224               0.000000000               0.429289246               0.212668168               0.000000000               0.452859497               0.225112112               0.000000000               0.476429749               0.237556056               0.000000000               0.500000000               0.250000000               0.000000000               0.117295528               0.062695766               0.000000000               0.141214558               0.078308531               0.000000000               0.165133587               0.093921295               0.000000000               0.189052617               0.109534060               0.000000000               0.212971646               0.125146824               0.000000000               0.236890676               0.140759589               0.000000000               0.260809705               0.156372354               0.000000000               0.284728735               0.171985118               0.000000000               0.308647764               0.187597883               0.000000000               0.332566794               0.203210648               0.000000000               0.356485823               0.218823412               0.000000000               0.380404853               0.234436177               0.000000000               0.404323882               0.250048941               0.000000000               0.428242912               0.265661706               0.000000000               0.452161941               0.281274471               0.000000000               0.476080971               0.296887235               0.000000000               0.500000000               0.312500000               0.000000000               0.110585458               0.073890841               0.000000000               0.134923867               0.092710163               0.000000000               0.159262276               0.111529486               0.000000000               0.183600685               0.130348808               0.000000000               0.207939094               0.149168131               0.000000000               0.232277503               0.167987453               0.000000000               0.256615912               0.186806776               0.000000000               0.280954320               0.205626098               0.000000000               0.305292729               0.224445420               0.000000000               0.329631138               0.243264743               0.000000000               0.353969547               0.262084065               0.000000000               0.378307956               0.280903388               0.000000000               0.402646365               0.299722710               0.000000000               0.426984773               0.318542033               0.000000000               0.451323182               0.337361355               0.000000000               0.475661591               0.356180678               0.000000000               0.500000000               0.375000000               0.000000000               0.102810390               0.084374307               0.000000000               0.127634741               0.106444663               0.000000000               0.152459092               0.128515018               0.000000000               0.177283442               0.150585374               0.000000000               0.202107793               0.172655730               0.000000000               0.226932143               0.194726086               0.000000000               0.251756494               0.216796442               0.000000000               0.276580845               0.238866798               0.000000000               0.301405195               0.260937153               0.000000000               0.326229546               0.283007509               0.000000000               0.351053896               0.305077865               0.000000000               0.375878247               0.327148221               0.000000000               0.400702598               0.349218577               0.000000000               0.425526948               0.371288933               0.000000000               0.450351299               0.393359288               0.000000000               0.475175649               0.415429644               0.000000000               0.500000000               0.437500000               0.000000000               0.094045202               0.094045202               0.000000000               0.119417377               0.119417377               0.000000000               0.144789552               0.144789552               0.000000000               0.170161727               0.170161727               0.000000000               0.195533901               0.195533901               0.000000000               0.220906076               0.220906076               0.000000000               0.246278251               0.246278251               0.000000000               0.271650426               0.271650426               0.000000000               0.297022601               0.297022601               0.000000000               0.322394776               0.322394776               0.000000000               0.347766951               0.347766951               0.000000000               0.373139126               0.373139126               0.000000000               0.398511300               0.398511300               0.000000000               0.423883475               0.423883475               0.000000000               0.449255650               0.449255650               0.000000000               0.474627825               0.474627825               0.000000000               0.500000000               0.500000000               0.000000000               0.084374307               0.102810390               0.000000000               0.106444663               0.127634741               0.000000000               0.128515018               0.152459092               0.000000000               0.150585374               0.177283442               0.000000000               0.172655730               0.202107793               0.000000000               0.194726086               0.226932143               0.000000000               0.216796442               0.251756494               0.000000000               0.238866798               0.276580845               0.000000000               0.260937153               0.301405195               0.000000000               0.283007509               0.326229546               0.000000000               0.305077865               0.351053896               0.000000000               0.327148221               0.375878247               0.000000000               0.349218577               0.400702598               0.000000000               0.371288933               0.425526948               0.000000000               0.393359288               0.450351299               0.000000000               0.415429644               0.475175649               0.000000000               0.437500000               0.500000000               0.000000000               0.073890841               0.110585458               0.000000000               0.092710163               0.134923867               0.000000000               0.111529486               0.159262276               0.000000000               0.130348808               0.183600685               0.000000000               0.149168131               0.207939094               0.000000000               0.167987453               0.232277503               0.000000000               0.186806776               0.256615912               0.000000000               0.205626098               0.280954320               0.000000000               0.224445420               0.305292729               0.000000000               0.243264743               0.329631138               0.000000000               0.262084065               0.353969547               0.000000000               0.280903388               0.378307956               0.000000000               0.299722710               0.402646365               0.000000000               0.318542033               0.426984773               0.000000000               0.337361355               0.451323182               0.000000000               0.356180678               0.475661591               0.000000000               0.375000000               0.500000000               0.000000000               0.062695766               0.117295528               0.000000000               0.078308531               0.141214558               0.000000000               0.093921295               0.165133587               0.000000000               0.109534060               0.189052617               0.000000000               0.125146824               0.212971646               0.000000000               0.140759589               0.236890676               0.000000000               0.156372354               0.260809705               0.000000000               0.171985118               0.284728735               0.000000000               0.187597883               0.308647764               0.000000000               0.203210648               0.332566794               0.000000000               0.218823412               0.356485823               0.000000000               0.234436177               0.380404853               0.000000000               0.250048941               0.404323882               0.000000000               0.265661706               0.428242912               0.000000000               0.281274471               0.452161941               0.000000000               0.296887235               0.476080971               0.000000000               0.312500000               0.500000000               0.000000000               0.050896897               0.122875978               0.000000000               0.063340840               0.146446229               0.000000000               0.075784784               0.170016481               0.000000000               0.088228728               0.193586732               0.000000000               0.100672672               0.217156983               0.000000000               0.113116616               0.240727235               0.000000000               0.125560560               0.264297486               0.000000000               0.138004504               0.287867738               0.000000000               0.150448448               0.311437989               0.000000000               0.162892392               0.335008240               0.000000000               0.175336336               0.358578492               0.000000000               0.187780280               0.382148743               0.000000000               0.200224224               0.405718994               0.000000000               0.212668168               0.429289246               0.000000000               0.225112112               0.452859497               0.000000000               0.237556056               0.476429749               0.000000000               0.250000000               0.500000000               0.000000000               0.038607862               0.127273065               0.000000000               0.047913621               0.150568498               0.000000000               0.057219379               0.173863932               0.000000000               0.066525138               0.197159365               0.000000000               0.075830897               0.220454798               0.000000000               0.085136655               0.243750232               0.000000000               0.094442414               0.267045665               0.000000000               0.103748172               0.290341099               0.000000000               0.113053931               0.313636532               0.000000000               0.122359690               0.336931966               0.000000000               0.131665448               0.360227399               0.000000000               0.140971207               0.383522833               0.000000000               0.150276966               0.406818266               0.000000000               0.159582724               0.430113700               0.000000000               0.168888483               0.453409133               0.000000000               0.178194241               0.476704567               0.000000000               0.187500000               0.500000000               0.000000000               0.025947013               0.130444442               0.000000000               0.032137825               0.153541665               0.000000000               0.038328636               0.176638887               0.000000000               0.044519448               0.199736109               0.000000000               0.050710260               0.222833332               0.000000000               0.056901071               0.245930554               0.000000000               0.063091883               0.269027776               0.000000000               0.069282695               0.292124999               0.000000000               0.075473506               0.315222221               0.000000000               0.081664318               0.338319444               0.000000000               0.087855130               0.361416666               0.000000000               0.094045942               0.384513888               0.000000000               0.100236753               0.407611111               0.000000000               0.106427565               0.430708333               0.000000000               0.112618377               0.453805555               0.000000000               0.118809188               0.476902778               0.000000000               0.125000000               0.500000000               0.000000000               0.013036280               0.132359569               0.000000000               0.016127762               0.155337096               0.000000000               0.019219245               0.178314623               0.000000000               0.022310727               0.201292150               0.000000000               0.025402210               0.224269676               0.000000000               0.028493692               0.247247203               0.000000000               0.031585175               0.270224730               0.000000000               0.034676657               0.293202257               0.000000000               0.037768140               0.316179784               0.000000000               0.040859622               0.339157311               0.000000000               0.043951105               0.362134838               0.000000000               0.047042587               0.385112365               0.000000000               0.050134070               0.408089892               0.000000000               0.053225552               0.431067419               0.000000000               0.056317035               0.454044946               0.000000000               0.059408517               0.477022473               0.000000000               0.062500000               0.500000000               0.000000000               0.000000000               0.133000000               0.000000000               0.000000000               0.155937500               0.000000000               0.000000000               0.178875000               0.000000000               0.000000000               0.201812500               0.000000000               0.000000000               0.224750000               0.000000000               0.000000000               0.247687500               0.000000000               0.000000000               0.270625000               0.000000000               0.000000000               0.293562500               0.000000000               0.000000000               0.316500000               0.000000000               0.000000000               0.339437500               0.000000000               0.000000000               0.362375000               0.000000000               0.000000000               0.385312500               0.000000000               0.000000000               0.408250000               0.000000000               0.000000000               0.431187500               0.000000000               0.000000000               0.454125000               0.000000000               0.000000000               0.477062500               0.000000000               0.000000000               0.500000000               0.000000000               0.133000000               0.000000000               0.000000000               0.155937500               0.000000000               0.000000000               0.178875000               0.000000000               0.000000000               0.201812500               0.000000000               0.000000000               0.224750000               0.000000000               0.000000000               0.247687500               0.000000000               0.000000000               0.270625000               0.000000000               0.000000000               0.293562500               0.000000000               0.000000000               0.316500000               0.000000000               0.000000000               0.339437500               0.000000000               0.000000000               0.362375000               0.000000000               0.000000000               0.385312500               0.000000000               0.000000000               0.408250000               0.000000000               0.000000000               0.431187500               0.000000000               0.000000000               0.454125000               0.000000000               0.000000000               0.477062500               0.000000000               0.000000000               0.500000000               0.000000000               0.000000000               0.132359569              -0.013036280               0.000000000               0.155337096              -0.016127762               0.000000000               0.178314623              -0.019219245               0.000000000               0.201292150              -0.022310727               0.000000000               0.224269676              -0.025402210               0.000000000               0.247247203              -0.028493692               0.000000000               0.270224730              -0.031585175               0.000000000               0.293202257              -0.034676657               0.000000000               0.316179784              -0.037768140               0.000000000               0.339157311              -0.040859622               0.000000000               0.362134838              -0.043951105               0.000000000               0.385112365              -0.047042587               0.000000000               0.408089892              -0.050134070               0.000000000               0.431067419              -0.053225552               0.000000000               0.454044946              -0.056317035               0.000000000               0.477022473              -0.059408517               0.000000000               0.500000000              -0.062500000               0.000000000               0.130444442              -0.025947013               0.000000000               0.153541665              -0.032137825               0.000000000               0.176638887              -0.038328636               0.000000000               0.199736109              -0.044519448               0.000000000               0.222833332              -0.050710260               0.000000000               0.245930554              -0.056901071               0.000000000               0.269027776              -0.063091883               0.000000000               0.292124999              -0.069282695               0.000000000               0.315222221              -0.075473506               0.000000000               0.338319444              -0.081664318               0.000000000               0.361416666              -0.087855130               0.000000000               0.384513888              -0.094045942               0.000000000               0.407611111              -0.100236753               0.000000000               0.430708333              -0.106427565               0.000000000               0.453805555              -0.112618377               0.000000000               0.476902778              -0.118809188               0.000000000               0.500000000              -0.125000000               0.000000000               0.127273065              -0.038607862               0.000000000               0.150568498              -0.047913621               0.000000000               0.173863932              -0.057219379               0.000000000               0.197159365              -0.066525138               0.000000000               0.220454798              -0.075830897               0.000000000               0.243750232              -0.085136655               0.000000000               0.267045665              -0.094442414               0.000000000               0.290341099              -0.103748172               0.000000000               0.313636532              -0.113053931               0.000000000               0.336931966              -0.122359690               0.000000000               0.360227399              -0.131665448               0.000000000               0.383522833              -0.140971207               0.000000000               0.406818266              -0.150276966               0.000000000               0.430113700              -0.159582724               0.000000000               0.453409133              -0.168888483               0.000000000               0.476704567              -0.178194241               0.000000000               0.500000000              -0.187500000               0.000000000               0.122875978              -0.050896897               0.000000000               0.146446229              -0.063340840               0.000000000               0.170016481              -0.075784784               0.000000000               0.193586732              -0.088228728               0.000000000               0.217156983              -0.100672672               0.000000000               0.240727235              -0.113116616               0.000000000               0.264297486              -0.125560560               0.000000000               0.287867738              -0.138004504               0.000000000               0.311437989              -0.150448448               0.000000000               0.335008240              -0.162892392               0.000000000               0.358578492              -0.175336336               0.000000000               0.382148743              -0.187780280               0.000000000               0.405718994              -0.200224224               0.000000000               0.429289246              -0.212668168               0.000000000               0.452859497              -0.225112112               0.000000000               0.476429749              -0.237556056               0.000000000               0.500000000              -0.250000000               0.000000000               0.117295528              -0.062695766               0.000000000               0.141214558              -0.078308531               0.000000000               0.165133587              -0.093921295               0.000000000               0.189052617              -0.109534060               0.000000000               0.212971646              -0.125146824               0.000000000               0.236890676              -0.140759589               0.000000000               0.260809705              -0.156372354               0.000000000               0.284728735              -0.171985118               0.000000000               0.308647764              -0.187597883               0.000000000               0.332566794              -0.203210648               0.000000000               0.356485823              -0.218823412               0.000000000               0.380404853              -0.234436177               0.000000000               0.404323882              -0.250048941               0.000000000               0.428242912              -0.265661706               0.000000000               0.452161941              -0.281274471               0.000000000               0.476080971              -0.296887235               0.000000000               0.500000000              -0.312500000               0.000000000               0.110585458              -0.073890841               0.000000000               0.134923867              -0.092710163               0.000000000               0.159262276              -0.111529486               0.000000000               0.183600685              -0.130348808               0.000000000               0.207939094              -0.149168131               0.000000000               0.232277503              -0.167987453               0.000000000               0.256615912              -0.186806776               0.000000000               0.280954320              -0.205626098               0.000000000               0.305292729              -0.224445420               0.000000000               0.329631138              -0.243264743               0.000000000               0.353969547              -0.262084065               0.000000000               0.378307956              -0.280903388               0.000000000               0.402646365              -0.299722710               0.000000000               0.426984773              -0.318542033               0.000000000               0.451323182              -0.337361355               0.000000000               0.475661591              -0.356180678               0.000000000               0.500000000              -0.375000000               0.000000000               0.102810390              -0.084374307               0.000000000               0.127634741              -0.106444663               0.000000000               0.152459092              -0.128515018               0.000000000               0.177283442              -0.150585374               0.000000000               0.202107793              -0.172655730               0.000000000               0.226932143              -0.194726086               0.000000000               0.251756494              -0.216796442               0.000000000               0.276580845              -0.238866798               0.000000000               0.301405195              -0.260937153               0.000000000               0.326229546              -0.283007509               0.000000000               0.351053896              -0.305077865               0.000000000               0.375878247              -0.327148221               0.000000000               0.400702598              -0.349218577               0.000000000               0.425526948              -0.371288933               0.000000000               0.450351299              -0.393359288               0.000000000               0.475175649              -0.415429644               0.000000000               0.500000000              -0.437500000               0.000000000               0.094045202              -0.094045202               0.000000000               0.119417377              -0.119417377               0.000000000               0.144789552              -0.144789552               0.000000000               0.170161727              -0.170161727               0.000000000               0.195533901              -0.195533901               0.000000000               0.220906076              -0.220906076               0.000000000               0.246278251              -0.246278251               0.000000000               0.271650426              -0.271650426               0.000000000               0.297022601              -0.297022601               0.000000000               0.322394776              -0.322394776               0.000000000               0.347766951              -0.347766951               0.000000000               0.373139126              -0.373139126               0.000000000               0.398511300              -0.398511300               0.000000000               0.423883475              -0.423883475               0.000000000               0.449255650              -0.449255650               0.000000000               0.474627825              -0.474627825               0.000000000               0.500000000              -0.500000000               0.000000000               0.084374307              -0.102810390               0.000000000               0.106444663              -0.127634741               0.000000000               0.128515018              -0.152459092               0.000000000               0.150585374              -0.177283442               0.000000000               0.172655730              -0.202107793               0.000000000               0.194726086              -0.226932143               0.000000000               0.216796442              -0.251756494               0.000000000               0.238866798              -0.276580845               0.000000000               0.260937153              -0.301405195               0.000000000               0.283007509              -0.326229546               0.000000000               0.305077865              -0.351053896               0.000000000               0.327148221              -0.375878247               0.000000000               0.349218577              -0.400702598               0.000000000               0.371288933              -0.425526948               0.000000000               0.393359288              -0.450351299               0.000000000               0.415429644              -0.475175649               0.000000000               0.437500000              -0.500000000               0.000000000               0.073890841              -0.110585458               0.000000000               0.092710163              -0.134923867               0.000000000               0.111529486              -0.159262276               0.000000000               0.130348808              -0.183600685               0.000000000               0.149168131              -0.207939094               0.000000000               0.167987453              -0.232277503               0.000000000               0.186806776              -0.256615912               0.000000000               0.205626098              -0.280954320               0.000000000               0.224445420              -0.305292729               0.000000000               0.243264743              -0.329631138               0.000000000               0.262084065              -0.353969547               0.000000000               0.280903388              -0.378307956               0.000000000               0.299722710              -0.402646365               0.000000000               0.318542033              -0.426984773               0.000000000               0.337361355              -0.451323182               0.000000000               0.356180678              -0.475661591               0.000000000               0.375000000              -0.500000000               0.000000000               0.062695766              -0.117295528               0.000000000               0.078308531              -0.141214558               0.000000000               0.093921295              -0.165133587               0.000000000               0.109534060              -0.189052617               0.000000000               0.125146824              -0.212971646               0.000000000               0.140759589              -0.236890676               0.000000000               0.156372354              -0.260809705               0.000000000               0.171985118              -0.284728735               0.000000000               0.187597883              -0.308647764               0.000000000               0.203210648              -0.332566794               0.000000000               0.218823412              -0.356485823               0.000000000               0.234436177              -0.380404853               0.000000000               0.250048941              -0.404323882               0.000000000               0.265661706              -0.428242912               0.000000000               0.281274471              -0.452161941               0.000000000               0.296887235              -0.476080971               0.000000000               0.312500000              -0.500000000               0.000000000               0.050896897              -0.122875978               0.000000000               0.063340840              -0.146446229               0.000000000               0.075784784              -0.170016481               0.000000000               0.088228728              -0.193586732               0.000000000               0.100672672              -0.217156983               0.000000000               0.113116616              -0.240727235               0.000000000               0.125560560              -0.264297486               0.000000000               0.138004504              -0.287867738               0.000000000               0.150448448              -0.311437989               0.000000000               0.162892392              -0.335008240               0.000000000               0.175336336              -0.358578492               0.000000000               0.187780280              -0.382148743               0.000000000               0.200224224              -0.405718994               0.000000000               0.212668168              -0.429289246               0.000000000               0.225112112              -0.452859497               0.000000000               0.237556056              -0.476429749               0.000000000               0.250000000              -0.500000000               0.000000000               0.038607862              -0.127273065               0.000000000               0.047913621              -0.150568498               0.000000000               0.057219379              -0.173863932               0.000000000               0.066525138              -0.197159365               0.000000000               0.075830897              -0.220454798               0.000000000               0.085136655              -0.243750232               0.000000000               0.094442414              -0.267045665               0.000000000               0.103748172              -0.290341099               0.000000000               0.113053931              -0.313636532               0.000000000               0.122359690              -0.336931966               0.000000000               0.131665448              -0.360227399               0.000000000               0.140971207              -0.383522833               0.000000000               0.150276966              -0.406818266               0.000000000               0.159582724              -0.430113700               0.000000000               0.168888483              -0.453409133               0.000000000               0.178194241              -0.476704567               0.000000000               0.187500000              -0.500000000               0.000000000               0.025947013              -0.130444442               0.000000000               0.032137825              -0.153541665               0.000000000               0.038328636              -0.176638887               0.000000000               0.044519448              -0.199736109               0.000000000               0.050710260              -0.222833332               0.000000000               0.056901071              -0.245930554               0.000000000               0.063091883              -0.269027776               0.000000000               0.069282695              -0.292124999               0.000000000               0.075473506              -0.315222221               0.000000000               0.081664318              -0.338319444               0.000000000               0.087855130              -0.361416666               0.000000000               0.094045942              -0.384513888               0.000000000               0.100236753              -0.407611111               0.000000000               0.106427565              -0.430708333               0.000000000               0.112618377              -0.453805555               0.000000000               0.118809188              -0.476902778               0.000000000               0.125000000              -0.500000000               0.000000000               0.013036280              -0.132359569               0.000000000               0.016127762              -0.155337096               0.000000000               0.019219245              -0.178314623               0.000000000               0.022310727              -0.201292150               0.000000000               0.025402210              -0.224269676               0.000000000               0.028493692              -0.247247203               0.000000000               0.031585175              -0.270224730               0.000000000               0.034676657              -0.293202257               0.000000000               0.037768140              -0.316179784               0.000000000               0.040859622              -0.339157311               0.000000000               0.043951105              -0.362134838               0.000000000               0.047042587              -0.385112365               0.000000000               0.050134070              -0.408089892               0.000000000               0.053225552              -0.431067419               0.000000000               0.056317035              -0.454044946               0.000000000               0.059408517              -0.477022473               0.000000000               0.062500000              -0.500000000               0.000000000               0.000000000              -0.133000000               0.000000000               0.000000000              -0.155937500               0.000000000               0.000000000              -0.178875000               0.000000000               0.000000000              -0.201812500               0.000000000               0.000000000              -0.224750000               0.000000000               0.000000000              -0.247687500               0.000000000               0.000000000              -0.270625000               0.000000000               0.000000000              -0.293562500               0.000000000               0.000000000              -0.316500000               0.000000000               0.000000000              -0.339437500               0.000000000               0.000000000              -0.362375000               0.000000000               0.000000000              -0.385312500               0.000000000               0.000000000              -0.408250000               0.000000000               0.000000000              -0.431187500               0.000000000               0.000000000              -0.454125000               0.000000000               0.000000000              -0.477062500               0.000000000               0.000000000              -0.500000000               0.000000000              -0.133000000               0.000000000               0.000000000              -0.155937500               0.000000000               0.000000000              -0.178875000               0.000000000               0.000000000              -0.201812500               0.000000000               0.000000000              -0.224750000               0.000000000               0.000000000              -0.247687500               0.000000000               0.000000000              -0.270625000               0.000000000               0.000000000              -0.293562500               0.000000000               0.000000000              -0.316500000               0.000000000               0.000000000              -0.339437500               0.000000000               0.000000000              -0.362375000               0.000000000               0.000000000              -0.385312500               0.000000000               0.000000000              -0.408250000               0.000000000               0.000000000              -0.431187500               0.000000000               0.000000000              -0.454125000               0.000000000               0.000000000              -0.477062500               0.000000000               0.000000000              -0.500000000               0.000000000               0.000000000              -0.132359569              -0.013036280               0.000000000              -0.155337096              -0.016127762               0.000000000              -0.178314623              -0.019219245               0.000000000              -0.201292150              -0.022310727               0.000000000              -0.224269676              -0.025402210               0.000000000              -0.247247203              -0.028493692               0.000000000              -0.270224730              -0.031585175               0.000000000              -0.293202257              -0.034676657               0.000000000              -0.316179784              -0.037768140               0.000000000              -0.339157311              -0.040859622               0.000000000              -0.362134838              -0.043951105               0.000000000              -0.385112365              -0.047042587               0.000000000              -0.408089892              -0.050134070               0.000000000              -0.431067419              -0.053225552               0.000000000              -0.454044946              -0.056317035               0.000000000              -0.477022473              -0.059408517               0.000000000              -0.500000000              -0.062500000               0.000000000              -0.130444442              -0.025947013               0.000000000              -0.153541665              -0.032137825               0.000000000              -0.176638887              -0.038328636               0.000000000              -0.199736109              -0.044519448               0.000000000              -0.222833332              -0.050710260               0.000000000              -0.245930554              -0.056901071               0.000000000              -0.269027776              -0.063091883               0.000000000              -0.292124999              -0.069282695               0.000000000              -0.315222221              -0.075473506               0.000000000              -0.338319444              -0.081664318               0.000000000              -0.361416666              -0.087855130               0.000000000              -0.384513888              -0.094045942               0.000000000              -0.407611111              -0.100236753               0.000000000              -0.430708333              -0.106427565               0.000000000              -0.453805555              -0.112618377               0.000000000              -0.476902778              -0.118809188               0.000000000              -0.500000000              -0.125000000               0.000000000              -0.127273065              -0.038607862               0.000000000              -0.150568498              -0.047913621               0.000000000              -0.173863932              -0.057219379               0.000000000              -0.197159365              -0.066525138               0.000000000              -0.220454798              -0.075830897               0.000000000              -0.243750232              -0.085136655               0.000000000              -0.267045665              -0.094442414               0.000000000              -0.290341099              -0.103748172               0.000000000              -0.313636532              -0.113053931               0.000000000              -0.336931966              -0.122359690               0.000000000              -0.360227399              -0.131665448               0.000000000              -0.383522833              -0.140971207               0.000000000              -0.406818266              -0.150276966               0.000000000              -0.430113700              -0.159582724               0.000000000              -0.453409133              -0.168888483               0.000000000              -0.476704567              -0.178194241               0.000000000              -0.500000000              -0.187500000               0.000000000              -0.122875978              -0.050896897               0.000000000              -0.146446229              -0.063340840               0.000000000              -0.170016481              -0.075784784               0.000000000              -0.193586732              -0.088228728               0.000000000              -0.217156983              -0.100672672               0.000000000              -0.240727235              -0.113116616               0.000000000              -0.264297486              -0.125560560               0.000000000              -0.287867738              -0.138004504               0.000000000              -0.311437989              -0.150448448               0.000000000              -0.335008240              -0.162892392               0.000000000              -0.358578492              -0.175336336               0.000000000              -0.382148743              -0.187780280               0.000000000              -0.405718994              -0.200224224               0.000000000              -0.429289246              -0.212668168               0.000000000              -0.452859497              -0.225112112               0.000000000              -0.476429749              -0.237556056               0.000000000              -0.500000000              -0.250000000               0.000000000              -0.117295528              -0.062695766               0.000000000              -0.141214558              -0.078308531               0.000000000              -0.165133587              -0.093921295               0.000000000              -0.189052617              -0.109534060               0.000000000              -0.212971646              -0.125146824               0.000000000              -0.236890676              -0.140759589               0.000000000              -0.260809705              -0.156372354               0.000000000              -0.284728735              -0.171985118               0.000000000              -0.308647764              -0.187597883               0.000000000              -0.332566794              -0.203210648               0.000000000              -0.356485823              -0.218823412               0.000000000              -0.380404853              -0.234436177               0.000000000              -0.404323882              -0.250048941               0.000000000              -0.428242912              -0.265661706               0.000000000              -0.452161941              -0.281274471               0.000000000              -0.476080971              -0.296887235               0.000000000              -0.500000000              -0.312500000               0.000000000              -0.110585458              -0.073890841               0.000000000              -0.134923867              -0.092710163               0.000000000              -0.159262276              -0.111529486               0.000000000              -0.183600685              -0.130348808               0.000000000              -0.207939094              -0.149168131               0.000000000              -0.232277503              -0.167987453               0.000000000              -0.256615912              -0.186806776               0.000000000              -0.280954320              -0.205626098               0.000000000              -0.305292729              -0.224445420               0.000000000              -0.329631138              -0.243264743               0.000000000              -0.353969547              -0.262084065               0.000000000              -0.378307956              -0.280903388               0.000000000              -0.402646365              -0.299722710               0.000000000              -0.426984773              -0.318542033               0.000000000              -0.451323182              -0.337361355               0.000000000              -0.475661591              -0.356180678               0.000000000              -0.500000000              -0.375000000               0.000000000              -0.102810390              -0.084374307               0.000000000              -0.127634741              -0.106444663               0.000000000              -0.152459092              -0.128515018               0.000000000              -0.177283442              -0.150585374               0.000000000              -0.202107793              -0.172655730               0.000000000              -0.226932143              -0.194726086               0.000000000              -0.251756494              -0.216796442               0.000000000              -0.276580845              -0.238866798               0.000000000              -0.301405195              -0.260937153               0.000000000              -0.326229546              -0.283007509               0.000000000              -0.351053896              -0.305077865               0.000000000              -0.375878247              -0.327148221               0.000000000              -0.400702598              -0.349218577               0.000000000              -0.425526948              -0.371288933               0.000000000              -0.450351299              -0.393359288               0.000000000              -0.475175649              -0.415429644               0.000000000              -0.500000000              -0.437500000               0.000000000              -0.094045202              -0.094045202               0.000000000              -0.119417377              -0.119417377               0.000000000              -0.144789552              -0.144789552               0.000000000              -0.170161727              -0.170161727               0.000000000              -0.195533901              -0.195533901               0.000000000              -0.220906076              -0.220906076               0.000000000              -0.246278251              -0.246278251               0.000000000              -0.271650426              -0.271650426               0.000000000              -0.297022601              -0.297022601               0.000000000              -0.322394776              -0.322394776               0.000000000              -0.347766951              -0.347766951               0.000000000              -0.373139126              -0.373139126               0.000000000              -0.398511300              -0.398511300               0.000000000              -0.423883475              -0.423883475               0.000000000              -0.449255650              -0.449255650               0.000000000              -0.474627825              -0.474627825               0.000000000              -0.500000000              -0.500000000               0.000000000              -0.084374307              -0.102810390               0.000000000              -0.106444663              -0.127634741               0.000000000              -0.128515018              -0.152459092               0.000000000              -0.150585374              -0.177283442               0.000000000              -0.172655730              -0.202107793               0.000000000              -0.194726086              -0.226932143               0.000000000              -0.216796442              -0.251756494               0.000000000              -0.238866798              -0.276580845               0.000000000              -0.260937153              -0.301405195               0.000000000              -0.283007509              -0.326229546               0.000000000              -0.305077865              -0.351053896               0.000000000              -0.327148221              -0.375878247               0.000000000              -0.349218577              -0.400702598               0.000000000              -0.371288933              -0.425526948               0.000000000              -0.393359288              -0.450351299               0.000000000              -0.415429644              -0.475175649               0.000000000              -0.437500000              -0.500000000               0.000000000              -0.073890841              -0.110585458               0.000000000              -0.092710163              -0.134923867               0.000000000              -0.111529486              -0.159262276               0.000000000              -0.130348808              -0.183600685               0.000000000              -0.149168131              -0.207939094               0.000000000              -0.167987453              -0.232277503               0.000000000              -0.186806776              -0.256615912               0.000000000              -0.205626098              -0.280954320               0.000000000              -0.224445420              -0.305292729               0.000000000              -0.243264743              -0.329631138               0.000000000              -0.262084065              -0.353969547               0.000000000              -0.280903388              -0.378307956               0.000000000              -0.299722710              -0.402646365               0.000000000              -0.318542033              -0.426984773               0.000000000              -0.337361355              -0.451323182               0.000000000              -0.356180678              -0.475661591               0.000000000              -0.375000000              -0.500000000               0.000000000              -0.062695766              -0.117295528               0.000000000              -0.078308531              -0.141214558               0.000000000              -0.093921295              -0.165133587               0.000000000              -0.109534060              -0.189052617               0.000000000              -0.125146824              -0.212971646               0.000000000              -0.140759589              -0.236890676               0.000000000              -0.156372354              -0.260809705               0.000000000              -0.171985118              -0.284728735               0.000000000              -0.187597883              -0.308647764               0.000000000              -0.203210648              -0.332566794               0.000000000              -0.218823412              -0.356485823               0.000000000              -0.234436177              -0.380404853               0.000000000              -0.250048941              -0.404323882               0.000000000              -0.265661706              -0.428242912               0.000000000              -0.281274471              -0.452161941               0.000000000              -0.296887235              -0.476080971               0.000000000              -0.312500000              -0.500000000               0.000000000              -0.050896897              -0.122875978               0.000000000              -0.063340840              -0.146446229               0.000000000              -0.075784784              -0.170016481               0.000000000              -0.088228728              -0.193586732               0.000000000              -0.100672672              -0.217156983               0.000000000              -0.113116616              -0.240727235               0.000000000              -0.125560560              -0.264297486               0.000000000              -0.138004504              -0.287867738               0.000000000              -0.150448448              -0.311437989               0.000000000              -0.162892392              -0.335008240               0.000000000              -0.175336336              -0.358578492               0.000000000              -0.187780280              -0.382148743               0.000000000              -0.200224224              -0.405718994               0.000000000              -0.212668168              -0.429289246               0.000000000              -0.225112112              -0.452859497               0.000000000              -0.237556056              -0.476429749               0.000000000              -0.250000000              -0.500000000               0.000000000              -0.038607862              -0.127273065               0.000000000              -0.047913621              -0.150568498               0.000000000              -0.057219379              -0.173863932               0.000000000              -0.066525138              -0.197159365               0.000000000              -0.075830897              -0.220454798               0.000000000              -0.085136655              -0.243750232               0.000000000              -0.094442414              -0.267045665               0.000000000              -0.103748172              -0.290341099               0.000000000              -0.113053931              -0.313636532               0.000000000              -0.122359690              -0.336931966               0.000000000              -0.131665448              -0.360227399               0.000000000              -0.140971207              -0.383522833               0.000000000              -0.150276966              -0.406818266               0.000000000              -0.159582724              -0.430113700               0.000000000              -0.168888483              -0.453409133               0.000000000              -0.178194241              -0.476704567               0.000000000              -0.187500000              -0.500000000               0.000000000              -0.025947013              -0.130444442               0.000000000              -0.032137825              -0.153541665               0.000000000              -0.038328636              -0.176638887               0.000000000              -0.044519448              -0.199736109               0.000000000              -0.050710260              -0.222833332               0.000000000              -0.056901071              -0.245930554               0.000000000              -0.063091883              -0.269027776               0.000000000              -0.069282695              -0.292124999               0.000000000              -0.075473506              -0.315222221               0.000000000              -0.081664318              -0.338319444               0.000000000              -0.087855130              -0.361416666               0.000000000              -0.094045942              -0.384513888               0.000000000              -0.100236753              -0.407611111               0.000000000              -0.106427565              -0.430708333               0.000000000              -0.112618377              -0.453805555               0.000000000              -0.118809188              -0.476902778               0.000000000              -0.125000000              -0.500000000               0.000000000              -0.013036280              -0.132359569               0.000000000              -0.016127762              -0.155337096               0.000000000              -0.019219245              -0.178314623               0.000000000              -0.022310727              -0.201292150               0.000000000              -0.025402210              -0.224269676               0.000000000              -0.028493692              -0.247247203               0.000000000              -0.031585175              -0.270224730               0.000000000              -0.034676657              -0.293202257               0.000000000              -0.037768140              -0.316179784               0.000000000              -0.040859622              -0.339157311               0.000000000              -0.043951105              -0.362134838               0.000000000              -0.047042587              -0.385112365               0.000000000              -0.050134070              -0.408089892               0.000000000              -0.053225552              -0.431067419               0.000000000              -0.056317035              -0.454044946               0.000000000              -0.059408517              -0.477022473               0.000000000              -0.062500000              -0.500000000               0.000000000               0.000000000              -0.133000000               0.000000000               0.000000000              -0.155937500               0.000000000               0.000000000              -0.178875000               0.000000000               0.000000000              -0.201812500               0.000000000               0.000000000              -0.224750000               0.000000000               0.000000000              -0.247687500               0.000000000               0.000000000              -0.270625000               0.000000000               0.000000000              -0.293562500               0.000000000               0.000000000              -0.316500000               0.000000000               0.000000000              -0.339437500               0.000000000               0.000000000              -0.362375000               0.000000000               0.000000000              -0.385312500               0.000000000               0.000000000              -0.408250000               0.000000000               0.000000000              -0.431187500               0.000000000               0.000000000              -0.454125000               0.000000000               0.000000000              -0.477062500               0.000000000               0.000000000              -0.500000000               0.000000000              -0.133000000               0.000000000               0.000000000              -0.155937500               0.000000000               0.000000000              -0.178875000               0.000000000               0.000000000              -0.201812500               0.000000000               0.000000000              -0.224750000               0.000000000               0.000000000              -0.247687500               0.000000000               0.000000000              -0.270625000               0.000000000               0.000000000              -0.293562500               0.000000000               0.000000000              -0.316500000               0.000000000               0.000000000              -0.339437500               0.000000000               0.000000000              -0.362375000               0.000000000               0.000000000              -0.385312500               0.000000000               0.000000000              -0.408250000               0.000000000               0.000000000              -0.431187500               0.000000000               0.000000000              -0.454125000               0.000000000               0.000000000              -0.477062500               0.000000000               0.000000000              -0.500000000               0.000000000               0.000000000              -0.132359569               0.013036280               0.000000000              -0.155337096               0.016127762               0.000000000              -0.178314623               0.019219245               0.000000000              -0.201292150               0.022310727               0.000000000              -0.224269676               0.025402210               0.000000000              -0.247247203               0.028493692               0.000000000              -0.270224730               0.031585175               0.000000000              -0.293202257               0.034676657               0.000000000              -0.316179784               0.037768140               0.000000000              -0.339157311               0.040859622               0.000000000              -0.362134838               0.043951105               0.000000000              -0.385112365               0.047042587               0.000000000              -0.408089892               0.050134070               0.000000000              -0.431067419               0.053225552               0.000000000              -0.454044946               0.056317035               0.000000000              -0.477022473               0.059408517               0.000000000              -0.500000000               0.062500000               0.000000000              -0.130444442               0.025947013               0.000000000              -0.153541665               0.032137825               0.000000000              -0.176638887               0.038328636               0.000000000              -0.199736109               0.044519448               0.000000000              -0.222833332               0.050710260               0.000000000              -0.245930554               0.056901071               0.000000000              -0.269027776               0.063091883               0.000000000              -0.292124999               0.069282695               0.000000000              -0.315222221               0.075473506               0.000000000              -0.338319444               0.081664318               0.000000000              -0.361416666               0.087855130               0.000000000              -0.384513888               0.094045942               0.000000000              -0.407611111               0.100236753               0.000000000              -0.430708333               0.106427565               0.000000000              -0.453805555               0.112618377               0.000000000              -0.476902778               0.118809188               0.000000000              -0.500000000               0.125000000               0.000000000              -0.127273065               0.038607862               0.000000000              -0.150568498               0.047913621               0.000000000              -0.173863932               0.057219379               0.000000000              -0.197159365               0.066525138               0.000000000              -0.220454798               0.075830897               0.000000000              -0.243750232               0.085136655               0.000000000              -0.267045665               0.094442414               0.000000000              -0.290341099               0.103748172               0.000000000              -0.313636532               0.113053931               0.000000000              -0.336931966               0.122359690               0.000000000              -0.360227399               0.131665448               0.000000000              -0.383522833               0.140971207               0.000000000              -0.406818266               0.150276966               0.000000000              -0.430113700               0.159582724               0.000000000              -0.453409133               0.168888483               0.000000000              -0.476704567               0.178194241               0.000000000              -0.500000000               0.187500000               0.000000000              -0.122875978               0.050896897               0.000000000              -0.146446229               0.063340840               0.000000000              -0.170016481               0.075784784               0.000000000              -0.193586732               0.088228728               0.000000000              -0.217156983               0.100672672               0.000000000              -0.240727235               0.113116616               0.000000000              -0.264297486               0.125560560               0.000000000              -0.287867738               0.138004504               0.000000000              -0.311437989               0.150448448               0.000000000              -0.335008240               0.162892392               0.000000000              -0.358578492               0.175336336               0.000000000              -0.382148743               0.187780280               0.000000000              -0.405718994               0.200224224               0.000000000              -0.429289246               0.212668168               0.000000000              -0.452859497               0.225112112               0.000000000              -0.476429749               0.237556056               0.000000000              -0.500000000               0.250000000               0.000000000              -0.117295528               0.062695766               0.000000000              -0.141214558               0.078308531               0.000000000              -0.165133587               0.093921295               0.000000000              -0.189052617               0.109534060               0.000000000              -0.212971646               0.125146824               0.000000000              -0.236890676               0.140759589               0.000000000              -0.260809705               0.156372354               0.000000000              -0.284728735               0.171985118               0.000000000              -0.308647764               0.187597883               0.000000000              -0.332566794               0.203210648               0.000000000              -0.356485823               0.218823412               0.000000000              -0.380404853               0.234436177               0.000000000              -0.404323882               0.250048941               0.000000000              -0.428242912               0.265661706               0.000000000              -0.452161941               0.281274471               0.000000000              -0.476080971               0.296887235               0.000000000              -0.500000000               0.312500000               0.000000000              -0.110585458               0.073890841               0.000000000              -0.134923867               0.092710163               0.000000000              -0.159262276               0.111529486               0.000000000              -0.183600685               0.130348808               0.000000000              -0.207939094               0.149168131               0.000000000              -0.232277503               0.167987453               0.000000000              -0.256615912               0.186806776               0.000000000              -0.280954320               0.205626098               0.000000000              -0.305292729               0.224445420               0.000000000              -0.329631138               0.243264743               0.000000000              -0.353969547               0.262084065               0.000000000              -0.378307956               0.280903388               0.000000000              -0.402646365               0.299722710               0.000000000              -0.426984773               0.318542033               0.000000000              -0.451323182               0.337361355               0.000000000              -0.475661591               0.356180678               0.000000000              -0.500000000               0.375000000               0.000000000              -0.102810390               0.084374307               0.000000000              -0.127634741               0.106444663               0.000000000              -0.152459092               0.128515018               0.000000000              -0.177283442               0.150585374               0.000000000              -0.202107793               0.172655730               0.000000000              -0.226932143               0.194726086               0.000000000              -0.251756494               0.216796442               0.000000000              -0.276580845               0.238866798               0.000000000              -0.301405195               0.260937153               0.000000000              -0.326229546               0.283007509               0.000000000              -0.351053896               0.305077865               0.000000000              -0.375878247               0.327148221               0.000000000              -0.400702598               0.349218577               0.000000000              -0.425526948               0.371288933               0.000000000              -0.450351299               0.393359288               0.000000000              -0.475175649               0.415429644               0.000000000              -0.500000000               0.437500000               0.000000000              -0.094045202               0.094045202               0.000000000              -0.119417377               0.119417377               0.000000000              -0.144789552               0.144789552               0.000000000              -0.170161727               0.170161727               0.000000000              -0.195533901               0.195533901               0.000000000              -0.220906076               0.220906076               0.000000000              -0.246278251               0.246278251               0.000000000              -0.271650426               0.271650426               0.000000000              -0.297022601               0.297022601               0.000000000              -0.322394776               0.322394776               0.000000000              -0.347766951               0.347766951               0.000000000              -0.373139126               0.373139126               0.000000000              -0.398511300               0.398511300               0.000000000              -0.423883475               0.423883475               0.000000000              -0.449255650               0.449255650               0.000000000              -0.474627825               0.474627825               0.000000000              -0.500000000               0.500000000               0.000000000              -0.084374307               0.102810390               0.000000000              -0.106444663               0.127634741               0.000000000              -0.128515018               0.152459092               0.000000000              -0.150585374               0.177283442               0.000000000              -0.172655730               0.202107793               0.000000000              -0.194726086               0.226932143               0.000000000              -0.216796442               0.251756494               0.000000000              -0.238866798               0.276580845               0.000000000              -0.260937153               0.301405195               0.000000000              -0.283007509               0.326229546               0.000000000              -0.305077865               0.351053896               0.000000000              -0.327148221               0.375878247               0.000000000              -0.349218577               0.400702598               0.000000000              -0.371288933               0.425526948               0.000000000              -0.393359288               0.450351299               0.000000000              -0.415429644               0.475175649               0.000000000              -0.437500000               0.500000000               0.000000000              -0.073890841               0.110585458               0.000000000              -0.092710163               0.134923867               0.000000000              -0.111529486               0.159262276               0.000000000              -0.130348808               0.183600685               0.000000000              -0.149168131               0.207939094               0.000000000              -0.167987453               0.232277503               0.000000000              -0.186806776               0.256615912               0.000000000              -0.205626098               0.280954320               0.000000000              -0.224445420               0.305292729               0.000000000              -0.243264743               0.329631138               0.000000000              -0.262084065               0.353969547               0.000000000              -0.280903388               0.378307956               0.000000000              -0.299722710               0.402646365               0.000000000              -0.318542033               0.426984773               0.000000000              -0.337361355               0.451323182               0.000000000              -0.356180678               0.475661591               0.000000000              -0.375000000               0.500000000               0.000000000              -0.062695766               0.117295528               0.000000000              -0.078308531               0.141214558               0.000000000              -0.093921295               0.165133587               0.000000000              -0.109534060               0.189052617               0.000000000              -0.125146824               0.212971646               0.000000000              -0.140759589               0.236890676               0.000000000              -0.156372354               0.260809705               0.000000000              -0.171985118               0.284728735               0.000000000              -0.187597883               0.308647764               0.000000000              -0.203210648               0.332566794               0.000000000              -0.218823412               0.356485823               0.000000000              -0.234436177               0.380404853               0.000000000              -0.250048941               0.404323882               0.000000000              -0.265661706               0.428242912               0.000000000              -0.281274471               0.452161941               0.000000000              -0.296887235               0.476080971               0.000000000              -0.312500000               0.500000000               0.000000000              -0.050896897               0.122875978               0.000000000              -0.063340840               0.146446229               0.000000000              -0.075784784               0.170016481               0.000000000              -0.088228728               0.193586732               0.000000000              -0.100672672               0.217156983               0.000000000              -0.113116616               0.240727235               0.000000000              -0.125560560               0.264297486               0.000000000              -0.138004504               0.287867738               0.000000000              -0.150448448               0.311437989               0.000000000              -0.162892392               0.335008240               0.000000000              -0.175336336               0.358578492               0.000000000              -0.187780280               0.382148743               0.000000000              -0.200224224               0.405718994               0.000000000              -0.212668168               0.429289246               0.000000000              -0.225112112               0.452859497               0.000000000              -0.237556056               0.476429749               0.000000000              -0.250000000               0.500000000               0.000000000              -0.038607862               0.127273065               0.000000000              -0.047913621               0.150568498               0.000000000              -0.057219379               0.173863932               0.000000000              -0.066525138               0.197159365               0.000000000              -0.075830897               0.220454798               0.000000000              -0.085136655               0.243750232               0.000000000              -0.094442414               0.267045665               0.000000000              -0.103748172               0.290341099               0.000000000              -0.113053931               0.313636532               0.000000000              -0.122359690               0.336931966               0.000000000              -0.131665448               0.360227399               0.000000000              -0.140971207               0.383522833               0.000000000              -0.150276966               0.406818266               0.000000000              -0.159582724               0.430113700               0.000000000              -0.168888483               0.453409133               0.000000000              -0.178194241               0.476704567               0.000000000              -0.187500000               0.500000000               0.000000000              -0.025947013               0.130444442               0.000000000              -0.032137825               0.153541665               0.000000000              -0.038328636               0.176638887               0.000000000              -0.044519448               0.199736109               0.000000000              -0.050710260               0.222833332               0.000000000              -0.056901071               0.245930554               0.000000000              -0.063091883               0.269027776               0.000000000              -0.069282695               0.292124999               0.000000000              -0.075473506               0.315222221               0.000000000              -0.081664318               0.338319444               0.000000000              -0.087855130               0.361416666               0.000000000              -0.094045942               0.384513888               0.000000000              -0.100236753               0.407611111               0.000000000              -0.106427565               0.430708333               0.000000000              -0.112618377               0.453805555               0.000000000              -0.118809188               0.476902778               0.000000000              -0.125000000               0.500000000               0.000000000              -0.013036280               0.132359569               0.000000000              -0.016127762               0.155337096               0.000000000              -0.019219245               0.178314623               0.000000000              -0.022310727               0.201292150               0.000000000              -0.025402210               0.224269676               0.000000000              -0.028493692               0.247247203               0.000000000              -0.031585175               0.270224730               0.000000000              -0.034676657               0.293202257               0.000000000              -0.037768140               0.316179784               0.000000000              -0.040859622               0.339157311               0.000000000              -0.043951105               0.362134838               0.000000000              -0.047042587               0.385112365               0.000000000              -0.050134070               0.408089892               0.000000000              -0.053225552               0.431067419               0.000000000              -0.056317035               0.454044946               0.000000000              -0.059408517               0.477022473               0.000000000              -0.062500000               0.500000000               0.000000000               0.000000000               0.133000000               0.000000000               0.000000000               0.155937500               0.000000000               0.000000000               0.178875000               0.000000000               0.000000000               0.201812500               0.000000000               0.000000000               0.224750000               0.000000000               0.000000000               0.247687500               0.000000000               0.000000000               0.270625000               0.000000000               0.000000000               0.293562500               0.000000000               0.000000000               0.316500000               0.000000000               0.000000000               0.339437500               0.000000000               0.000000000               0.362375000               0.000000000               0.000000000               0.385312500               0.000000000               0.000000000               0.408250000               0.000000000               0.000000000               0.431187500               0.000000000               0.000000000               0.454125000               0.000000000               0.000000000               0.477062500               0.000000000               0.000000000               0.500000000               0.000000000 </DataArray>
</Points>
<Cells>
<DataArray type="Int32"                                    Name="connectivity"                                                      NumberOfComponents=" 1" format="ascii">
         0          1         18         17          1          2         19         18          2          3         20         19          3          4         21         20          4          5         22         21          5          6         23         22          6          7         24         23          7          8         25         24          8          9         26         25          9         10         27         26         10         11         28         27         11         12         29         28         12         13         30         29         13         14         31         30         14         15         32         31         15         16         33         32         17         18         35         34         18         19         36         35         19         20         37         36         20         21         38         37         21         22         39         38         22         23         40         39         23         24         41         40         24         25         42         41         25         26         43         42         26         27         44         43         27         28         45         44         28         29         46         45         29         30         47         46         30         31         48         47         31         32         49         48         32         33         50         49         34         35         52         51         35         36         53         52         36         37         54         53         37         38         55         54         38         39         56         55         39         40         57         56         40         41         58         57         41         42         59         58         42         43         60         59         43         44         61         60         44         45         62         61         45         46         63         62         46         47         64         63         47         48         65         64         48         49         66         65         49         50         67         66         51         52         69         68         52         53         70         69         53         54         71         70         54         55         72         71         55         56         73         72         56         57         74         73         57         58         75         74         58         59         76         75         59         60         77         76         60         61         78         77         61         62         79         78         62         63         80         79         63         64         81         80         64         65         82         81         65         66         83         82         66         67         84         83         68         69         86         85         69         70         87         86         70         71         88         87         71         72         89         88         72         73         90         89         73         74         91         90         74         75         92         91         75         76         93         92         76         77         94         93         77         78         95         94         78         79         96         95         79         80         97         96         80         81         98         97         81         82         99         98         82         83        100         99         83         84        101        100         85         86        103        102         86         87        104        103         87         88        105        104         88         89        106        105         89         90        107        106         90         91        108        107         91         92        109        108         92         93        110        109         93         94        111        110         94         95        112        111         95         96        113        112         96         97        114        113         97         98        115        114         98         99        116        115         99        100        117        116        100        101        118        117        102        103        120        119        103        104        121        120        104        105        122        121        105        106        123        122        106        107        124        123        107        108        125        124        108        109        126        125        109        110        127        126        110        111        128        127        111        112        129        128        112        113        130        129        113        114        131        130        114        115        132        131        115        116        133        132        116        117        134        133        117        118        135        134        119        120        137        136        120        121        138        137        121        122        139        138        122        123        140        139        123        124        141        140        124        125        142        141        125        126        143        142        126        127        144        143        127        128        145        144        128        129        146        145        129        130        147        146        130        131        148        147        131        132        149        148        132        133        150        149        133        134        151        150        134        135        152        151        136        137        154        153        137        138        155        154        138        139        156        155        139        140        157        156        140        141        158        157        141        142        159        158        142        143        160        159        143        144        161        160        144        145        162        161        145        146        163        162        146        147        164        163        147        148        165        164        148        149        166        165        149        150        167        166        150        151        168        167        151        152        169        168        153        154        171        170        154        155        172        171        155        156        173        172        156        157        174        173        157        158        175        174        158        159        176        175        159        160        177        176        160        161        178        177        161        162        179        178        162        163        180        179        163        164        181        180        164        165        182        181        165        166        183        182        166        167        184        183        167        168        185        184        168        169        186        185        170        171        188        187        171        172        189        188        172        173        190        189        173        174        191        190        174        175        192        191        175        176        193        192        176        177        194        193        177        178        195        194        178        179        196        195        179        180        197        196        180        181        198        197        181        182        199        198        182        183        200        199        183        184        201        200        184        185        202        201        185        186        203        202        187        188        205        204        188        189        206        205        189        190        207        206        190        191        208        207        191        192        209        208        192        193        210        209        193        194        211        210        194        195        212        211        195        196        213        212        196        197        214        213        197        198        215        214        198        199        216        215        199        200        217        216        200        201        218        217        201        202        219        218        202        203        220        219        204        205        222        221        205        206        223        222        206        207        224        223        207        208        225        224        208        209        226        225        209        210        227        226        210        211        228        227        211        212        229        228        212        213        230        229        213        214        231        230        214        215        232        231        215        216        233        232        216        217        234        233        217        218        235        234        218        219        236        235        219        220        237        236        221        222        239        238        222        223        240        239        223        224        241        240        224        225        242        241        225        226        243        242        226        227        244        243        227        228        245        244        228        229        246        245        229        230        247        246        230        231        248        247        231        232        249        248        232        233        250        249        233        234        251        250        234        235        252        251        235        236        253        252        236        237        254        253        238        239        256        255        239        240        257        256        240        241        258        257        241        242        259        258        242        243        260        259        243        244        261        260        244        245        262        261        245        246        263        262        246        247        264        263        247        248        265        264        248        249        266        265        249        250        267        266        250        251        268        267        251        252        269        268        252        253        270        269        253        254        271        270        255        256        273        272        256        257        274        273        257        258        275        274        258        259        276        275        259        260        277        276        260        261        278        277        261        262        279        278        262        263        280        279        263        264        281        280        264        265        282        281        265        266        283        282        266        267        284        283        267        268        285        284        268        269        286        285        269        270        287        286        270        271        288        287        306        307          1          0        307        308          2          1        308        309          3          2        309        310          4          3        310        311          5          4        311        312          6          5        312        313          7          6        313        314          8          7        314        315          9          8        315        316         10          9        316        317         11         10        317        318         12         11        318        319         13         12        319        320         14         13        320        321         15         14        321        322         16         15        323        324        307        306        324        325        308        307        325        326        309        308        326        327        310        309        327        328        311        310        328        329        312        311        329        330        313        312        330        331        314        313        331        332        315        314        332        333        316        315        333        334        317        316        334        335        318        317        335        336        319        318        336        337        320        319        337        338        321        320        338        339        322        321        340        341        324        323        341        342        325        324        342        343        326        325        343        344        327        326        344        345        328        327        345        346        329        328        346        347        330        329        347        348        331        330        348        349        332        331        349        350        333        332        350        351        334        333        351        352        335        334        352        353        336        335        353        354        337        336        354        355        338        337        355        356        339        338        357        358        341        340        358        359        342        341        359        360        343        342        360        361        344        343        361        362        345        344        362        363        346        345        363        364        347        346        364        365        348        347        365        366        349        348        366        367        350        349        367        368        351        350        368        369        352        351        369        370        353        352        370        371        354        353        371        372        355        354        372        373        356        355        374        375        358        357        375        376        359        358        376        377        360        359        377        378        361        360        378        379        362        361        379        380        363        362        380        381        364        363        381        382        365        364        382        383        366        365        383        384        367        366        384        385        368        367        385        386        369        368        386        387        370        369        387        388        371        370        388        389        372        371        389        390        373        372        391        392        375        374        392        393        376        375        393        394        377        376        394        395        378        377        395        396        379        378        396        397        380        379        397        398        381        380        398        399        382        381        399        400        383        382        400        401        384        383        401        402        385        384        402        403        386        385        403        404        387        386        404        405        388        387        405        406        389        388        406        407        390        389        408        409        392        391        409        410        393        392        410        411        394        393        411        412        395        394        412        413        396        395        413        414        397        396        414        415        398        397        415        416        399        398        416        417        400        399        417        418        401        400        418        419        402        401        419        420        403        402        420        421        404        403        421        422        405        404        422        423        406        405        423        424        407        406        425        426        409        408        426        427        410        409        427        428        411        410        428        429        412        411        429        430        413        412        430        431        414        413        431        432        415        414        432        433        416        415        433        434        417        416        434        435        418        417        435        436        419        418        436        437        420        419        437        438        421        420        438        439        422        421        439        440        423        422        440        441        424        423        442        443        426        425        443        444        427        426        444        445        428        427        445        446        429        428        446        447        430        429        447        448        431        430        448        449        432        431        449        450        433        432        450        451        434        433        451        452        435        434        452        453        436        435        453        454        437        436        454        455        438        437        455        456        439        438        456        457        440        439        457        458        441        440        459        460        443        442        460        461        444        443        461        462        445        444        462        463        446        445        463        464        447        446        464        465        448        447        465        466        449        448        466        467        450        449        467        468        451        450        468        469        452        451        469        470        453        452        470        471        454        453        471        472        455        454        472        473        456        455        473        474        457        456        474        475        458        457        476        477        460        459        477        478        461        460        478        479        462        461        479        480        463        462        480        481        464        463        481        482        465        464        482        483        466        465        483        484        467        466        484        485        468        467        485        486        469        468        486        487        470        469        487        488        471        470        488        489        472        471        489        490        473        472        490        491        474        473        491        492        475        474        493        494        477        476        494        495        478        477        495        496        479        478        496        497        480        479        497        498        481        480        498        499        482        481        499        500        483        482        500        501        484        483        501        502        485        484        502        503        486        485        503        504        487        486        504        505        488        487        505        506        489        488        506        507        490        489        507        508        491        490        508        509        492        491        510        511        494        493        511        512        495        494        512        513        496        495        513        514        497        496        514        515        498        497        515        516        499        498        516        517        500        499        517        518        501        500        518        519        502        501        519        520        503        502        520        521        504        503        521        522        505        504        522        523        506        505        523        524        507        506        524        525        508        507        525        526        509        508        527        528        511        510        528        529        512        511        529        530        513        512        530        531        514        513        531        532        515        514        532        533        516        515        533        534        517        516        534        535        518        517        535        536        519        518        536        537        520        519        537        538        521        520        538        539        522        521        539        540        523        522        540        541        524        523        541        542        525        524        542        543        526        525        544        545        528        527        545        546        529        528        546        547        530        529        547        548        531        530        548        549        532        531        549        550        533        532        550        551        534        533        551        552        535        534        552        553        536        535        553        554        537        536        554        555        538        537        555        556        539        538        556        557        540        539        557        558        541        540        558        559        542        541        559        560        543        542        561        562        545        544        562        563        546        545        563        564        547        546        564        565        548        547        565        566        549        548        566        567        550        549        567        568        551        550        568        569        552        551        569        570        553        552        570        571        554        553        571        572        555        554        572        573        556        555        573        574        557        556        574        575        558        557        575        576        559        558        576        577        560        559        578        579        596        595        579        580        597        596        580        581        598        597        581        582        599        598        582        583        600        599        583        584        601        600        584        585        602        601        585        586        603        602        586        587        604        603        587        588        605        604        588        589        606        605        589        590        607        606        590        591        608        607        591        592        609        608        592        593        610        609        593        594        611        610        595        596        613        612        596        597        614        613        597        598        615        614        598        599        616        615        599        600        617        616        600        601        618        617        601        602        619        618        602        603        620        619        603        604        621        620        604        605        622        621        605        606        623        622        606        607        624        623        607        608        625        624        608        609        626        625        609        610        627        626        610        611        628        627        612        613        630        629        613        614        631        630        614        615        632        631        615        616        633        632        616        617        634        633        617        618        635        634        618        619        636        635        619        620        637        636        620        621        638        637        621        622        639        638        622        623        640        639        623        624        641        640        624        625        642        641        625        626        643        642        626        627        644        643        627        628        645        644        629        630        647        646        630        631        648        647        631        632        649        648        632        633        650        649        633        634        651        650        634        635        652        651        635        636        653        652        636        637        654        653        637        638        655        654        638        639        656        655        639        640        657        656        640        641        658        657        641        642        659        658        642        643        660        659        643        644        661        660        644        645        662        661        646        647        664        663        647        648        665        664        648        649        666        665        649        650        667        666        650        651        668        667        651        652        669        668        652        653        670        669        653        654        671        670        654        655        672        671        655        656        673        672        656        657        674        673        657        658        675        674        658        659        676        675        659        660        677        676        660        661        678        677        661        662        679        678        663        664        681        680        664        665        682        681        665        666        683        682        666        667        684        683        667        668        685        684        668        669        686        685        669        670        687        686        670        671        688        687        671        672        689        688        672        673        690        689        673        674        691        690        674        675        692        691        675        676        693        692        676        677        694        693        677        678        695        694        678        679        696        695        680        681        698        697        681        682        699        698        682        683        700        699        683        684        701        700        684        685        702        701        685        686        703        702        686        687        704        703        687        688        705        704        688        689        706        705        689        690        707        706        690        691        708        707        691        692        709        708        692        693        710        709        693        694        711        710        694        695        712        711        695        696        713        712        697        698        715        714        698        699        716        715        699        700        717        716        700        701        718        717        701        702        719        718        702        703        720        719        703        704        721        720        704        705        722        721        705        706        723        722        706        707        724        723        707        708        725        724        708        709        726        725        709        710        727        726        710        711        728        727        711        712        729        728        712        713        730        729        714        715        732        731        715        716        733        732        716        717        734        733        717        718        735        734        718        719        736        735        719        720        737        736        720        721        738        737        721        722        739        738        722        723        740        739        723        724        741        740        724        725        742        741        725        726        743        742        726        727        744        743        727        728        745        744        728        729        746        745        729        730        747        746        731        732        749        748        732        733        750        749        733        734        751        750        734        735        752        751        735        736        753        752        736        737        754        753        737        738        755        754        738        739        756        755        739        740        757        756        740        741        758        757        741        742        759        758        742        743        760        759        743        744        761        760        744        745        762        761        745        746        763        762        746        747        764        763        748        749        766        765        749        750        767        766        750        751        768        767        751        752        769        768        752        753        770        769        753        754        771        770        754        755        772        771        755        756        773        772        756        757        774        773        757        758        775        774        758        759        776        775        759        760        777        776        760        761        778        777        761        762        779        778        762        763        780        779        763        764        781        780        765        766        783        782        766        767        784        783        767        768        785        784        768        769        786        785        769        770        787        786        770        771        788        787        771        772        789        788        772        773        790        789        773        774        791        790        774        775        792        791        775        776        793        792        776        777        794        793        777        778        795        794        778        779        796        795        779        780        797        796        780        781        798        797        782        783        800        799        783        784        801        800        784        785        802        801        785        786        803        802        786        787        804        803        787        788        805        804        788        789        806        805        789        790        807        806        790        791        808        807        791        792        809        808        792        793        810        809        793        794        811        810        794        795        812        811        795        796        813        812        796        797        814        813        797        798        815        814        799        800        817        816        800        801        818        817        801        802        819        818        802        803        820        819        803        804        821        820        804        805        822        821        805        806        823        822        806        807        824        823        807        808        825        824        808        809        826        825        809        810        827        826        810        811        828        827        811        812        829        828        812        813        830        829        813        814        831        830        814        815        832        831        816        817        834        833        817        818        835        834        818        819        836        835        819        820        837        836        820        821        838        837        821        822        839        838        822        823        840        839        823        824        841        840        824        825        842        841        825        826        843        842        826        827        844        843        827        828        845        844        828        829        846        845        829        830        847        846        830        831        848        847        831        832        849        848        833        834        562        561        834        835        563        562        835        836        564        563        836        837        565        564        837        838        566        565        838        839        567        566        839        840        568        567        840        841        569        568        841        842        570        569        842        843        571        570        843        844        572        571        844        845        573        572        845        846        574        573        846        847        575        574        847        848        576        575        848        849        577        576        884        885        579        578        885        886        580        579        886        887        581        580        887        888        582        581        888        889        583        582        889        890        584        583        890        891        585        584        891        892        586        585        892        893        587        586        893        894        588        587        894        895        589        588        895        896        590        589        896        897        591        590        897        898        592        591        898        899        593        592        899        900        594        593        901        902        885        884        902        903        886        885        903        904        887        886        904        905        888        887        905        906        889        888        906        907        890        889        907        908        891        890        908        909        892        891        909        910        893        892        910        911        894        893        911        912        895        894        912        913        896        895        913        914        897        896        914        915        898        897        915        916        899        898        916        917        900        899        918        919        902        901        919        920        903        902        920        921        904        903        921        922        905        904        922        923        906        905        923        924        907        906        924        925        908        907        925        926        909        908        926        927        910        909        927        928        911        910        928        929        912        911        929        930        913        912        930        931        914        913        931        932        915        914        932        933        916        915        933        934        917        916        935        936        919        918        936        937        920        919        937        938        921        920        938        939        922        921        939        940        923        922        940        941        924        923        941        942        925        924        942        943        926        925        943        944        927        926        944        945        928        927        945        946        929        928        946        947        930        929        947        948        931        930        948        949        932        931        949        950        933        932        950        951        934        933        952        953        936        935        953        954        937        936        954        955        938        937        955        956        939        938        956        957        940        939        957        958        941        940        958        959        942        941        959        960        943        942        960        961        944        943        961        962        945        944        962        963        946        945        963        964        947        946        964        965        948        947        965        966        949        948        966        967        950        949        967        968        951        950        969        970        953        952        970        971        954        953        971        972        955        954        972        973        956        955        973        974        957        956        974        975        958        957        975        976        959        958        976        977        960        959        977        978        961        960        978        979        962        961        979        980        963        962        980        981        964        963        981        982        965        964        982        983        966        965        983        984        967        966        984        985        968        967        986        987        970        969        987        988        971        970        988        989        972        971        989        990        973        972        990        991        974        973        991        992        975        974        992        993        976        975        993        994        977        976        994        995        978        977        995        996        979        978        996        997        980        979        997        998        981        980        998        999        982        981        999       1000        983        982       1000       1001        984        983       1001       1002        985        984       1003       1004        987        986       1004       1005        988        987       1005       1006        989        988       1006       1007        990        989       1007       1008        991        990       1008       1009        992        991       1009       1010        993        992       1010       1011        994        993       1011       1012        995        994       1012       1013        996        995       1013       1014        997        996       1014       1015        998        997       1015       1016        999        998       1016       1017       1000        999       1017       1018       1001       1000       1018       1019       1002       1001       1020       1021       1004       1003       1021       1022       1005       1004       1022       1023       1006       1005       1023       1024       1007       1006       1024       1025       1008       1007       1025       1026       1009       1008       1026       1027       1010       1009       1027       1028       1011       1010       1028       1029       1012       1011       1029       1030       1013       1012       1030       1031       1014       1013       1031       1032       1015       1014       1032       1033       1016       1015       1033       1034       1017       1016       1034       1035       1018       1017       1035       1036       1019       1018       1037       1038       1021       1020       1038       1039       1022       1021       1039       1040       1023       1022       1040       1041       1024       1023       1041       1042       1025       1024       1042       1043       1026       1025       1043       1044       1027       1026       1044       1045       1028       1027       1045       1046       1029       1028       1046       1047       1030       1029       1047       1048       1031       1030       1048       1049       1032       1031       1049       1050       1033       1032       1050       1051       1034       1033       1051       1052       1035       1034       1052       1053       1036       1035       1054       1055       1038       1037       1055       1056       1039       1038       1056       1057       1040       1039       1057       1058       1041       1040       1058       1059       1042       1041       1059       1060       1043       1042       1060       1061       1044       1043       1061       1062       1045       1044       1062       1063       1046       1045       1063       1064       1047       1046       1064       1065       1048       1047       1065       1066       1049       1048       1066       1067       1050       1049       1067       1068       1051       1050       1068       1069       1052       1051       1069       1070       1053       1052       1071       1072       1055       1054       1072       1073       1056       1055       1073       1074       1057       1056       1074       1075       1058       1057       1075       1076       1059       1058       1076       1077       1060       1059       1077       1078       1061       1060       1078       1079       1062       1061       1079       1080       1063       1062       1080       1081       1064       1063       1081       1082       1065       1064       1082       1083       1066       1065       1083       1084       1067       1066       1084       1085       1068       1067       1085       1086       1069       1068       1086       1087       1070       1069       1088       1089       1072       1071       1089       1090       1073       1072       1090       1091       1074       1073       1091       1092       1075       1074       1092       1093       1076       1075       1093       1094       1077       1076       1094       1095       1078       1077       1095       1096       1079       1078       1096       1097       1080       1079       1097       1098       1081       1080       1098       1099       1082       1081       1099       1100       1083       1082       1100       1101       1084       1083       1101       1102       1085       1084       1102       1103       1086       1085       1103       1104       1087       1086       1105       1106       1089       1088       1106       1107       1090       1089       1107       1108       1091       1090       1108       1109       1092       1091       1109       1110       1093       1092       1110       1111       1094       1093       1111       1112       1095       1094       1112       1113       1096       1095       1113       1114       1097       1096       1114       1115       1098       1097       1115       1116       1099       1098       1116       1117       1100       1099       1117       1118       1101       1100       1118       1119       1102       1101       1119       1120       1103       1102       1120       1121       1104       1103       1122       1123       1106       1105       1123       1124       1107       1106       1124       1125       1108       1107       1125       1126       1109       1108       1126       1127       1110       1109       1127       1128       1111       1110       1128       1129       1112       1111       1129       1130       1113       1112       1130       1131       1114       1113       1131       1132       1115       1114       1132       1133       1116       1115       1133       1134       1117       1116       1134       1135       1118       1117       1135       1136       1119       1118       1136       1137       1120       1119       1137       1138       1121       1120        272        273       1123       1122        273        274       1124       1123        274        275       1125       1124        275        276       1126       1125        276        277       1127       1126        277        278       1128       1127        278        279       1129       1128        279        280       1130       1129        280        281       1131       1130        281        282       1132       1131        282        283       1133       1132        283        284       1134       1133        284        285       1135       1134        285        286       1136       1135        286        287       1137       1136        287        288       1138       1137 </DataArray>
<DataArray type="Int32"                                    Name="offsets"                                                      NumberOfComponents=" 1" format="ascii">
         4          8         12         16         20         24         28         32         36         40         44         48         52         56         60         64         68         72         76         80         84         88         92         96        100        104        108        112        116        120        124        128        132        136        140        144        148        152        156        160        164        168        172        176        180        184        188        192        196        200        204        208        212        216        220        224        228        232        236        240        244        248        252        256        260        264        268        272        276        280        284        288        292        296        300        304        308        312        316        320        324        328        332        336        340        344        348        352        356        360        364        368        372        376        380        384        388        392        396        400        404        408        412        416        420        424        428        432        436        440        444        448        452        456        460        464        468        472        476        480        484        488        492        496        500        504        508        512        516        520        524        528        532        536        540        544        548        552        556        560        564        568        572        576        580        584        588        592        596        600        604        608        612        616        620        624        628        632        636        640        644        648        652        656        660        664        668        672        676        680        684        688        692        696        700        704        708        712        716        720        724        728        732        736        740        744        748        752        756        760        764        768        772        776        780        784        788        792        796        800        804        808        812        816        820        824        828        832        836        840        844        848        852        856        860        864        868        872        876        880        884        888        892        896        900        904        908        912        916        920        924        928        932        936        940        944        948        952        956        960        964        968        972        976        980        984        988        992        996       1000       1004       1008       1012       1016       1020       1024       1028       1032       1036       1040       1044       1048       1052       1056       1060       1064       1068       1072       1076       1080       1084       1088       1092       1096       1100       1104       1108       1112       1116       1120       1124       1128       1132       1136       1140       1144       1148       1152       1156       1160       1164       1168       1172       1176       1180       1184       1188       1192       1196       1200       1204       1208       1212       1216       1220       1224       1228       1232       1236       1240       1244       1248       1252       1256       1260       1264       1268       1272       1276       1280       1284       1288       1292       1296       1300       1304       1308       1312       1316       1320       1324       1328       1332       1336       1340       1344       1348       1352       1356       1360       1364       1368       1372       1376       1380       1384       1388       1392       1396       1400       1404       1408       1412       1416       1420       1424       1428       1432       1436       1440       1444       1448       1452       1456       1460       1464       1468       1472       1476       1480       1484       1488       1492       1496       1500       1504       1508       1512       1516       1520       1524       1528       1532       1536       1540       1544       1548       1552       1556       1560       1564       1568       1572       1576       1580       1584       1588       1592       1596       1600       1604       1608       1612       1616       1620       1624       1628       1632       1636       1640       1644       1648       1652       1656       1660       1664       1668       1672       1676       1680       1684       1688       1692       1696       1700       1704       1708       1712       1716       1720       1724       1728       1732       1736       1740       1744       1748       1752       1756       1760       1764       1768       1772       1776       1780       1784       1788       1792       1796       1800       1804       1808       1812       1816       1820       1824       1828       1832       1836       1840       1844       1848       1852       1856       1860       1864       1868       1872       1876       1880       1884       1888       1892       1896       1900       1904       1908       1912       1916       1920       1924       1928       1932       1936       1940       1944       1948       1952       1956       1960       1964       1968       1972       1976       1980       1984       1988       1992       1996       2000       2004       2008       2012       2016       2020       2024       2028       2032       2036       2040       2044       2048       2052       2056       2060       2064       2068       2072       2076       2080       2084       2088       2092       2096       2100       2104       2108       2112       2116       2120       2124       2128       2132       2136       2140       2144       2148       2152       2156       2160       2164       2168       2172       2176       2180       2184       2188       2192       2196       2200       2204       2208       2212       2216       2220       2224       2228       2232       2236       2240       2244       2248       2252       2256       2260       2264       2268       2272       2276       2280       2284       2288       2292       2296       2300       2304       2308       2312       2316       2320       2324       2328       2332       2336       2340       2344       2348       2352       2356       2360       2364       2368       2372       2376       2380       2384       2388       2392       2396       2400       2404       2408       2412       2416       2420       2424       2428       2432       2436       2440       2444       2448       2452       2456       2460       2464       2468       2472       2476       2480       2484       2488       2492       2496       2500       2504       2508       2512       2516       2520       2524       2528       2532       2536       2540       2544       2548       2552       2556       2560       2564       2568       2572       2576       2580       2584       2588       2592       2596       2600       2604       2608       2612       2616       2620       2624       2628       2632       2636       2640       2644       2648       2652       2656       2660       2664       2668       2672       2676       2680       2684       2688       2692       2696       2700       2704       2708       2712       2716       2720       2724       2728       2732       2736       2740       2744       2748       2752       2756       2760       2764       2768       2772       2776       2780       2784       2788       2792       2796       2800       2804       2808       2812       2816       2820       2824       2828       2832       2836       2840       2844       2848       2852       2856       2860       2864       2868       2872       2876       2880       2884       2888       2892       2896       2900       2904       2908       2912       2916       2920       2924       2928       2932       2936       2940       2944       2948       2952       2956       2960       2964       2968       2972       2976       2980       2984       2988       2992       2996       3000       3004       3008       3012       3016       3020       3024       3028       3032       3036       3040       3044       3048       3052       3056       3060       3064       3068       3072       3076       3080       3084       3088       3092       3096       3100       3104       3108       3112       3116       3120       3124       3128       3132       3136       3140       3144       3148       3152       3156       3160       3164       3168       3172       3176       3180       3184       3188       3192       3196       3200       3204       3208       3212       3216       3220       3224       3228       3232       3236       3240       3244       3248       3252       3256       3260       3264       3268       3272       3276       3280       3284       3288       3292       3296       3300       3304       3308       3312       3316       3320       3324       3328       3332       3336       3340       3344       3348       3352       3356       3360       3364       3368       3372       3376       3380       3384       3388       3392       3396       3400       3404       3408       3412       3416       3420       3424       3428       3432       3436       3440       3444       3448       3452       3456       3460       3464       3468       3472       3476       3480       3484       3488       3492       3496       3500       3504       3508       3512       3516       3520       3524       3528       3532       3536       3540       3544       3548       3552       3556       3560       3564       3568       3572       3576       3580       3584       3588       3592       3596       3600       3604       3608       3612       3616       3620       3624       3628       3632       3636       3640       3644       3648       3652       3656       3660       3664       3668       3672       3676       3680       3684       3688       3692       3696       3700       3704       3708       3712       3716       3720       3724       3728       3732       3736       3740       3744       3748       3752       3756       3760       3764       3768       3772       3776       3780       3784       3788       3792       3796       3800       3804       3808       3812       3816       3820       3824       3828       3832       3836       3840       3844       3848       3852       3856       3860       3864       3868       3872       3876       3880       3884       3888       3892       3896       3900       3904       3908       3912       3916       3920       3924       3928       3932       3936       3940       3944       3948       3952       3956       3960       3964       3968       3972       3976       3980       3984       3988       3992       3996       4000       4004       4008       4012       4016       4020       4024       4028       4032       4036       4040       4044       4048       4052       4056       4060       4064       4068       4072       4076       4080       4084       4088       4092       4096 </DataArray>
<DataArray type="UInt8"                                    Name="types"                                                      NumberOfComponents=" 1" format="ascii">
         9          9          9          9          9          9          9          9          9          9          9          9          9          9          9          9          9          9          9          9          9          9          9          9          9          9          9          9          9          9          9          9          9          9          9          9          9          9          9          9          9          9          9          9          9          9          9          9          9          9          9          9          9          9          9          9          9          9          9          9          9          9          9          9          9          9          9          9          9          9          9          9          9          9          9          9          9          9          9          9          9          9          9          9          9          9          9          9          9          9          9          9          9          9          9          9          9          9          9          9          9          9          9          9          9          9          9          9          9          9          9          9          9          9          9          9          9          9          9          9          9          9          9          9          9          9          9          9          9          9          9          9          9          9          9          9          9          9          9          9          9          9          9          9          9          9          9          9          9          9          9          9          9          9          9          9          9          9          9          9          9          9          9          9          9          9          9          9          9          9          9          9          9          9          9          9          9          9          9          9          9          9          9          9          9          9          9          9          9          9          9          9          9          9          9          9          9          9          9          9          9          9          9          9          9          9          9          9          9          9          9          9          9          9          9          9          9          9          9          9          9          9          9          9          9          9          9          9          9          9          9          9          9          9          9          9          9          9          9          9          9          9          9          9          9          9          9          9          9          9          9          9          9          9          9          9          9          9          9          9          9          9          9          9          9          9          9          9          9          9          9          9          9          9          9          9          9          9          9          9          9          9          9          9          9          9          9          9          9          9          9          9          9          9          9          9          9          9          9          9          9          9          9          9          9          9          9          9          9          9          9          9          9          9          9          9          9          9          9          9          9          9          9          9          9          9          9          9          9          9          9          9          9          9          9          9          9          9          9          9          9          9          9          9          9          9          9          9          9          9          9          9          9          9          9          9          9          9          9          9          9          9          9          9          9          9          9          9          9          9          9          9          9          9          9          9          9          9          9          9          9          9          9          9          9          9          9          9          9          9          9          9          9          9          9          9          9          9          9          9          9          9          9          9          9          9          9          9          9          9          9          9          9          9          9          9          9          9          9          9          9          9          9          9          9          9          9          9          9          9          9          9          9          9          9          9          9          9          9          9          9          9          9          9          9          9          9          9          9          9          9          9          9          9          9          9          9          9          9          9          9          9          9          9          9          9          9          9          9          9          9          9          9          9          9          9          9          9          9          9          9          9          9          9          9          9          9          9          9          9          9          9          9          9          9          9          9          9          9          9          9          9          9          9          9          9          9          9          9          9          9          9          9          9          9          9          9          9          9          9          9          9          9          9          9          9          9          9          9          9          9          9          9          9          9          9          9          9          9          9          9          9          9          9          9          9          9          9          9          9          9          9          9          9          9          9          9          9          9          9          9          9          9          9          9          9          9          9          9          9          9          9          9          9          9          9          9          9          9          9          9          9          9          9          9          9          9          9          9          9          9          9          9          9          9          9          9          9          9          9          9          9          9          9          9          9          9          9          9          9          9          9          9          9          9          9          9          9          9          9          9          9          9          9          9          9          9          9          9          9          9          9          9          9          9          9          9          9          9          9          9          9          9          9          9          9          9          9          9          9          9          9          9          9          9          9          9          9          9          9          9          9          9          9          9          9          9          9          9          9          9          9          9          9          9          9          9          9          9          9          9          9          9          9          9          9          9          9          9          9          9          9          9          9          9          9          9          9          9          9          9          9          9          9          9          9          9          9          9          9          9          9          9          9          9          9          9          9          9          9          9          9          9          9          9          9          9          9          9          9          9          9          9          9          9          9          9          9          9          9          9          9          9          9          9          9          9          9          9          9          9          9          9          9          9          9          9          9          9          9          9          9          9          9          9          9          9          9          9          9          9          9          9          9          9          9          9          9          9          9          9          9          9          9          9          9          9          9          9          9          9          9          9          9          9          9          9          9          9          9          9          9          9          9          9          9          9          9          9          9          9          9          9          9          9          9          9          9          9          9          9          9          9          9          9          9          9          9          9          9          9          9          9          9          9          9          9          9          9          9          9          9          9          9          9          9          9          9          9          9          9          9          9          9          9          9          9          9          9          9          9          9          9          9          9          9          9          9          9          9          9          9          9          9          9          9          9          9          9          9          9          9          9          9          9          9          9          9          9          9          9          9          9          9          9          9          9          9          9          9          9          9          9          9          9          9          9          9          9          9          9          9          9          9          9          9          9          9          9          9          9          9          9          9          9          9          9          9          9          9          9          9          9          9          9          9          9          9          9          9          9          9          9          9          9          9          9          9          9          9          9          9          9          9          9          9          9          9          9          9          9          9          9          9          9          9          9          9          9          9          9          9          9          9          9          9          9          9          9          9          9          9          9          9          9          9          9          9          9          9          9          9          9          9          9          9          9          9          9          9          9          9          9          9          9          9          9          9          9          9          9          9          9          9          9          9          9          9          9          9          9          9          9          9 </DataArray>
</Cells>
<CellData>
<DataArray type="Int32"                                    Name="material"                                                      NumberOfComponents=" 1" format="ascii">
         1          1          1          1          1          1          1          1          1          1          1          1          1          1          1          1          1          1          1          1          1          1          1          1          1          1          1          1          1          1          1          1          1          1          1          1          1          1          1          1          1          1          1          1          1          1          1          1          1          1          1          1          1          1          1          1          1          1          1          1          1          1          1          1          1          1          1          1          1          1          1          1          1          1          1          1          1          1          1          1          1          1          1          1          1          1          1          1          1          1          1          1          1          1          1          1          1          1          1          1          1          1          1          1          1          1          1          1          1          1          1          1          1          1          1          1          1          1          1          1          1          1          1          1          1          1          1          1          1          1          1          1          1          1          1          1          1          1          1          1          1          1          1          1          1          1          1          1          1          1          1          1          1          1          1          1          1          1          1          1          1          1          1          1          1          1          1          1          1          1          1          1          1          1          1          1          1          1          1          1          1          1          1          1          1          1          1          1          1          1          1          1          1          1          1          1          1          1          1          1          1          1          1          1          1          1          1          1          1          1          1          1          1          1          1          1          1          1          1          1          1          1          1          1          1          1          1          1          1          1          1          1          1          1          1          1          1          1          1          1          1          1          1          1          1          1          1          1          1          1          1          1          1          1          1          1          1          1          1          1          1          1          1          1          1          1          1          1          1          1          1          1          1          1          1          1          1          1          1          1          1          1          1          1          1          1          1          1          1          1          1          1          1          1          1          1          1          1          1          1          1          1          1          1          1          1          1          1          1          1          1          1          1          1          1          1          1          1          1          1          1          1          1          1          1          1          1          1          1          1          1          1          1          1          1          1          1          1          1          1          1          1          1          1          1          1          1          1          1          1          1          1          1          1          1          1          1          1          1          1          1          1          1          1          1          1          1          1          1          1          1          1          1          1          1          1          1          1          1          1          1          1          1          1          1          1          1          1          1          1          1          1          1          1          1          1          1          1          1          1          1          1          1          1          1          1          1          1          1          1          1          1          1          1          1          1          1          1          1          1          1          1          1          1          1          1          1          1          1          1          1          1          1          1          1          1          1          1          1          1          1          1          1          1          1          1          1          1          1          1          1          1          1          1          1          1          1          1          1          1          1          1          1          1          1          1          1          1          1          1          1          1          1          1          1          1          1          1          1          1          1          1          1          1          1          1          1          1          1          1          1          1          1          1          1          1          1          1          1          1          1          1          1          1          1          1          1          1          1          1          1          1          1          1          1          1          1          1          1          1          1          1          1          1          1          1          1          1          1          1          1          1          1          1          1          1          1          1          1          1          1          1          1          1          1          1          1          1          1          1          1          1          1          1          1          1          1          1          1          1          1          1          1          1          1          1          1          1          1          1          1          1          1          1          1          1          1          1          1          1          1          1          1          1          1          1          1          1          1          1          1          1          1          1          1          1          1          1          1          1          1          1          1          1          1          1          1          1          1          1          1          1          1          1          1          1          1          1          1          1          1          1          1          1          1          1          1          1          1          1          1          1          1          1          1          1          1          1          1          1          1          1          1          1          1          1          1          1          1          1          1          1          1          1          1          1          1          1          1          1          1          1          1          1          1          1          1          1          1          1          1          1          1          1          1          1          1          1          1          1          1          1          1          1          1          1          1          1          1          1          1          1          1          1          1          1          1          1          1          1          1          1          1          1          1          1          1          1          1          1          1          1          1          1          1          1          1          1          1          1          1          1          1          1          1          1          1          1          1          1          1          1          1          1          1          1          1          1          1          1          1          1          1          1          1          1          1          1          1          1          1          1          1          1          1          1          1          1          1          1          1          1          1          1          1          1          1          1          1          1          1          1          1          1          1          1          1          1          1          1          1          1          1          1          1          1          1          1          1          1          1          1          1          1          1          1          1          1          1          1          1          1          1          1          1          1          1          1          1          1          1          1          1          1          1          1          1          1          1          1          1          1          1          1          1          1          1          1          1          1          1          1          1          1          1          1          1          1          1          1          1          1          1          1          1          1          1          1          1          1          1          1          1          1          1          1          1          1          1          1          1          1          1          1          1          1          1          1          1          1          1          1          1          1          1          1          1          1          1          1          1          1          1          1          1          1          1          1          1          1          1          1          1          1          1          1          1          1          1          1          1          1          1          1          1          1          1          1          1          1          1          1          1          1          1          1          1          1          1          1          1          1          1          1          1          1          1          1          1          1          1          1          1          1          1          1          1          1          1          1          1          1          1          1          1          1          1          1          1          1          1          1          1          1          1          1          1          1          1          1          1          1          1          1          1          1          1          1          1          1          1          1          1          1          1          1          1          1          1          1          1          1          1          1          1          1          1          1          1          1          1          1          1          1          1          1          1          1          1          1          1          1          1          1          1          1          1          1          1          1          1          1          1          1          1          1          1          1          1          1          1          1          1          1 </DataArray>
</CellData>
<PointData>
<DataArray type="Float64"                                    Name="u"                                                      NumberOfComponents=" 3" format="ascii">
              0.000005746               0.000000000               0.999999999               0.000002456               0.000000000               0.999999999               0.000000868               0.000000000               0.999999999               0.000000082               0.000000000               0.999999999              -0.000000344               0.000000000               0.999999999              -0.000000472               0.000000000               0.999999999              -0.000000426              -0.000000000               0.999999999              -0.000000358               0.000000000               0.999999999              -0.000000318              -0.000000000               0.999999999              -0.000000327              -0.000000000               0.999999999              -0.000000404               0.000000000               0.999999999              -0.000000738               0.000000000               0.999999999              -0.000001472               0.000000000               0.999999999              -0.000002587               0.000000000               0.999999999              -0.000004138               0.000000000               0.999999999              -0.000006214               0.000000000               0.999999999              -0.000008857               0.000000000               0.999999999               0.000005652               0.000008044               0.999999999               0.000002486               0.000007442               0.999999999               0.000000956               0.000007392               0.999999999               0.000000148               0.000007659               0.999999999              -0.000000235               0.000008104               0.999999999              -0.000000397               0.000008589               0.999999999              -0.000000461               0.000009262               0.999999999              -0.000000492               0.000010073               0.999999999              -0.000000599               0.000010977               0.999999999              -0.000000832               0.000011868               0.999999999              -0.000001202               0.000012890               0.999999999              -0.000001776               0.000014209               0.999999999              -0.000002691               0.000015686               0.999999999              -0.000004041               0.000017386               0.999999999              -0.000005834               0.000019339               0.999999999              -0.000008133               0.000021524               0.999999999              -0.000010963               0.000024014               0.999999999               0.000005472               0.000016055               0.999999999               0.000002545               0.000014754               0.999999999               0.000001154               0.000014737               0.999999999               0.000000424               0.000015277               0.999999999               0.000000031               0.000016185               0.999999999              -0.000000247               0.000017285               0.999999999              -0.000000521               0.000018732               0.999999999              -0.000000928               0.000020414               0.999999999              -0.000001509               0.000022295               0.999999999              -0.000002210               0.000024110               0.999999999              -0.000003128               0.000026226               0.999999999              -0.000004365               0.000028810               0.999999999              -0.000005967               0.000031687               0.999999999              -0.000007943               0.000034993               0.999999999              -0.000010314               0.000038712               0.999999999              -0.000013155               0.000042809               0.999999999              -0.000016442               0.000047304               0.999999999               0.000005145               0.000023910               0.999999999               0.000002627               0.000021883               0.999999999               0.000001469               0.000021882               0.999999999               0.000000826               0.000022826               0.999999999               0.000000336               0.000024271               0.999999999              -0.000000110               0.000026113               0.999999999              -0.000000732               0.000028487               0.999999999              -0.000001629               0.000031219               0.999999999              -0.000002775               0.000034149               0.999999999              -0.000004155               0.000036982               0.999999999              -0.000005842               0.000040266               0.999999999              -0.000007851               0.000044152               0.999999999              -0.000010169               0.000048442               0.999999999              -0.000012875               0.000053289               0.999999999              -0.000016013               0.000058654               0.999999999              -0.000019597               0.000064528               0.999999999              -0.000023611               0.000070893               0.999999999               0.000004655               0.000031471               0.999999999               0.000002819               0.000028788               0.999999999               0.000001870               0.000028858               0.999999999               0.000001186               0.000030254               0.999999999               0.000000613               0.000032346               0.999999999              -0.000000143               0.000035073               0.999999999              -0.000001218               0.000038512               0.999999999              -0.000002629               0.000042454               0.999999999              -0.000004397               0.000046474               0.999999999              -0.000006429               0.000050604               0.999999999              -0.000008838               0.000055309               0.999999999              -0.000011620               0.000060622               0.999999999              -0.000014859               0.000066471               0.999999999              -0.000018601               0.000072961               0.999999999              -0.000022748               0.000080108               0.999999999              -0.000027364               0.000087871               0.999999999              -0.000032408               0.000096310               0.999999999               0.000004155               0.000038727               0.999999999               0.000003051               0.000035400               0.999999999               0.000002280               0.000035656               0.999999999               0.000001558               0.000037559               0.999999999               0.000000740               0.000040381               0.999999999              -0.000000408               0.000044172               0.999999999              -0.000002018               0.000048781               0.999999999              -0.000004065               0.000053929               0.999999999              -0.000006391               0.000059330               0.999999999              -0.000009068               0.000064950               0.999999999              -0.000012220               0.000071400               0.999999999              -0.000015830               0.000078588               0.999999999              -0.000019965               0.000086467               0.999999999              -0.000024615               0.000095056               0.999999999              -0.000029766               0.000104406               0.999999999              -0.000035425               0.000114530               0.999999999              -0.000041497               0.000125409               0.999999999               0.000003632               0.000045619               0.999999999               0.000003314               0.000041707               0.999999999               0.000002708               0.000042227               0.999999999               0.000001859               0.000044741               0.999999999               0.000000723               0.000048438               0.999999999              -0.000000946               0.000053353               0.999999999              -0.000003192               0.000059241               0.999999999              -0.000005818               0.000065808               0.999999999              -0.000008795               0.000072701               0.999999999              -0.000012086               0.000080296               0.999999999              -0.000015823               0.000088982               0.999999999              -0.000020119               0.000098603               0.999999999              -0.000025039               0.000108997               0.999999999              -0.000030558               0.000120321               0.999999999              -0.000036638               0.000132460               0.999999999              -0.000043209               0.000145466               0.999999999              -0.000050224               0.000159292               0.999999999               0.000003042               0.000052008               0.999999999               0.000003639               0.000047715               0.999999999               0.000003083               0.000048585               0.999999999               0.000002054               0.000051780               0.999999999               0.000000539               0.000056514               0.999999999              -0.000001728               0.000062710               0.999999999              -0.000004563               0.000070037               0.999999999              -0.000007741               0.000078218               0.999999999              -0.000011111               0.000087272               0.999999999              -0.000014839               0.000097289               0.999999999              -0.000019219               0.000108666               0.999999999              -0.000024275               0.000121087               0.999999999              -0.000029976               0.000134426               0.999999999              -0.000036340               0.000148852               0.999999999              -0.000043241               0.000164262               0.999999999              -0.000050622               0.000180443               0.999999999              -0.000058459               0.000197288               0.999999999               0.000002449               0.000057837               0.999999999               0.000003961               0.000053398               0.999999999               0.000003386               0.000054713               0.999999999               0.000002172               0.000058687               0.999999999               0.000000170               0.000064622               0.999999999              -0.000002645               0.000072274               0.999999999              -0.000005918               0.000081382               0.999999999              -0.000009397               0.000091772               0.999999999              -0.000013111               0.000103323               0.999999999              -0.000017440               0.000116158               0.999999999              -0.000022507               0.000130510               0.999999999              -0.000028264               0.000146049               0.999999999              -0.000034671               0.000162685               0.999999999              -0.000041718               0.000180470               0.999999999              -0.000049243               0.000199333               0.999999999              -0.000057239               0.000219038               0.999999999              -0.000065647               0.000239378               0.999999999               0.000001836               0.000063354               0.999999999               0.000004116               0.000059146               0.999999999               0.000003908               0.000059912               0.999999999               0.000002893               0.000063349               0.999999999               0.000001207               0.000068688               0.999999999              -0.000001181               0.000075715               0.999999999              -0.000004026               0.000084281               0.999999999              -0.000007200               0.000094149               0.999999999              -0.000010423               0.000105155               0.999999999              -0.000013772               0.000117314               0.999999999              -0.000017687               0.000130716               0.999999999              -0.000022225               0.000145261               0.999999999              -0.000027176               0.000160781               0.999999999              -0.000032637               0.000177298               0.999999999              -0.000038628               0.000194928               0.999999999              -0.000044998               0.000213557               0.999999999              -0.000051756               0.000233246               0.999999999               0.000001287               0.000068310               0.999999999               0.000004104               0.000064655               0.999999999               0.000004260               0.000065133               0.999999999               0.000003502               0.000068158               0.999999999               0.000002121               0.000072963               0.999999999               0.000000142               0.000079418               0.999999999              -0.000002317               0.000087402               0.999999999              -0.000005133               0.000096773               0.999999999              -0.000007914               0.000107350               0.999999999              -0.000010648               0.000118925               0.999999999              -0.000013589               0.000131513               0.999999999              -0.000016966               0.000145160               0.999999999              -0.000020613               0.000159767               0.999999999              -0.000024622               0.000175285               0.999999999              -0.000029142               0.000191649               0.999999999              -0.000033955               0.000208978               0.999999999              -0.000039251               0.000227342               0.999999999               0.000000864               0.000072644               0.999999999               0.000003908               0.000069776               0.999999999               0.000004348               0.000070210               0.999999999               0.000003871               0.000072916               0.999999999               0.000002755               0.000077325               0.999999999               0.000001152               0.000083307               0.999999999              -0.000000913               0.000090774               0.999999999              -0.000003229               0.000099693               0.999999999              -0.000005614               0.000109829               0.999999999              -0.000007846               0.000120939               0.999999999              -0.000010038               0.000132858               0.999999999              -0.000012442               0.000145758               0.999999999              -0.000015060               0.000159610               0.999999999              -0.000017881               0.000174262               0.999999999              -0.000020951               0.000189703               0.999999999              -0.000024373               0.000205969               0.999999999              -0.000028075               0.000223108               0.999999999               0.000000589               0.000076336               0.999999999               0.000003480               0.000074343               0.999999999               0.000004119               0.000074886               0.999999999               0.000003881               0.000077414               0.999999999               0.000003003               0.000081580               0.999999999               0.000001739               0.000087241               0.999999999               0.000000221               0.000094353               0.999999999              -0.000001624               0.000102867               0.999999999              -0.000003560               0.000112535               0.999999999              -0.000005369               0.000123063               0.999999999              -0.000007050               0.000134500               0.999999999              -0.000008697               0.000146867               0.999999999              -0.000010497               0.000160136               0.999999999              -0.000012370               0.000174180               0.999999999              -0.000014318               0.000189016               0.999999999              -0.000016491               0.000204542               0.999999999              -0.000018715               0.000220806               0.999999999               0.000000365               0.000079259               0.999999999               0.000002834               0.000078165               0.999999999               0.000003557               0.000078936               0.999999999               0.000003441               0.000081422               0.999999999               0.000002811               0.000085459               0.999999999               0.000001951               0.000090961               0.999999999               0.000000822               0.000097781               0.999999999              -0.000000527               0.000105862               0.999999999              -0.000001942               0.000115068               0.999999999              -0.000003285               0.000125188               0.999999999              -0.000004528               0.000136297               0.999999999              -0.000005679               0.000148313               0.999999999              -0.000006865               0.000161160               0.999999999              -0.000008059               0.000174806               0.999999999              -0.000009238               0.000189177               0.999999999              -0.000010388               0.000204190               0.999999999              -0.000011477               0.000219868               0.999999999               0.000000192               0.000081409               0.999999999               0.000002019               0.000081061               0.999999999               0.000002623               0.000082069               0.999999999               0.000002574               0.000084639               0.999999999               0.000002209               0.000088648               0.999999999               0.000001653               0.000093989               0.999999999               0.000000880               0.000100600               0.999999999               0.000000079               0.000108404               0.999999999              -0.000000807               0.000117209               0.999999999              -0.000001730               0.000127061               0.999999999              -0.000002601               0.000137963               0.999999999              -0.000003360               0.000149695               0.999999999              -0.000004053               0.000162190               0.999999999              -0.000004734               0.000175504               0.999999999              -0.000005398               0.000189599               0.999999999              -0.000005948               0.000204352               0.999999999              -0.000006412               0.000219639               0.999999999               0.000000081               0.000082728               0.999999999               0.000001052               0.000082868               0.999999999               0.000001386               0.000084069               0.999999999               0.000001397               0.000086725               0.999999999               0.000001227               0.000090735               0.999999999               0.000000894               0.000096012               0.999999999               0.000000600               0.000102494               0.999999999               0.000000214               0.000110102               0.999999999              -0.000000240               0.000118711               0.999999999              -0.000000731               0.000128412               0.999999999              -0.000001170               0.000139092               0.999999999              -0.000001523               0.000150557               0.999999999              -0.000001846               0.000162875               0.999999999              -0.000002175               0.000176034               0.999999999              -0.000002469               0.000189939               0.999999999              -0.000002679               0.000204503               0.999999999              -0.000002861               0.000219556               0.999999999               0.000000000               0.000083146               0.999999999               0.000000000               0.000083469               0.999999999              -0.000000000               0.000084785               0.999999999              -0.000000000               0.000087453               0.999999999               0.000000000               0.000091444               0.999999999              -0.000000000               0.000096757               0.999999999              -0.000000000               0.000103160               0.999999999              -0.000000000               0.000110665               0.999999999              -0.000000000               0.000119258               0.999999999              -0.000000000               0.000128876               0.999999999              -0.000000000               0.000139450               0.999999999               0.000000000               0.000150874               0.999999999               0.000000000               0.000163135               0.999999999              -0.000000000               0.000176203               0.999999999              -0.000000000               0.000190045               0.999999999               0.000000000               0.000204541               0.999999999               0.000000000               0.000219503               0.999999999               0.000005746               0.000000000               0.999999999               0.000002456               0.000000000               0.999999999               0.000000868               0.000000000               0.999999999               0.000000082               0.000000000               0.999999999              -0.000000344               0.000000000               0.999999999              -0.000000472               0.000000000               0.999999999              -0.000000426              -0.000000000               0.999999999              -0.000000358               0.000000000               0.999999999              -0.000000318              -0.000000000               0.999999999              -0.000000327              -0.000000000               0.999999999              -0.000000404               0.000000000               0.999999999              -0.000000738               0.000000000               0.999999999              -0.000001472               0.000000000               0.999999999              -0.000002587               0.000000000               0.999999999              -0.000004138               0.000000000               0.999999999              -0.000006214               0.000000000               0.999999999              -0.000008857               0.000000000               0.999999999               0.000005652              -0.000008044               0.999999999               0.000002486              -0.000007442               0.999999999               0.000000956              -0.000007392               0.999999999               0.000000148              -0.000007659               0.999999999              -0.000000235              -0.000008104               0.999999999              -0.000000397              -0.000008589               0.999999999              -0.000000461              -0.000009262               0.999999999              -0.000000492              -0.000010073               0.999999999              -0.000000599              -0.000010977               0.999999999              -0.000000832              -0.000011868               0.999999999              -0.000001202              -0.000012890               0.999999999              -0.000001776              -0.000014209               0.999999999              -0.000002691              -0.000015686               0.999999999              -0.000004041              -0.000017386               0.999999999              -0.000005834              -0.000019339               0.999999999              -0.000008133              -0.000021524               0.999999999              -0.000010963              -0.000024014               0.999999999               0.000005472              -0.000016055               0.999999999               0.000002545              -0.000014754               0.999999999               0.000001154              -0.000014737               0.999999999               0.000000424              -0.000015277               0.999999999               0.000000031              -0.000016185               0.999999999              -0.000000247              -0.000017285               0.999999999              -0.000000521              -0.000018732               0.999999999              -0.000000928              -0.000020414               0.999999999              -0.000001509              -0.000022295               0.999999999              -0.000002210              -0.000024110               0.999999999              -0.000003128              -0.000026226               0.999999999              -0.000004365              -0.000028810               0.999999999              -0.000005967              -0.000031687               0.999999999              -0.000007943              -0.000034993               0.999999999              -0.000010314              -0.000038712               0.999999999              -0.000013155              -0.000042809               0.999999999              -0.000016442              -0.000047304               0.999999999               0.000005145              -0.000023910               0.999999999               0.000002627              -0.000021883               0.999999999               0.000001469              -0.000021882               0.999999999               0.000000826              -0.000022826               0.999999999               0.000000336              -0.000024271               0.999999999              -0.000000110              -0.000026113               0.999999999              -0.000000732              -0.000028487               0.999999999              -0.000001629              -0.000031219               0.999999999              -0.000002775              -0.000034149               0.999999999              -0.000004155              -0.000036982               0.999999999              -0.000005842              -0.000040266               0.999999999              -0.000007851              -0.000044152               0.999999999              -0.000010169              -0.000048442               0.999999999              -0.000012875              -0.000053289               0.999999999              -0.000016013              -0.000058654               0.999999999              -0.000019597              -0.000064528               0.999999999              -0.000023611              -0.000070893               0.999999999               0.000004655              -0.000031471               0.999999999               0.000002819              -0.000028788               0.999999999               0.000001870              -0.000028858               0.999999999               0.000001186              -0.000030254               0.999999999               0.000000613              -0.000032346               0.999999999              -0.000000143              -0.000035073               0.999999999              -0.000001218              -0.000038512               0.999999999              -0.000002629              -0.000042454               0.999999999              -0.000004397              -0.000046474               0.999999999              -0.000006429              -0.000050604               0.999999999              -0.000008838              -0.000055309               0.999999999              -0.000011620              -0.000060622               0.999999999              -0.000014859              -0.000066471               0.999999999              -0.000018601              -0.000072961               0.999999999              -0.000022748              -0.000080108               0.999999999              -0.000027364              -0.000087871               0.999999999              -0.000032408              -0.000096310               0.999999999               0.000004155              -0.000038727               0.999999999               0.000003051              -0.000035400               0.999999999               0.000002280              -0.000035656               0.999999999               0.000001558              -0.000037559               0.999999999               0.000000740              -0.000040381               0.999999999              -0.000000408              -0.000044172               0.999999999              -0.000002018              -0.000048781               0.999999999              -0.000004065              -0.000053929               0.999999999              -0.000006391              -0.000059330               0.999999999              -0.000009068              -0.000064950               0.999999999              -0.000012220              -0.000071400               0.999999999              -0.000015830              -0.000078588               0.999999999              -0.000019965              -0.000086467               0.999999999              -0.000024615              -0.000095056               0.999999999              -0.000029766              -0.000104406               0.999999999              -0.000035425              -0.000114530               0.999999999              -0.000041497              -0.000125409               0.999999999               0.000003632              -0.000045619               0.999999999               0.000003314              -0.000041707               0.999999999               0.000002708              -0.000042227               0.999999999               0.000001859              -0.000044741               0.999999999               0.000000723              -0.000048438               0.999999999              -0.000000946              -0.000053353               0.999999999              -0.000003192              -0.000059241               0.999999999              -0.000005818              -0.000065808               0.999999999              -0.000008795              -0.000072701               0.999999999              -0.000012086              -0.000080296               0.999999999              -0.000015823              -0.000088982               0.999999999              -0.000020119              -0.000098603               0.999999999              -0.000025039              -0.000108997               0.999999999              -0.000030558              -0.000120321               0.999999999              -0.000036638              -0.000132460               0.999999999              -0.000043209              -0.000145466               0.999999999              -0.000050224              -0.000159292               0.999999999               0.000003042              -0.000052008               0.999999999               0.000003639              -0.000047715               0.999999999               0.000003083              -0.000048585               0.999999999               0.000002054              -0.000051780               0.999999999               0.000000539              -0.000056514               0.999999999              -0.000001728              -0.000062710               0.999999999              -0.000004563              -0.000070037               0.999999999              -0.000007741              -0.000078218               0.999999999              -0.000011111              -0.000087272               0.999999999              -0.000014839              -0.000097289               0.999999999              -0.000019219              -0.000108666               0.999999999              -0.000024275              -0.000121087               0.999999999              -0.000029976              -0.000134426               0.999999999              -0.000036340              -0.000148852               0.999999999              -0.000043241              -0.000164262               0.999999999              -0.000050622              -0.000180443               0.999999999              -0.000058459              -0.000197288               0.999999999               0.000002449              -0.000057837               0.999999999               0.000003961              -0.000053398               0.999999999               0.000003386              -0.000054713               0.999999999               0.000002172              -0.000058687               0.999999999               0.000000170              -0.000064622               0.999999999              -0.000002645              -0.000072274               0.999999999              -0.000005918              -0.000081382               0.999999999              -0.000009397              -0.000091772               0.999999999              -0.000013111              -0.000103323               0.999999999              -0.000017440              -0.000116158               0.999999999              -0.000022507              -0.000130510               0.999999999              -0.000028264              -0.000146049               0.999999999              -0.000034671              -0.000162685               0.999999999              -0.000041718              -0.000180470               0.999999999              -0.000049243              -0.000199333               0.999999999              -0.000057239              -0.000219038               0.999999999              -0.000065647              -0.000239378               0.999999999               0.000001836              -0.000063354               0.999999999               0.000004116              -0.000059146               0.999999999               0.000003908              -0.000059912               0.999999999               0.000002893              -0.000063349               0.999999999               0.000001207              -0.000068688               0.999999999              -0.000001181              -0.000075715               0.999999999              -0.000004026              -0.000084281               0.999999999              -0.000007200              -0.000094149               0.999999999              -0.000010423              -0.000105155               0.999999999              -0.000013772              -0.000117314               0.999999999              -0.000017687              -0.000130716               0.999999999              -0.000022225              -0.000145261               0.999999999              -0.000027176              -0.000160781               0.999999999              -0.000032637              -0.000177298               0.999999999              -0.000038628              -0.000194928               0.999999999              -0.000044998              -0.000213557               0.999999999              -0.000051756              -0.000233246               0.999999999               0.000001287              -0.000068310               0.999999999               0.000004104              -0.000064655               0.999999999               0.000004260              -0.000065133               0.999999999               0.000003502              -0.000068158               0.999999999               0.000002121              -0.000072963               0.999999999               0.000000142              -0.000079418               0.999999999              -0.000002317              -0.000087402               0.999999999              -0.000005133              -0.000096773               0.999999999              -0.000007914              -0.000107350               0.999999999              -0.000010648              -0.000118925               0.999999999              -0.000013589              -0.000131513               0.999999999              -0.000016966              -0.000145160               0.999999999              -0.000020613              -0.000159767               0.999999999              -0.000024622              -0.000175285               0.999999999              -0.000029142              -0.000191649               0.999999999              -0.000033955              -0.000208978               0.999999999              -0.000039251              -0.000227342               0.999999999               0.000000864              -0.000072644               0.999999999               0.000003908              -0.000069776               0.999999999               0.000004348              -0.000070210               0.999999999               0.000003871              -0.000072916               0.999999999               0.000002755              -0.000077325               0.999999999               0.000001152              -0.000083307               0.999999999              -0.000000913              -0.000090774               0.999999999              -0.000003229              -0.000099693               0.999999999              -0.000005614              -0.000109829               0.999999999              -0.000007846              -0.000120939               0.999999999              -0.000010038              -0.000132858               0.999999999              -0.000012442              -0.000145758               0.999999999              -0.000015060              -0.000159610               0.999999999              -0.000017881              -0.000174262               0.999999999              -0.000020951              -0.000189703               0.999999999              -0.000024373              -0.000205969               0.999999999              -0.000028075              -0.000223108               0.999999999               0.000000589              -0.000076336               0.999999999               0.000003480              -0.000074343               0.999999999               0.000004119              -0.000074886               0.999999999               0.000003881              -0.000077414               0.999999999               0.000003003              -0.000081580               0.999999999               0.000001739              -0.000087241               0.999999999               0.000000221              -0.000094353               0.999999999              -0.000001624              -0.000102867               0.999999999              -0.000003560              -0.000112535               0.999999999              -0.000005369              -0.000123063               0.999999999              -0.000007050              -0.000134500               0.999999999              -0.000008697              -0.000146867               0.999999999              -0.000010497              -0.000160136               0.999999999              -0.000012370              -0.000174180               0.999999999              -0.000014318              -0.000189016               0.999999999              -0.000016491              -0.000204542               0.999999999              -0.000018715              -0.000220806               0.999999999               0.000000365              -0.000079259               0.999999999               0.000002834              -0.000078165               0.999999999               0.000003557              -0.000078936               0.999999999               0.000003441              -0.000081422               0.999999999               0.000002811              -0.000085459               0.999999999               0.000001951              -0.000090961               0.999999999               0.000000822              -0.000097781               0.999999999              -0.000000527              -0.000105862               0.999999999              -0.000001942              -0.000115068               0.999999999              -0.000003285              -0.000125188               0.999999999              -0.000004528              -0.000136297               0.999999999              -0.000005679              -0.000148313               0.999999999              -0.000006865              -0.000161160               0.999999999              -0.000008059              -0.000174806               0.999999999              -0.000009238              -0.000189177               0.999999999              -0.000010388              -0.000204190               0.999999999              -0.000011477              -0.000219868               0.999999999               0.000000192              -0.000081409               0.999999999               0.000002019              -0.000081061               0.999999999               0.000002623              -0.000082069               0.999999999               0.000002574              -0.000084639               0.999999999               0.000002209              -0.000088648               0.999999999               0.000001653              -0.000093989               0.999999999               0.000000880              -0.000100600               0.999999999               0.000000079              -0.000108404               0.999999999              -0.000000807              -0.000117209               0.999999999              -0.000001730              -0.000127061               0.999999999              -0.000002601              -0.000137963               0.999999999              -0.000003360              -0.000149695               0.999999999              -0.000004053              -0.000162190               0.999999999              -0.000004734              -0.000175504               0.999999999              -0.000005398              -0.000189599               0.999999999              -0.000005948              -0.000204352               0.999999999              -0.000006412              -0.000219639               0.999999999               0.000000081              -0.000082728               0.999999999               0.000001052              -0.000082868               0.999999999               0.000001386              -0.000084069               0.999999999               0.000001397              -0.000086725               0.999999999               0.000001227              -0.000090735               0.999999999               0.000000894              -0.000096012               0.999999999               0.000000600              -0.000102494               0.999999999               0.000000214              -0.000110102               0.999999999              -0.000000240              -0.000118711               0.999999999              -0.000000731              -0.000128412               0.999999999              -0.000001170              -0.000139092               0.999999999              -0.000001523              -0.000150557               0.999999999              -0.000001846              -0.000162875               0.999999999              -0.000002175              -0.000176034               0.999999999              -0.000002469              -0.000189939               0.999999999              -0.000002679              -0.000204503               0.999999999              -0.000002861              -0.000219556               0.999999999              -0.000000000              -0.000083146               0.999999999               0.000000000              -0.000083469               0.999999999              -0.000000000              -0.000084785               0.999999999              -0.000000000              -0.000087453               0.999999999               0.000000000              -0.000091444               0.999999999              -0.000000000              -0.000096757               0.999999999              -0.000000000              -0.000103160               0.999999999               0.000000000              -0.000110665               0.999999999               0.000000000              -0.000119258               0.999999999              -0.000000000              -0.000128876               0.999999999              -0.000000000              -0.000139450               0.999999999              -0.000000000              -0.000150874               0.999999999              -0.000000000              -0.000163135               0.999999999              -0.000000000              -0.000176203               0.999999999              -0.000000000              -0.000190045               0.999999999               0.000000000              -0.000204541               0.999999999               0.000000000              -0.000219503               0.999999999              -0.000005746              -0.000000000               0.999999999              -0.000002456               0.000000000               0.999999999              -0.000000868               0.000000000               0.999999999              -0.000000082               0.000000000               0.999999999               0.000000344               0.000000000               0.999999999               0.000000472              -0.000000000               0.999999999               0.000000426              -0.000000000               0.999999999               0.000000358              -0.000000000               0.999999999               0.000000318              -0.000000000               0.999999999               0.000000327              -0.000000000               0.999999999               0.000000404               0.000000000               0.999999999               0.000000738               0.000000000               0.999999999               0.000001472               0.000000000               0.999999999               0.000002587               0.000000000               0.999999999               0.000004138               0.000000000               0.999999999               0.000006214              -0.000000000               0.999999999               0.000008857              -0.000000000               0.999999999              -0.000005652              -0.000008044               0.999999999              -0.000002486              -0.000007442               0.999999999              -0.000000956              -0.000007392               0.999999999              -0.000000148              -0.000007659               0.999999999               0.000000235              -0.000008104               0.999999999               0.000000397              -0.000008589               0.999999999               0.000000461              -0.000009262               0.999999999               0.000000492              -0.000010073               0.999999999               0.000000599              -0.000010977               0.999999999               0.000000832              -0.000011868               0.999999999               0.000001202              -0.000012890               0.999999999               0.000001776              -0.000014209               0.999999999               0.000002691              -0.000015686               0.999999999               0.000004041              -0.000017386               0.999999999               0.000005834              -0.000019339               0.999999999               0.000008133              -0.000021524               0.999999999               0.000010963              -0.000024014               0.999999999              -0.000005472              -0.000016055               0.999999999              -0.000002545              -0.000014754               0.999999999              -0.000001154              -0.000014737               0.999999999              -0.000000424              -0.000015277               0.999999999              -0.000000031              -0.000016185               0.999999999               0.000000247              -0.000017285               0.999999999               0.000000521              -0.000018732               0.999999999               0.000000928              -0.000020414               0.999999999               0.000001509              -0.000022295               0.999999999               0.000002210              -0.000024110               0.999999999               0.000003128              -0.000026226               0.999999999               0.000004365              -0.000028810               0.999999999               0.000005967              -0.000031687               0.999999999               0.000007943              -0.000034993               0.999999999               0.000010314              -0.000038712               0.999999999               0.000013155              -0.000042809               0.999999999               0.000016442              -0.000047304               0.999999999              -0.000005145              -0.000023910               0.999999999              -0.000002627              -0.000021883               0.999999999              -0.000001469              -0.000021882               0.999999999              -0.000000826              -0.000022826               0.999999999              -0.000000336              -0.000024271               0.999999999               0.000000110              -0.000026113               0.999999999               0.000000732              -0.000028487               0.999999999               0.000001629              -0.000031219               0.999999999               0.000002775              -0.000034149               0.999999999               0.000004155              -0.000036982               0.999999999               0.000005842              -0.000040266               0.999999999               0.000007851              -0.000044152               0.999999999               0.000010169              -0.000048442               0.999999999               0.000012875              -0.000053289               0.999999999               0.000016013              -0.000058654               0.999999999               0.000019597              -0.000064528               0.999999999               0.000023611              -0.000070893               0.999999999              -0.000004655              -0.000031471               0.999999999              -0.000002819              -0.000028788               0.999999999              -0.000001870              -0.000028858               0.999999999              -0.000001186              -0.000030254               0.999999999              -0.000000613              -0.000032346               0.999999999               0.000000143              -0.000035073               0.999999999               0.000001218              -0.000038512               0.999999999               0.000002629              -0.000042454               0.999999999               0.000004397              -0.000046474               0.999999999               0.000006429              -0.000050604               0.999999999               0.000008838              -0.000055309               0.999999999               0.000011620              -0.000060622               0.999999999               0.000014859              -0.000066471               0.999999999               0.000018601              -0.000072961               0.999999999               0.000022748              -0.000080108               0.999999999               0.000027364              -0.000087871               0.999999999               0.000032408              -0.000096310               0.999999999              -0.000004155              -0.000038727               0.999999999              -0.000003051              -0.000035400               0.999999999              -0.000002280              -0.000035656               0.999999999              -0.000001558              -0.000037559               0.999999999              -0.000000740              -0.000040381               0.999999999               0.000000408              -0.000044172               0.999999999               0.000002018              -0.000048781               0.999999999               0.000004065              -0.000053929               0.999999999               0.000006391              -0.000059330               0.999999999               0.000009068              -0.000064950               0.999999999               0.000012220              -0.000071400               0.999999999               0.000015830              -0.000078588               0.999999999               0.000019965              -0.000086467               0.999999999               0.000024615              -0.000095056               0.999999999               0.000029766              -0.000104406               0.999999999               0.000035425              -0.000114530               0.999999999               0.000041497              -0.000125409               0.999999999              -0.000003632              -0.000045619               0.999999999              -0.000003314              -0.000041707               0.999999999              -0.000002708              -0.000042227               0.999999999              -0.000001859              -0.000044741               0.999999999              -0.000000723              -0.000048438               0.999999999               0.000000946              -0.000053353               0.999999999               0.000003192              -0.000059241               0.999999999               0.000005818              -0.000065808               0.999999999               0.000008795              -0.000072701               0.999999999               0.000012086              -0.000080296               0.999999999               0.000015823              -0.000088982               0.999999999               0.000020119              -0.000098603               0.999999999               0.000025039              -0.000108997               0.999999999               0.000030558              -0.000120321               0.999999999               0.000036638              -0.000132460               0.999999999               0.000043209              -0.000145466               0.999999999               0.000050224              -0.000159292               0.999999999              -0.000003042              -0.000052008               0.999999999              -0.000003639              -0.000047715               0.999999999              -0.000003083              -0.000048585               0.999999999              -0.000002054              -0.000051780               0.999999999              -0.000000539              -0.000056514               0.999999999               0.000001728              -0.000062710               0.999999999               0.000004563              -0.000070037               0.999999999               0.000007741              -0.000078218               0.999999999               0.000011111              -0.000087272               0.999999999               0.000014839              -0.000097289               0.999999999               0.000019219              -0.000108666               0.999999999               0.000024275              -0.000121087               0.999999999               0.000029976              -0.000134426               0.999999999               0.000036340              -0.000148852               0.999999999               0.000043241              -0.000164262               0.999999999               0.000050622              -0.000180443               0.999999999               0.000058459              -0.000197288               0.999999999              -0.000002449              -0.000057837               0.999999999              -0.000003961              -0.000053398               0.999999999              -0.000003386              -0.000054713               0.999999999              -0.000002172              -0.000058687               0.999999999              -0.000000170              -0.000064622               0.999999999               0.000002645              -0.000072274               0.999999999               0.000005918              -0.000081382               0.999999999               0.000009397              -0.000091772               0.999999999               0.000013111              -0.000103323               0.999999999               0.000017440              -0.000116158               0.999999999               0.000022507              -0.000130510               0.999999999               0.000028264              -0.000146049               0.999999999               0.000034671              -0.000162685               0.999999999               0.000041718              -0.000180470               0.999999999               0.000049243              -0.000199333               0.999999999               0.000057239              -0.000219038               0.999999999               0.000065647              -0.000239378               0.999999999              -0.000001836              -0.000063354               0.999999999              -0.000004116              -0.000059146               0.999999999              -0.000003908              -0.000059912               0.999999999              -0.000002893              -0.000063349               0.999999999              -0.000001207              -0.000068688               0.999999999               0.000001181              -0.000075715               0.999999999               0.000004026              -0.000084281               0.999999999               0.000007200              -0.000094149               0.999999999               0.000010423              -0.000105155               0.999999999               0.000013772              -0.000117314               0.999999999               0.000017687              -0.000130716               0.999999999               0.000022225              -0.000145261               0.999999999               0.000027176              -0.000160781               0.999999999               0.000032637              -0.000177298               0.999999999               0.000038628              -0.000194928               0.999999999               0.000044998              -0.000213557               0.999999999               0.000051756              -0.000233246               0.999999999              -0.000001287              -0.000068310               0.999999999              -0.000004104              -0.000064655               0.999999999              -0.000004260              -0.000065133               0.999999999              -0.000003502              -0.000068158               0.999999999              -0.000002121              -0.000072963               0.999999999              -0.000000142              -0.000079418               0.999999999               0.000002317              -0.000087402               0.999999999               0.000005133              -0.000096773               0.999999999               0.000007914              -0.000107350               0.999999999               0.000010648              -0.000118925               0.999999999               0.000013589              -0.000131513               0.999999999               0.000016966              -0.000145160               0.999999999               0.000020613              -0.000159767               0.999999999               0.000024622              -0.000175285               0.999999999               0.000029142              -0.000191649               0.999999999               0.000033955              -0.000208978               0.999999999               0.000039251              -0.000227342               0.999999999              -0.000000864              -0.000072644               0.999999999              -0.000003908              -0.000069776               0.999999999              -0.000004348              -0.000070210               0.999999999              -0.000003871              -0.000072916               0.999999999              -0.000002755              -0.000077325               0.999999999              -0.000001152              -0.000083307               0.999999999               0.000000913              -0.000090774               0.999999999               0.000003229              -0.000099693               0.999999999               0.000005614              -0.000109829               0.999999999               0.000007846              -0.000120939               0.999999999               0.000010038              -0.000132858               0.999999999               0.000012442              -0.000145758               0.999999999               0.000015060              -0.000159610               0.999999999               0.000017881              -0.000174262               0.999999999               0.000020951              -0.000189703               0.999999999               0.000024373              -0.000205969               0.999999999               0.000028075              -0.000223108               0.999999999              -0.000000589              -0.000076336               0.999999999              -0.000003480              -0.000074343               0.999999999              -0.000004119              -0.000074886               0.999999999              -0.000003881              -0.000077414               0.999999999              -0.000003003              -0.000081580               0.999999999              -0.000001739              -0.000087241               0.999999999              -0.000000221              -0.000094353               0.999999999               0.000001624              -0.000102867               0.999999999               0.000003560              -0.000112535               0.999999999               0.000005369              -0.000123063               0.999999999               0.000007050              -0.000134500               0.999999999               0.000008697              -0.000146867               0.999999999               0.000010497              -0.000160136               0.999999999               0.000012370              -0.000174180               0.999999999               0.000014318              -0.000189016               0.999999999               0.000016491              -0.000204542               0.999999999               0.000018715              -0.000220806               0.999999999              -0.000000365              -0.000079259               0.999999999              -0.000002834              -0.000078165               0.999999999              -0.000003557              -0.000078936               0.999999999              -0.000003441              -0.000081422               0.999999999              -0.000002811              -0.000085459               0.999999999              -0.000001951              -0.000090961               0.999999999              -0.000000822              -0.000097781               0.999999999               0.000000527              -0.000105862               0.999999999               0.000001942              -0.000115068               0.999999999               0.000003285              -0.000125188               0.999999999               0.000004528              -0.000136297               0.999999999               0.000005679              -0.000148313               0.999999999               0.000006865              -0.000161160               0.999999999               0.000008059              -0.000174806               0.999999999               0.000009238              -0.000189177               0.999999999               0.000010388              -0.000204190               0.999999999               0.000011477              -0.000219868               0.999999999              -0.000000192              -0.000081409               0.999999999              -0.000002019              -0.000081061               0.999999999              -0.000002623              -0.000082069               0.999999999              -0.000002574              -0.000084639               0.999999999              -0.000002209              -0.000088648               0.999999999              -0.000001653              -0.000093989               0.999999999              -0.000000880              -0.000100600               0.999999999              -0.000000079              -0.000108404               0.999999999               0.000000807              -0.000117209               0.999999999               0.000001730              -0.000127061               0.999999999               0.000002601              -0.000137963               0.999999999               0.000003360              -0.000149695               0.999999999               0.000004053              -0.000162190               0.999999999               0.000004734              -0.000175504               0.999999999               0.000005398              -0.000189599               0.999999999               0.000005948              -0.000204352               0.999999999               0.000006412              -0.000219639               0.999999999              -0.000000081              -0.000082728               0.999999999              -0.000001052              -0.000082868               0.999999999              -0.000001386              -0.000084069               0.999999999              -0.000001397              -0.000086725               0.999999999              -0.000001227              -0.000090735               0.999999999              -0.000000894              -0.000096012               0.999999999              -0.000000600              -0.000102494               0.999999999              -0.000000214              -0.000110102               0.999999999               0.000000240              -0.000118711               0.999999999               0.000000731              -0.000128412               0.999999999               0.000001170              -0.000139092               0.999999999               0.000001523              -0.000150557               0.999999999               0.000001846              -0.000162875               0.999999999               0.000002175              -0.000176034               0.999999999               0.000002469              -0.000189939               0.999999999               0.000002679              -0.000204503               0.999999999               0.000002861              -0.000219556               0.999999999              -0.000000000              -0.000083146               0.999999999               0.000000000              -0.000083469               0.999999999              -0.000000000              -0.000084785               0.999999999              -0.000000000              -0.000087453               0.999999999               0.000000000              -0.000091444               0.999999999              -0.000000000              -0.000096757               0.999999999              -0.000000000              -0.000103160               0.999999999               0.000000000              -0.000110665               0.999999999               0.000000000              -0.000119258               0.999999999              -0.000000000              -0.000128876               0.999999999              -0.000000000              -0.000139450               0.999999999              -0.000000000              -0.000150874               0.999999999              -0.000000000              -0.000163135               0.999999999              -0.000000000              -0.000176203               0.999999999              -0.000000000              -0.000190045               0.999999999               0.000000000              -0.000204541               0.999999999               0.000000000              -0.000219503               0.999999999              -0.000005746              -0.000000000               0.999999999              -0.000002456               0.000000000               0.999999999              -0.000000868               0.000000000               0.999999999              -0.000000082               0.000000000               0.999999999               0.000000344               0.000000000               0.999999999               0.000000472              -0.000000000               0.999999999               0.000000426              -0.000000000               0.999999999               0.000000358              -0.000000000               0.999999999               0.000000318              -0.000000000               0.999999999               0.000000327              -0.000000000               0.999999999               0.000000404               0.000000000               0.999999999               0.000000738               0.000000000               0.999999999               0.000001472               0.000000000               0.999999999               0.000002587               0.000000000               0.999999999               0.000004138               0.000000000               0.999999999               0.000006214              -0.000000000               0.999999999               0.000008857              -0.000000000               0.999999999              -0.000005652               0.000008044               0.999999999              -0.000002486               0.000007442               0.999999999              -0.000000956               0.000007392               0.999999999              -0.000000148               0.000007659               0.999999999               0.000000235               0.000008104               0.999999999               0.000000397               0.000008589               0.999999999               0.000000461               0.000009262               0.999999999               0.000000492               0.000010073               0.999999999               0.000000599               0.000010977               0.999999999               0.000000832               0.000011868               0.999999999               0.000001202               0.000012890               0.999999999               0.000001776               0.000014209               0.999999999               0.000002691               0.000015686               0.999999999               0.000004041               0.000017386               0.999999999               0.000005834               0.000019339               0.999999999               0.000008133               0.000021524               0.999999999               0.000010963               0.000024014               0.999999999              -0.000005472               0.000016055               0.999999999              -0.000002545               0.000014754               0.999999999              -0.000001154               0.000014737               0.999999999              -0.000000424               0.000015277               0.999999999              -0.000000031               0.000016185               0.999999999               0.000000247               0.000017285               0.999999999               0.000000521               0.000018732               0.999999999               0.000000928               0.000020414               0.999999999               0.000001509               0.000022295               0.999999999               0.000002210               0.000024110               0.999999999               0.000003128               0.000026226               0.999999999               0.000004365               0.000028810               0.999999999               0.000005967               0.000031687               0.999999999               0.000007943               0.000034993               0.999999999               0.000010314               0.000038712               0.999999999               0.000013155               0.000042809               0.999999999               0.000016442               0.000047304               0.999999999              -0.000005145               0.000023910               0.999999999              -0.000002627               0.000021883               0.999999999              -0.000001469               0.000021882               0.999999999              -0.000000826               0.000022826               0.999999999              -0.000000336               0.000024271               0.999999999               0.000000110               0.000026113               0.999999999               0.000000732               0.000028487               0.999999999               0.000001629               0.000031219               0.999999999               0.000002775               0.000034149               0.999999999               0.000004155               0.000036982               0.999999999               0.000005842               0.000040266               0.999999999               0.000007851               0.000044152               0.999999999               0.000010169               0.000048442               0.999999999               0.000012875               0.000053289               0.999999999               0.000016013               0.000058654               0.999999999               0.000019597               0.000064528               0.999999999               0.000023611               0.000070893               0.999999999              -0.000004655               0.000031471               0.999999999              -0.000002819               0.000028788               0.999999999              -0.000001870               0.000028858               0.999999999              -0.000001186               0.000030254               0.999999999              -0.000000613               0.000032346               0.999999999               0.000000143               0.000035073               0.999999999               0.000001218               0.000038512               0.999999999               0.000002629               0.000042454               0.999999999               0.000004397               0.000046474               0.999999999               0.000006429               0.000050604               0.999999999               0.000008838               0.000055309               0.999999999               0.000011620               0.000060622               0.999999999               0.000014859               0.000066471               0.999999999               0.000018601               0.000072961               0.999999999               0.000022748               0.000080108               0.999999999               0.000027364               0.000087871               0.999999999               0.000032408               0.000096310               0.999999999              -0.000004155               0.000038727               0.999999999              -0.000003051               0.000035400               0.999999999              -0.000002280               0.000035656               0.999999999              -0.000001558               0.000037559               0.999999999              -0.000000740               0.000040381               0.999999999               0.000000408               0.000044172               0.999999999               0.000002018               0.000048781               0.999999999               0.000004065               0.000053929               0.999999999               0.000006391               0.000059330               0.999999999               0.000009068               0.000064950               0.999999999               0.000012220               0.000071400               0.999999999               0.000015830               0.000078588               0.999999999               0.000019965               0.000086467               0.999999999               0.000024615               0.000095056               0.999999999               0.000029766               0.000104406               0.999999999               0.000035425               0.000114530               0.999999999               0.000041497               0.000125409               0.999999999              -0.000003632               0.000045619               0.999999999              -0.000003314               0.000041707               0.999999999              -0.000002708               0.000042227               0.999999999              -0.000001859               0.000044741               0.999999999              -0.000000723               0.000048438               0.999999999               0.000000946               0.000053353               0.999999999               0.000003192               0.000059241               0.999999999               0.000005818               0.000065808               0.999999999               0.000008795               0.000072701               0.999999999               0.000012086               0.000080296               0.999999999               0.000015823               0.000088982               0.999999999               0.000020119               0.000098603               0.999999999               0.000025039               0.000108997               0.999999999               0.000030558               0.000120321               0.999999999               0.000036638               0.000132460               0.999999999               0.000043209               0.000145466               0.999999999               0.000050224               0.000159292               0.999999999              -0.000003042               0.000052008               0.999999999              -0.000003639               0.000047715               0.999999999              -0.000003083               0.000048585               0.999999999              -0.000002054               0.000051780               0.999999999              -0.000000539               0.000056514               0.999999999               0.000001728               0.000062710               0.999999999               0.000004563               0.000070037               0.999999999               0.000007741               0.000078218               0.999999999               0.000011111               0.000087272               0.999999999               0.000014839               0.000097289               0.999999999               0.000019219               0.000108666               0.999999999               0.000024275               0.000121087               0.999999999               0.000029976               0.000134426               0.999999999               0.000036340               0.000148852               0.999999999               0.000043241               0.000164262               0.999999999               0.000050622               0.000180443               0.999999999               0.000058459               0.000197288               0.999999999              -0.000002449               0.000057837               0.999999999              -0.000003961               0.000053398               0.999999999              -0.000003386               0.000054713               0.999999999              -0.000002172               0.000058687               0.999999999              -0.000000170               0.000064622               0.999999999               0.000002645               0.000072274               0.999999999               0.000005918               0.000081382               0.999999999               0.000009397               0.000091772               0.999999999               0.000013111               0.000103323               0.999999999               0.000017440               0.000116158               0.999999999               0.000022507               0.000130510               0.999999999               0.000028264               0.000146049               0.999999999               0.000034671               0.000162685               0.999999999               0.000041718               0.000180470               0.999999999               0.000049243               0.000199333               0.999999999               0.000057239               0.000219038               0.999999999               0.000065647               0.000239378               0.999999999              -0.000001836               0.000063354               0.999999999              -0.000004116               0.000059146               0.999999999              -0.000003908               0.000059912               0.999999999              -0.000002893               0.000063349               0.999999999              -0.000001207               0.000068688               0.999999999               0.000001181               0.000075715               0.999999999               0.000004026               0.000084281               0.999999999               0.000007200               0.000094149               0.999999999               0.000010423               0.000105155               0.999999999               0.000013772               0.000117314               0.999999999               0.000017687               0.000130716               0.999999999               0.000022225               0.000145261               0.999999999               0.000027176               0.000160781               0.999999999               0.000032637               0.000177298               0.999999999               0.000038628               0.000194928               0.999999999               0.000044998               0.000213557               0.999999999               0.000051756               0.000233246               0.999999999              -0.000001287               0.000068310               0.999999999              -0.000004104               0.000064655               0.999999999              -0.000004260               0.000065133               0.999999999              -0.000003502               0.000068158               0.999999999              -0.000002121               0.000072963               0.999999999              -0.000000142               0.000079418               0.999999999               0.000002317               0.000087402               0.999999999               0.000005133               0.000096773               0.999999999               0.000007914               0.000107350               0.999999999               0.000010648               0.000118925               0.999999999               0.000013589               0.000131513               0.999999999               0.000016966               0.000145160               0.999999999               0.000020613               0.000159767               0.999999999               0.000024622               0.000175285               0.999999999               0.000029142               0.000191649               0.999999999               0.000033955               0.000208978               0.999999999               0.000039251               0.000227342               0.999999999              -0.000000864               0.000072644               0.999999999              -0.000003908               0.000069776               0.999999999              -0.000004348               0.000070210               0.999999999              -0.000003871               0.000072916               0.999999999              -0.000002755               0.000077325               0.999999999              -0.000001152               0.000083307               0.999999999               0.000000913               0.000090774               0.999999999               0.000003229               0.000099693               0.999999999               0.000005614               0.000109829               0.999999999               0.000007846               0.000120939               0.999999999               0.000010038               0.000132858               0.999999999               0.000012442               0.000145758               0.999999999               0.000015060               0.000159610               0.999999999               0.000017881               0.000174262               0.999999999               0.000020951               0.000189703               0.999999999               0.000024373               0.000205969               0.999999999               0.000028075               0.000223108               0.999999999              -0.000000589               0.000076336               0.999999999              -0.000003480               0.000074343               0.999999999              -0.000004119               0.000074886               0.999999999              -0.000003881               0.000077414               0.999999999              -0.000003003               0.000081580               0.999999999              -0.000001739               0.000087241               0.999999999              -0.000000221               0.000094353               0.999999999               0.000001624               0.000102867               0.999999999               0.000003560               0.000112535               0.999999999               0.000005369               0.000123063               0.999999999               0.000007050               0.000134500               0.999999999               0.000008697               0.000146867               0.999999999               0.000010497               0.000160136               0.999999999               0.000012370               0.000174180               0.999999999               0.000014318               0.000189016               0.999999999               0.000016491               0.000204542               0.999999999               0.000018715               0.000220806               0.999999999              -0.000000365               0.000079259               0.999999999              -0.000002834               0.000078165               0.999999999              -0.000003557               0.000078936               0.999999999              -0.000003441               0.000081422               0.999999999              -0.000002811               0.000085459               0.999999999              -0.000001951               0.000090961               0.999999999              -0.000000822               0.000097781               0.999999999               0.000000527               0.000105862               0.999999999               0.000001942               0.000115068               0.999999999               0.000003285               0.000125188               0.999999999               0.000004528               0.000136297               0.999999999               0.000005679               0.000148313               0.999999999               0.000006865               0.000161160               0.999999999               0.000008059               0.000174806               0.999999999               0.000009238               0.000189177               0.999999999               0.000010388               0.000204190               0.999999999               0.000011477               0.000219868               0.999999999              -0.000000192               0.000081409               0.999999999              -0.000002019               0.000081061               0.999999999              -0.000002623               0.000082069               0.999999999              -0.000002574               0.000084639               0.999999999              -0.000002209               0.000088648               0.999999999              -0.000001653               0.000093989               0.999999999              -0.000000880               0.000100600               0.999999999              -0.000000079               0.000108404               0.999999999               0.000000807               0.000117209               0.999999999               0.000001730               0.000127061               0.999999999               0.000002601               0.000137963               0.999999999               0.000003360               0.000149695               0.999999999               0.000004053               0.000162190               0.999999999               0.000004734               0.000175504               0.999999999               0.000005398               0.000189599               0.999999999               0.000005948               0.000204352               0.999999999               0.000006412               0.000219639               0.999999999              -0.000000081               0.000082728               0.999999999              -0.000001052               0.000082868               0.999999999              -0.000001386               0.000084069               0.999999999              -0.000001397               0.000086725               0.999999999              -0.000001227               0.000090735               0.999999999              -0.000000894               0.000096012               0.999999999              -0.000000600               0.000102494               0.999999999              -0.000000214               0.000110102               0.999999999               0.000000240               0.000118711               0.999999999               0.000000731               0.000128412               0.999999999               0.000001170               0.000139092               0.999999999               0.000001523               0.000150557               0.999999999               0.000001846               0.000162875               0.999999999               0.000002175               0.000176034               0.999999999               0.000002469               0.000189939               0.999999999               0.000002679               0.000204503               0.999999999               0.000002861               0.000219556               0.999999999               0.000000000               0.000083146               0.999999999               0.000000000               0.000083469               0.999999999              -0.000000000               0.000084785               0.999999999              -0.000000000               0.000087453               0.999999999               0.000000000               0.000091444               0.999999999              -0.000000000               0.000096757               0.999999999              -0.000000000               0.000103160               0.999999999              -0.000000000               0.000110665               0.999999999              -0.000000000               0.000119258               0.999999999              -0.000000000               0.000128876               0.999999999              -0.000000000               0.000139450               0.999999999               0.000000000               0.000150874               0.999999999               0.000000000               0.000163135               0.999999999              -0.000000000               0.000176203               0.999999999              -0.000000000               0.000190045               0.999999999               0.000000000               0.000204541               0.999999999               0.000000000               0.000219503               0.999999999 </DataArray>
<DataArray type="Float64"                                    Name="defo"                                                      NumberOfComponents=" 3" format="ascii">
              0.000005746               0.000000000               0.999999999               0.000002456               0.000000000               0.999999999               0.000000868               0.000000000               0.999999999               0.000000082               0.000000000               0.999999999              -0.000000344               0.000000000               0.999999999              -0.000000472               0.000000000               0.999999999              -0.000000426              -0.000000000               0.999999999              -0.000000358               0.000000000               0.999999999              -0.000000318              -0.000000000               0.999999999              -0.000000327              -0.000000000               0.999999999              -0.000000404               0.000000000               0.999999999              -0.000000738               0.000000000               0.999999999              -0.000001472               0.000000000               0.999999999              -0.000002587               0.000000000               0.999999999              -0.000004138               0.000000000               0.999999999              -0.000006214               0.000000000               0.999999999              -0.000008857               0.000000000               0.999999999               0.000005652               0.000008044               0.999999999               0.000002486               0.000007442               0.999999999               0.000000956               0.000007392               0.999999999               0.000000148               0.000007659               0.999999999              -0.000000235               0.000008104               0.999999999              -0.000000397               0.000008589               0.999999999              -0.000000461               0.000009262               0.999999999              -0.000000492               0.000010073               0.999999999              -0.000000599               0.000010977               0.999999999              -0.000000832               0.000011868               0.999999999              -0.000001202               0.000012890               0.999999999              -0.000001776               0.000014209               0.999999999              -0.000002691               0.000015686               0.999999999              -0.000004041               0.000017386               0.999999999              -0.000005834               0.000019339               0.999999999              -0.000008133               0.000021524               0.999999999              -0.000010963               0.000024014               0.999999999               0.000005472               0.000016055               0.999999999               0.000002545               0.000014754               0.999999999               0.000001154               0.000014737               0.999999999               0.000000424               0.000015277               0.999999999               0.000000031               0.000016185               0.999999999              -0.000000247               0.000017285               0.999999999              -0.000000521               0.000018732               0.999999999              -0.000000928               0.000020414               0.999999999              -0.000001509               0.000022295               0.999999999              -0.000002210               0.000024110               0.999999999              -0.000003128               0.000026226               0.999999999              -0.000004365               0.000028810               0.999999999              -0.000005967               0.000031687               0.999999999              -0.000007943               0.000034993               0.999999999              -0.000010314               0.000038712               0.999999999              -0.000013155               0.000042809               0.999999999              -0.000016442               0.000047304               0.999999999               0.000005145               0.000023910               0.999999999               0.000002627               0.000021883               0.999999999               0.000001469               0.000021882               0.999999999               0.000000826               0.000022826               0.999999999               0.000000336               0.000024271               0.999999999              -0.000000110               0.000026113               0.999999999              -0.000000732               0.000028487               0.999999999              -0.000001629               0.000031219               0.999999999              -0.000002775               0.000034149               0.999999999              -0.000004155               0.000036982               0.999999999              -0.000005842               0.000040266               0.999999999              -0.000007851               0.000044152               0.999999999              -0.000010169               0.000048442               0.999999999              -0.000012875               0.000053289               0.999999999              -0.000016013               0.000058654               0.999999999              -0.000019597               0.000064528               0.999999999              -0.000023611               0.000070893               0.999999999               0.000004655               0.000031471               0.999999999               0.000002819               0.000028788               0.999999999               0.000001870               0.000028858               0.999999999               0.000001186               0.000030254               0.999999999               0.000000613               0.000032346               0.999999999              -0.000000143               0.000035073               0.999999999              -0.000001218               0.000038512               0.999999999              -0.000002629               0.000042454               0.999999999              -0.000004397               0.000046474               0.999999999              -0.000006429               0.000050604               0.999999999              -0.000008838               0.000055309               0.999999999              -0.000011620               0.000060622               0.999999999              -0.000014859               0.000066471               0.999999999              -0.000018601               0.000072961               0.999999999              -0.000022748               0.000080108               0.999999999              -0.000027364               0.000087871               0.999999999              -0.000032408               0.000096310               0.999999999               0.000004155               0.000038727               0.999999999               0.000003051               0.000035400               0.999999999               0.000002280               0.000035656               0.999999999               0.000001558               0.000037559               0.999999999               0.000000740               0.000040381               0.999999999              -0.000000408               0.000044172               0.999999999              -0.000002018               0.000048781               0.999999999              -0.000004065               0.000053929               0.999999999              -0.000006391               0.000059330               0.999999999              -0.000009068               0.000064950               0.999999999              -0.000012220               0.000071400               0.999999999              -0.000015830               0.000078588               0.999999999              -0.000019965               0.000086467               0.999999999              -0.000024615               0.000095056               0.999999999              -0.000029766               0.000104406               0.999999999              -0.000035425               0.000114530               0.999999999              -0.000041497               0.000125409               0.999999999               0.000003632               0.000045619               0.999999999               0.000003314               0.000041707               0.999999999               0.000002708               0.000042227               0.999999999               0.000001859               0.000044741               0.999999999               0.000000723               0.000048438               0.999999999              -0.000000946               0.000053353               0.999999999              -0.000003192               0.000059241               0.999999999              -0.000005818               0.000065808               0.999999999              -0.000008795               0.000072701               0.999999999              -0.000012086               0.000080296               0.999999999              -0.000015823               0.000088982               0.999999999              -0.000020119               0.000098603               0.999999999              -0.000025039               0.000108997               0.999999999              -0.000030558               0.000120321               0.999999999              -0.000036638               0.000132460               0.999999999              -0.000043209               0.000145466               0.999999999              -0.000050224               0.000159292               0.999999999               0.000003042               0.000052008               0.999999999               0.000003639               0.000047715               0.999999999               0.000003083               0.000048585               0.999999999               0.000002054               0.000051780               0.999999999               0.000000539               0.000056514               0.999999999              -0.000001728               0.000062710               0.999999999              -0.000004563               0.000070037               0.999999999              -0.000007741               0.000078218               0.999999999              -0.000011111               0.000087272               0.999999999              -0.000014839               0.000097289               0.999999999              -0.000019219               0.000108666               0.999999999              -0.000024275               0.000121087               0.999999999              -0.000029976               0.000134426               0.999999999              -0.000036340               0.000148852               0.999999999              -0.000043241               0.000164262               0.999999999              -0.000050622               0.000180443               0.999999999              -0.000058459               0.000197288               0.999999999               0.000002449               0.000057837               0.999999999               0.000003961               0.000053398               0.999999999               0.000003386               0.000054713               0.999999999               0.000002172               0.000058687               0.999999999               0.000000170               0.000064622               0.999999999              -0.000002645               0.000072274               0.999999999              -0.000005918               0.000081382               0.999999999              -0.000009397               0.000091772               0.999999999              -0.000013111               0.000103323               0.999999999              -0.000017440               0.000116158               0.999999999              -0.000022507               0.000130510               0.999999999              -0.000028264               0.000146049               0.999999999              -0.000034671               0.000162685               0.999999999              -0.000041718               0.000180470               0.999999999              -0.000049243               0.000199333               0.999999999              -0.000057239               0.000219038               0.999999999              -0.000065647               0.000239378               0.999999999               0.000001836               0.000063354               0.999999999               0.000004116               0.000059146               0.999999999               0.000003908               0.000059912               0.999999999               0.000002893               0.000063349               0.999999999               0.000001207               0.000068688               0.999999999              -0.000001181               0.000075715               0.999999999              -0.000004026               0.000084281               0.999999999              -0.000007200               0.000094149               0.999999999              -0.000010423               0.000105155               0.999999999              -0.000013772               0.000117314               0.999999999              -0.000017687               0.000130716               0.999999999              -0.000022225               0.000145261               0.999999999              -0.000027176               0.000160781               0.999999999              -0.000032637               0.000177298               0.999999999              -0.000038628               0.000194928               0.999999999              -0.000044998               0.000213557               0.999999999              -0.000051756               0.000233246               0.999999999               0.000001287               0.000068310               0.999999999               0.000004104               0.000064655               0.999999999               0.000004260               0.000065133               0.999999999               0.000003502               0.000068158               0.999999999               0.000002121               0.000072963               0.999999999               0.000000142               0.000079418               0.999999999              -0.000002317               0.000087402               0.999999999              -0.000005133               0.000096773               0.999999999              -0.000007914               0.000107350               0.999999999              -0.000010648               0.000118925               0.999999999              -0.000013589               0.000131513               0.999999999              -0.000016966               0.000145160               0.999999999              -0.000020613               0.000159767               0.999999999              -0.000024622               0.000175285               0.999999999              -0.000029142               0.000191649               0.999999999              -0.000033955               0.000208978               0.999999999              -0.000039251               0.000227342               0.999999999               0.000000864               0.000072644               0.999999999               0.000003908               0.000069776               0.999999999               0.000004348               0.000070210               0.999999999               0.000003871               0.000072916               0.999999999               0.000002755               0.000077325               0.999999999               0.000001152               0.000083307               0.999999999              -0.000000913               0.000090774               0.999999999              -0.000003229               0.000099693               0.999999999              -0.000005614               0.000109829               0.999999999              -0.000007846               0.000120939               0.999999999              -0.000010038               0.000132858               0.999999999              -0.000012442               0.000145758               0.999999999              -0.000015060               0.000159610               0.999999999              -0.000017881               0.000174262               0.999999999              -0.000020951               0.000189703               0.999999999              -0.000024373               0.000205969               0.999999999              -0.000028075               0.000223108               0.999999999               0.000000589               0.000076336               0.999999999               0.000003480               0.000074343               0.999999999               0.000004119               0.000074886               0.999999999               0.000003881               0.000077414               0.999999999               0.000003003               0.000081580               0.999999999               0.000001739               0.000087241               0.999999999               0.000000221               0.000094353               0.999999999              -0.000001624               0.000102867               0.999999999              -0.000003560               0.000112535               0.999999999              -0.000005369               0.000123063               0.999999999              -0.000007050               0.000134500               0.999999999              -0.000008697               0.000146867               0.999999999              -0.000010497               0.000160136               0.999999999              -0.000012370               0.000174180               0.999999999              -0.000014318               0.000189016               0.999999999              -0.000016491               0.000204542               0.999999999              -0.000018715               0.000220806               0.999999999               0.000000365               0.000079259               0.999999999               0.000002834               0.000078165               0.999999999               0.000003557               0.000078936               0.999999999               0.000003441               0.000081422               0.999999999               0.000002811               0.000085459               0.999999999               0.000001951               0.000090961               0.999999999               0.000000822               0.000097781               0.999999999              -0.000000527               0.000105862               0.999999999              -0.000001942               0.000115068               0.999999999              -0.000003285               0.000125188               0.999999999              -0.000004528               0.000136297               0.999999999              -0.000005679               0.000148313               0.999999999              -0.000006865               0.000161160               0.999999999              -0.000008059               0.000174806               0.999999999              -0.000009238               0.000189177               0.999999999              -0.000010388               0.000204190               0.999999999              -0.000011477               0.000219868               0.999999999               0.000000192               0.000081409               0.999999999               0.000002019               0.000081061               0.999999999               0.000002623               0.000082069               0.999999999               0.000002574               0.000084639               0.999999999               0.000002209               0.000088648               0.999999999               0.000001653               0.000093989               0.999999999               0.000000880               0.000100600               0.999999999               0.000000079               0.000108404               0.999999999              -0.000000807               0.000117209               0.999999999              -0.000001730               0.000127061               0.999999999              -0.000002601               0.000137963               0.999999999              -0.000003360               0.000149695               0.999999999              -0.000004053               0.000162190               0.999999999              -0.000004734               0.000175504               0.999999999              -0.000005398               0.000189599               0.999999999              -0.000005948               0.000204352               0.999999999              -0.000006412               0.000219639               0.999999999               0.000000081               0.000082728               0.999999999               0.000001052               0.000082868               0.999999999               0.000001386               0.000084069               0.999999999               0.000001397               0.000086725               0.999999999               0.000001227               0.000090735               0.999999999               0.000000894               0.000096012               0.999999999               0.000000600               0.000102494               0.999999999               0.000000214               0.000110102               0.999999999              -0.000000240               0.000118711               0.999999999              -0.000000731               0.000128412               0.999999999              -0.000001170               0.000139092               0.999999999              -0.000001523               0.000150557               0.999999999              -0.000001846               0.000162875               0.999999999              -0.000002175               0.000176034               0.999999999              -0.000002469               0.000189939               0.999999999              -0.000002679               0.000204503               0.999999999              -0.000002861               0.000219556               0.999999999               0.000000000               0.000083146               0.999999999               0.000000000               0.000083469               0.999999999              -0.000000000               0.000084785               0.999999999              -0.000000000               0.000087453               0.999999999               0.000000000               0.000091444               0.999999999              -0.000000000               0.000096757               0.999999999              -0.000000000               0.000103160               0.999999999              -0.000000000               0.000110665               0.999999999              -0.000000000               0.000119258               0.999999999              -0.000000000               0.000128876               0.999999999              -0.000000000               0.000139450               0.999999999               0.000000000               0.000150874               0.999999999               0.000000000               0.000163135               0.999999999              -0.000000000               0.000176203               0.999999999              -0.000000000               0.000190045               0.999999999               0.000000000               0.000204541               0.999999999               0.000000000               0.000219503               0.999999999               0.000005746               0.000000000               0.999999999               0.000002456               0.000000000               0.999999999               0.000000868               0.000000000               0.999999999               0.000000082               0.000000000               0.999999999              -0.000000344               0.000000000               0.999999999              -0.000000472               0.000000000               0.999999999              -0.000000426              -0.000000000               0.999999999              -0.000000358               0.000000000               0.999999999              -0.000000318              -0.000000000               0.999999999              -0.000000327              -0.000000000               0.999999999              -0.000000404               0.000000000               0.999999999              -0.000000738               0.000000000               0.999999999              -0.000001472               0.000000000               0.999999999              -0.000002587               0.000000000               0.999999999              -0.000004138               0.000000000               0.999999999              -0.000006214               0.000000000               0.999999999              -0.000008857               0.000000000               0.999999999               0.000005652              -0.000008044               0.999999999               0.000002486              -0.000007442               0.999999999               0.000000956              -0.000007392               0.999999999               0.000000148              -0.000007659               0.999999999              -0.000000235              -0.000008104               0.999999999              -0.000000397              -0.000008589               0.999999999              -0.000000461              -0.000009262               0.999999999              -0.000000492              -0.000010073               0.999999999              -0.000000599              -0.000010977               0.999999999              -0.000000832              -0.000011868               0.999999999              -0.000001202              -0.000012890               0.999999999              -0.000001776              -0.000014209               0.999999999              -0.000002691              -0.000015686               0.999999999              -0.000004041              -0.000017386               0.999999999              -0.000005834              -0.000019339               0.999999999              -0.000008133              -0.000021524               0.999999999              -0.000010963              -0.000024014               0.999999999               0.000005472              -0.000016055               0.999999999               0.000002545              -0.000014754               0.999999999               0.000001154              -0.000014737               0.999999999               0.000000424              -0.000015277               0.999999999               0.000000031              -0.000016185               0.999999999              -0.000000247              -0.000017285               0.999999999              -0.000000521              -0.000018732               0.999999999              -0.000000928              -0.000020414               0.999999999              -0.000001509              -0.000022295               0.999999999              -0.000002210              -0.000024110               0.999999999              -0.000003128              -0.000026226               0.999999999              -0.000004365              -0.000028810               0.999999999              -0.000005967              -0.000031687               0.999999999              -0.000007943              -0.000034993               0.999999999              -0.000010314              -0.000038712               0.999999999              -0.000013155              -0.000042809               0.999999999              -0.000016442              -0.000047304               0.999999999               0.000005145              -0.000023910               0.999999999               0.000002627              -0.000021883               0.999999999               0.000001469              -0.000021882               0.999999999               0.000000826              -0.000022826               0.999999999               0.000000336              -0.000024271               0.999999999              -0.000000110              -0.000026113               0.999999999              -0.000000732              -0.000028487               0.999999999              -0.000001629              -0.000031219               0.999999999              -0.000002775              -0.000034149               0.999999999              -0.000004155              -0.000036982               0.999999999              -0.000005842              -0.000040266               0.999999999              -0.000007851              -0.000044152               0.999999999              -0.000010169              -0.000048442               0.999999999              -0.000012875              -0.000053289               0.999999999              -0.000016013              -0.000058654               0.999999999              -0.000019597              -0.000064528               0.999999999              -0.000023611              -0.000070893               0.999999999               0.000004655              -0.000031471               0.999999999               0.000002819              -0.000028788               0.999999999               0.000001870              -0.000028858               0.999999999               0.000001186              -0.000030254               0.999999999               0.000000613              -0.000032346               0.999999999              -0.000000143              -0.000035073               0.999999999              -0.000001218              -0.000038512               0.999999999              -0.000002629              -0.000042454               0.999999999              -0.000004397              -0.000046474               0.999999999              -0.000006429              -0.000050604               0.999999999              -0.000008838              -0.000055309               0.999999999              -0.000011620              -0.000060622               0.999999999              -0.000014859              -0.000066471               0.999999999              -0.000018601              -0.000072961               0.999999999              -0.000022748              -0.000080108               0.999999999              -0.000027364              -0.000087871               0.999999999              -0.000032408              -0.000096310               0.999999999               0.000004155              -0.000038727               0.999999999               0.000003051              -0.000035400               0.999999999               0.000002280              -0.000035656               0.999999999               0.000001558              -0.000037559               0.999999999               0.000000740              -0.000040381               0.999999999              -0.000000408              -0.000044172               0.999999999              -0.000002018              -0.000048781               0.999999999              -0.000004065              -0.000053929               0.999999999              -0.000006391              -0.000059330               0.999999999              -0.000009068              -0.000064950               0.999999999              -0.000012220              -0.000071400               0.999999999              -0.000015830              -0.000078588               0.999999999              -0.000019965              -0.000086467               0.999999999              -0.000024615              -0.000095056               0.999999999              -0.000029766              -0.000104406               0.999999999              -0.000035425              -0.000114530               0.999999999              -0.000041497              -0.000125409               0.999999999               0.000003632              -0.000045619               0.999999999               0.000003314              -0.000041707               0.999999999               0.000002708              -0.000042227               0.999999999               0.000001859              -0.000044741               0.999999999               0.000000723              -0.000048438               0.999999999              -0.000000946              -0.000053353               0.999999999              -0.000003192              -0.000059241               0.999999999              -0.000005818              -0.000065808               0.999999999              -0.000008795              -0.000072701               0.999999999              -0.000012086              -0.000080296               0.999999999              -0.000015823              -0.000088982               0.999999999              -0.000020119              -0.000098603               0.999999999              -0.000025039              -0.000108997               0.999999999              -0.000030558              -0.000120321               0.999999999              -0.000036638              -0.000132460               0.999999999              -0.000043209              -0.000145466               0.999999999              -0.000050224              -0.000159292               0.999999999               0.000003042              -0.000052008               0.999999999               0.000003639              -0.000047715               0.999999999               0.000003083              -0.000048585               0.999999999               0.000002054              -0.000051780               0.999999999               0.000000539              -0.000056514               0.999999999              -0.000001728              -0.000062710               0.999999999              -0.000004563              -0.000070037               0.999999999              -0.000007741              -0.000078218               0.999999999              -0.000011111              -0.000087272               0.999999999              -0.000014839              -0.000097289               0.999999999              -0.000019219              -0.000108666               0.999999999              -0.000024275              -0.000121087               0.999999999              -0.000029976              -0.000134426               0.999999999              -0.000036340              -0.000148852               0.999999999              -0.000043241              -0.000164262               0.999999999              -0.000050622              -0.000180443               0.999999999              -0.000058459              -0.000197288               0.999999999               0.000002449              -0.000057837               0.999999999               0.000003961              -0.000053398               0.999999999               0.000003386              -0.000054713               0.999999999               0.000002172              -0.000058687               0.999999999               0.000000170              -0.000064622               0.999999999              -0.000002645              -0.000072274               0.999999999              -0.000005918              -0.000081382               0.999999999              -0.000009397              -0.000091772               0.999999999              -0.000013111              -0.000103323               0.999999999              -0.000017440              -0.000116158               0.999999999              -0.000022507              -0.000130510               0.999999999              -0.000028264              -0.000146049               0.999999999              -0.000034671              -0.000162685               0.999999999              -0.000041718              -0.000180470               0.999999999              -0.000049243              -0.000199333               0.999999999              -0.000057239              -0.000219038               0.999999999              -0.000065647              -0.000239378               0.999999999               0.000001836              -0.000063354               0.999999999               0.000004116              -0.000059146               0.999999999               0.000003908              -0.000059912               0.999999999               0.000002893              -0.000063349               0.999999999               0.000001207              -0.000068688               0.999999999              -0.000001181              -0.000075715               0.999999999              -0.000004026              -0.000084281               0.999999999              -0.000007200              -0.000094149               0.999999999              -0.000010423              -0.000105155               0.999999999              -0.000013772              -0.000117314               0.999999999              -0.000017687              -0.000130716               0.999999999              -0.000022225              -0.000145261               0.999999999              -0.000027176              -0.000160781               0.999999999              -0.000032637              -0.000177298               0.999999999              -0.000038628              -0.000194928               0.999999999              -0.000044998              -0.000213557               0.999999999              -0.000051756              -0.000233246               0.999999999               0.000001287              -0.000068310               0.999999999               0.000004104              -0.000064655               0.999999999               0.000004260              -0.000065133               0.999999999               0.000003502              -0.000068158               0.999999999               0.000002121              -0.000072963               0.999999999               0.000000142              -0.000079418               0.999999999              -0.000002317              -0.000087402               0.999999999              -0.000005133              -0.000096773               0.999999999              -0.000007914              -0.000107350               0.999999999              -0.000010648              -0.000118925               0.999999999              -0.000013589              -0.000131513               0.999999999              -0.000016966              -0.000145160               0.999999999              -0.000020613              -0.000159767               0.999999999              -0.000024622              -0.000175285               0.999999999              -0.000029142              -0.000191649               0.999999999              -0.000033955              -0.000208978               0.999999999              -0.000039251              -0.000227342               0.999999999               0.000000864              -0.000072644               0.999999999               0.000003908              -0.000069776               0.999999999               0.000004348              -0.000070210               0.999999999               0.000003871              -0.000072916               0.999999999               0.000002755              -0.000077325               0.999999999               0.000001152              -0.000083307               0.999999999              -0.000000913              -0.000090774               0.999999999              -0.000003229              -0.000099693               0.999999999              -0.000005614              -0.000109829               0.999999999              -0.000007846              -0.000120939               0.999999999              -0.000010038              -0.000132858               0.999999999              -0.000012442              -0.000145758               0.999999999              -0.000015060              -0.000159610               0.999999999              -0.000017881              -0.000174262               0.999999999              -0.000020951              -0.000189703               0.999999999              -0.000024373              -0.000205969               0.999999999              -0.000028075              -0.000223108               0.999999999               0.000000589              -0.000076336               0.999999999               0.000003480              -0.000074343               0.999999999               0.000004119              -0.000074886               0.999999999               0.000003881              -0.000077414               0.999999999               0.000003003              -0.000081580               0.999999999               0.000001739              -0.000087241               0.999999999               0.000000221              -0.000094353               0.999999999              -0.000001624              -0.000102867               0.999999999              -0.000003560              -0.000112535               0.999999999              -0.000005369              -0.000123063               0.999999999              -0.000007050              -0.000134500               0.999999999              -0.000008697              -0.000146867               0.999999999              -0.000010497              -0.000160136               0.999999999              -0.000012370              -0.000174180               0.999999999              -0.000014318              -0.000189016               0.999999999              -0.000016491              -0.000204542               0.999999999              -0.000018715              -0.000220806               0.999999999               0.000000365              -0.000079259               0.999999999               0.000002834              -0.000078165               0.999999999               0.000003557              -0.000078936               0.999999999               0.000003441              -0.000081422               0.999999999               0.000002811              -0.000085459               0.999999999               0.000001951              -0.000090961               0.999999999               0.000000822              -0.000097781               0.999999999              -0.000000527              -0.000105862               0.999999999              -0.000001942              -0.000115068               0.999999999              -0.000003285              -0.000125188               0.999999999              -0.000004528              -0.000136297               0.999999999              -0.000005679              -0.000148313               0.999999999              -0.000006865              -0.000161160               0.999999999              -0.000008059              -0.000174806               0.999999999              -0.000009238              -0.000189177               0.999999999              -0.000010388              -0.000204190               0.999999999              -0.000011477              -0.000219868               0.999999999               0.000000192              -0.000081409               0.999999999               0.000002019              -0.000081061               0.999999999               0.000002623              -0.000082069               0.999999999               0.000002574              -0.000084639               0.999999999               0.000002209              -0.000088648               0.999999999               0.000001653              -0.000093989               0.999999999               0.000000880              -0.000100600               0.999999999               0.000000079              -0.000108404               0.999999999              -0.000000807              -0.000117209               0.999999999              -0.000001730              -0.000127061               0.999999999              -0.000002601              -0.000137963               0.999999999              -0.000003360              -0.000149695               0.999999999              -0.000004053              -0.000162190               0.999999999              -0.000004734              -0.000175504               0.999999999              -0.000005398              -0.000189599               0.999999999              -0.000005948              -0.000204352               0.999999999              -0.000006412              -0.000219639               0.999999999               0.000000081              -0.000082728               0.999999999               0.000001052              -0.000082868               0.999999999               0.000001386              -0.000084069               0.999999999               0.000001397              -0.000086725               0.999999999               0.000001227              -0.000090735               0.999999999               0.000000894              -0.000096012               0.999999999               0.000000600              -0.000102494               0.999999999               0.000000214              -0.000110102               0.999999999              -0.000000240              -0.000118711               0.999999999              -0.000000731              -0.000128412               0.999999999              -0.000001170              -0.000139092               0.999999999              -0.000001523              -0.000150557               0.999999999              -0.000001846              -0.000162875               0.999999999              -0.000002175              -0.000176034               0.999999999              -0.000002469              -0.000189939               0.999999999              -0.000002679              -0.000204503               0.999999999              -0.000002861              -0.000219556               0.999999999              -0.000000000              -0.000083146               0.999999999               0.000000000              -0.000083469               0.999999999              -0.000000000              -0.000084785               0.999999999              -0.000000000              -0.000087453               0.999999999               0.000000000              -0.000091444               0.999999999              -0.000000000              -0.000096757               0.999999999              -0.000000000              -0.000103160               0.999999999               0.000000000              -0.000110665               0.999999999               0.000000000              -0.000119258               0.999999999              -0.000000000              -0.000128876               0.999999999              -0.000000000              -0.000139450               0.999999999              -0.000000000              -0.000150874               0.999999999              -0.000000000              -0.000163135               0.999999999              -0.000000000              -0.000176203               0.999999999              -0.000000000              -0.000190045               0.999999999               0.000000000              -0.000204541               0.999999999               0.000000000              -0.000219503               0.999999999              -0.000005746              -0.000000000               0.999999999              -0.000002456               0.000000000               0.999999999              -0.000000868               0.000000000               0.999999999              -0.000000082               0.000000000               0.999999999               0.000000344               0.000000000               0.999999999               0.000000472              -0.000000000               0.999999999               0.000000426              -0.000000000               0.999999999               0.000000358              -0.000000000               0.999999999               0.000000318              -0.000000000               0.999999999               0.000000327              -0.000000000               0.999999999               0.000000404               0.000000000               0.999999999               0.000000738               0.000000000               0.999999999               0.000001472               0.000000000               0.999999999               0.000002587               0.000000000               0.999999999               0.000004138               0.000000000               0.999999999               0.000006214              -0.000000000               0.999999999               0.000008857              -0.000000000               0.999999999              -0.000005652              -0.000008044               0.999999999              -0.000002486              -0.000007442               0.999999999              -0.000000956              -0.000007392               0.999999999              -0.000000148              -0.000007659               0.999999999               0.000000235              -0.000008104               0.999999999               0.000000397              -0.000008589               0.999999999               0.000000461              -0.000009262               0.999999999               0.000000492              -0.000010073               0.999999999               0.000000599              -0.000010977               0.999999999               0.000000832              -0.000011868               0.999999999               0.000001202              -0.000012890               0.999999999               0.000001776              -0.000014209               0.999999999               0.000002691              -0.000015686               0.999999999               0.000004041              -0.000017386               0.999999999               0.000005834              -0.000019339               0.999999999               0.000008133              -0.000021524               0.999999999               0.000010963              -0.000024014               0.999999999              -0.000005472              -0.000016055               0.999999999              -0.000002545              -0.000014754               0.999999999              -0.000001154              -0.000014737               0.999999999              -0.000000424              -0.000015277               0.999999999              -0.000000031              -0.000016185               0.999999999               0.000000247              -0.000017285               0.999999999               0.000000521              -0.000018732               0.999999999               0.000000928              -0.000020414               0.999999999               0.000001509              -0.000022295               0.999999999               0.000002210              -0.000024110               0.999999999               0.000003128              -0.000026226               0.999999999               0.000004365              -0.000028810               0.999999999               0.000005967              -0.000031687               0.999999999               0.000007943              -0.000034993               0.999999999               0.000010314              -0.000038712               0.999999999               0.000013155              -0.000042809               0.999999999               0.000016442              -0.000047304               0.999999999              -0.000005145              -0.000023910               0.999999999              -0.000002627              -0.000021883               0.999999999              -0.000001469              -0.000021882               0.999999999              -0.000000826              -0.000022826               0.999999999              -0.000000336              -0.000024271               0.999999999               0.000000110              -0.000026113               0.999999999               0.000000732              -0.000028487               0.999999999               0.000001629              -0.000031219               0.999999999               0.000002775              -0.000034149               0.999999999               0.000004155              -0.000036982               0.999999999               0.000005842              -0.000040266               0.999999999               0.000007851              -0.000044152               0.999999999               0.000010169              -0.000048442               0.999999999               0.000012875              -0.000053289               0.999999999               0.000016013              -0.000058654               0.999999999               0.000019597              -0.000064528               0.999999999               0.000023611              -0.000070893               0.999999999              -0.000004655              -0.000031471               0.999999999              -0.000002819              -0.000028788               0.999999999              -0.000001870              -0.000028858               0.999999999              -0.000001186              -0.000030254               0.999999999              -0.000000613              -0.000032346               0.999999999               0.000000143              -0.000035073               0.999999999               0.000001218              -0.000038512               0.999999999               0.000002629              -0.000042454               0.999999999               0.000004397              -0.000046474               0.999999999               0.000006429              -0.000050604               0.999999999               0.000008838              -0.000055309               0.999999999               0.000011620              -0.000060622               0.999999999               0.000014859              -0.000066471               0.999999999               0.000018601              -0.000072961               0.999999999               0.000022748              -0.000080108               0.999999999               0.000027364              -0.000087871               0.999999999               0.000032408              -0.000096310               0.999999999              -0.000004155              -0.000038727               0.999999999              -0.000003051              -0.000035400               0.999999999              -0.000002280              -0.000035656               0.999999999              -0.000001558              -0.000037559               0.999999999              -0.000000740              -0.000040381               0.999999999               0.000000408              -0.000044172               0.999999999               0.000002018              -0.000048781               0.999999999               0.000004065              -0.000053929               0.999999999               0.000006391              -0.000059330               0.999999999               0.000009068              -0.000064950               0.999999999               0.000012220              -0.000071400               0.999999999               0.000015830              -0.000078588               0.999999999               0.000019965              -0.000086467               0.999999999               0.000024615              -0.000095056               0.999999999               0.000029766              -0.000104406               0.999999999               0.000035425              -0.000114530               0.999999999               0.000041497              -0.000125409               0.999999999              -0.000003632              -0.000045619               0.999999999              -0.000003314              -0.000041707               0.999999999              -0.000002708              -0.000042227               0.999999999              -0.000001859              -0.000044741               0.999999999              -0.000000723              -0.000048438               0.999999999               0.000000946              -0.000053353               0.999999999               0.000003192              -0.000059241               0.999999999               0.000005818              -0.000065808               0.999999999               0.000008795              -0.000072701               0.999999999               0.000012086              -0.000080296               0.999999999               0.000015823              -0.000088982               0.999999999               0.000020119              -0.000098603               0.999999999               0.000025039              -0.000108997               0.999999999               0.000030558              -0.000120321               0.999999999               0.000036638              -0.000132460               0.999999999               0.000043209              -0.000145466               0.999999999               0.000050224              -0.000159292               0.999999999              -0.000003042              -0.000052008               0.999999999              -0.000003639              -0.000047715               0.999999999              -0.000003083              -0.000048585               0.999999999              -0.000002054              -0.000051780               0.999999999              -0.000000539              -0.000056514               0.999999999               0.000001728              -0.000062710               0.999999999               0.000004563              -0.000070037               0.999999999               0.000007741              -0.000078218               0.999999999               0.000011111              -0.000087272               0.999999999               0.000014839              -0.000097289               0.999999999               0.000019219              -0.000108666               0.999999999               0.000024275              -0.000121087               0.999999999               0.000029976              -0.000134426               0.999999999               0.000036340              -0.000148852               0.999999999               0.000043241              -0.000164262               0.999999999               0.000050622              -0.000180443               0.999999999               0.000058459              -0.000197288               0.999999999              -0.000002449              -0.000057837               0.999999999              -0.000003961              -0.000053398               0.999999999              -0.000003386              -0.000054713               0.999999999              -0.000002172              -0.000058687               0.999999999              -0.000000170              -0.000064622               0.999999999               0.000002645              -0.000072274               0.999999999               0.000005918              -0.000081382               0.999999999               0.000009397              -0.000091772               0.999999999               0.000013111              -0.000103323               0.999999999               0.000017440              -0.000116158               0.999999999               0.000022507              -0.000130510               0.999999999               0.000028264              -0.000146049               0.999999999               0.000034671              -0.000162685               0.999999999               0.000041718              -0.000180470               0.999999999               0.000049243              -0.000199333               0.999999999               0.000057239              -0.000219038               0.999999999               0.000065647              -0.000239378               0.999999999              -0.000001836              -0.000063354               0.999999999              -0.000004116              -0.000059146               0.999999999              -0.000003908              -0.000059912               0.999999999              -0.000002893              -0.000063349               0.999999999              -0.000001207              -0.000068688               0.999999999               0.000001181              -0.000075715               0.999999999               0.000004026              -0.000084281               0.999999999               0.000007200              -0.000094149               0.999999999               0.000010423              -0.000105155               0.999999999               0.000013772              -0.000117314               0.999999999               0.000017687              -0.000130716               0.999999999               0.000022225              -0.000145261               0.999999999               0.000027176              -0.000160781               0.999999999               0.000032637              -0.000177298               0.999999999               0.000038628              -0.000194928               0.999999999               0.000044998              -0.000213557               0.999999999               0.000051756              -0.000233246               0.999999999              -0.000001287              -0.000068310               0.999999999              -0.000004104              -0.000064655               0.999999999              -0.000004260              -0.000065133               0.999999999              -0.000003502              -0.000068158               0.999999999              -0.000002121              -0.000072963               0.999999999              -0.000000142              -0.000079418               0.999999999               0.000002317              -0.000087402               0.999999999               0.000005133              -0.000096773               0.999999999               0.000007914              -0.000107350               0.999999999               0.000010648              -0.000118925               0.999999999               0.000013589              -0.000131513               0.999999999               0.000016966              -0.000145160               0.999999999               0.000020613              -0.000159767               0.999999999               0.000024622              -0.000175285               0.999999999               0.000029142              -0.000191649               0.999999999               0.000033955              -0.000208978               0.999999999               0.000039251              -0.000227342               0.999999999              -0.000000864              -0.000072644               0.999999999              -0.000003908              -0.000069776               0.999999999              -0.000004348              -0.000070210               0.999999999              -0.000003871              -0.000072916               0.999999999              -0.000002755              -0.000077325               0.999999999              -0.000001152              -0.000083307               0.999999999               0.000000913              -0.000090774               0.999999999               0.000003229              -0.000099693               0.999999999               0.000005614              -0.000109829               0.999999999               0.000007846              -0.000120939               0.999999999               0.000010038              -0.000132858               0.999999999               0.000012442              -0.000145758               0.999999999               0.000015060              -0.000159610               0.999999999               0.000017881              -0.000174262               0.999999999               0.000020951              -0.000189703               0.999999999               0.000024373              -0.000205969               0.999999999               0.000028075              -0.000223108               0.999999999              -0.000000589              -0.000076336               0.999999999              -0.000003480              -0.000074343               0.999999999              -0.000004119              -0.000074886               0.999999999              -0.000003881              -0.000077414               0.999999999              -0.000003003              -0.000081580               0.999999999              -0.000001739              -0.000087241               0.999999999              -0.000000221              -0.000094353               0.999999999               0.000001624              -0.000102867               0.999999999               0.000003560              -0.000112535               0.999999999               0.000005369              -0.000123063               0.999999999               0.000007050              -0.000134500               0.999999999               0.000008697              -0.000146867               0.999999999               0.000010497              -0.000160136               0.999999999               0.000012370              -0.000174180               0.999999999               0.000014318              -0.000189016               0.999999999               0.000016491              -0.000204542               0.999999999               0.000018715              -0.000220806               0.999999999              -0.000000365              -0.000079259               0.999999999              -0.000002834              -0.000078165               0.999999999              -0.000003557              -0.000078936               0.999999999              -0.000003441              -0.000081422               0.999999999              -0.000002811              -0.000085459               0.999999999              -0.000001951              -0.000090961               0.999999999              -0.000000822              -0.000097781               0.999999999               0.000000527              -0.000105862               0.999999999               0.000001942              -0.000115068               0.999999999               0.000003285              -0.000125188               0.999999999               0.000004528              -0.000136297               0.999999999               0.000005679              -0.000148313               0.999999999               0.000006865              -0.000161160               0.999999999               0.000008059              -0.000174806               0.999999999               0.000009238              -0.000189177               0.999999999               0.000010388              -0.000204190               0.999999999               0.000011477              -0.000219868               0.999999999              -0.000000192              -0.000081409               0.999999999              -0.000002019              -0.000081061               0.999999999              -0.000002623              -0.000082069               0.999999999              -0.000002574              -0.000084639               0.999999999              -0.000002209              -0.000088648               0.999999999              -0.000001653              -0.000093989               0.999999999              -0.000000880              -0.000100600               0.999999999              -0.000000079              -0.000108404               0.999999999               0.000000807              -0.000117209               0.999999999               0.000001730              -0.000127061               0.999999999               0.000002601              -0.000137963               0.999999999               0.000003360              -0.000149695               0.999999999               0.000004053              -0.000162190               0.999999999               0.000004734              -0.000175504               0.999999999               0.000005398              -0.000189599               0.999999999               0.000005948              -0.000204352               0.999999999               0.000006412              -0.000219639               0.999999999              -0.000000081              -0.000082728               0.999999999              -0.000001052              -0.000082868               0.999999999              -0.000001386              -0.000084069               0.999999999              -0.000001397              -0.000086725               0.999999999              -0.000001227              -0.000090735               0.999999999              -0.000000894              -0.000096012               0.999999999              -0.000000600              -0.000102494               0.999999999              -0.000000214              -0.000110102               0.999999999               0.000000240              -0.000118711               0.999999999               0.000000731              -0.000128412               0.999999999               0.000001170              -0.000139092               0.999999999               0.000001523              -0.000150557               0.999999999               0.000001846              -0.000162875               0.999999999               0.000002175              -0.000176034               0.999999999               0.000002469              -0.000189939               0.999999999               0.000002679              -0.000204503               0.999999999               0.000002861              -0.000219556               0.999999999              -0.000000000              -0.000083146               0.999999999               0.000000000              -0.000083469               0.999999999              -0.000000000              -0.000084785               0.999999999              -0.000000000              -0.000087453               0.999999999               0.000000000              -0.000091444               0.999999999              -0.000000000              -0.000096757               0.999999999              -0.000000000              -0.000103160               0.999999999               0.000000000              -0.000110665               0.999999999               0.000000000              -0.000119258               0.999999999              -0.000000000              -0.000128876               0.999999999              -0.000000000              -0.000139450               0.999999999              -0.000000000              -0.000150874               0.999999999              -0.000000000              -0.000163135               0.999999999              -0.000000000              -0.000176203               0.999999999              -0.000000000              -0.000190045               0.999999999               0.000000000              -0.000204541               0.999999999               0.000000000              -0.000219503               0.999999999              -0.000005746              -0.000000000               0.999999999              -0.000002456               0.000000000               0.999999999              -0.000000868               0.000000000               0.999999999              -0.000000082               0.000000000               0.999999999               0.000000344               0.000000000               0.999999999               0.000000472              -0.000000000               0.999999999               0.000000426              -0.000000000               0.999999999               0.000000358              -0.000000000               0.999999999               0.000000318              -0.000000000               0.999999999               0.000000327              -0.000000000               0.999999999               0.000000404               0.000000000               0.999999999               0.000000738               0.000000000               0.999999999               0.000001472               0.000000000               0.999999999               0.000002587               0.000000000               0.999999999               0.000004138               0.000000000               0.999999999               0.000006214              -0.000000000               0.999999999               0.000008857              -0.000000000               0.999999999              -0.000005652               0.000008044               0.999999999              -0.000002486               0.000007442               0.999999999              -0.000000956               0.000007392               0.999999999              -0.000000148               0.000007659               0.999999999               0.000000235               0.000008104               0.999999999               0.000000397               0.000008589               0.999999999               0.000000461               0.000009262               0.999999999               0.000000492               0.000010073               0.999999999               0.000000599               0.000010977               0.999999999               0.000000832               0.000011868               0.999999999               0.000001202               0.000012890               0.999999999               0.000001776               0.000014209               0.999999999               0.000002691               0.000015686               0.999999999               0.000004041               0.000017386               0.999999999               0.000005834               0.000019339               0.999999999               0.000008133               0.000021524               0.999999999               0.000010963               0.000024014               0.999999999              -0.000005472               0.000016055               0.999999999              -0.000002545               0.000014754               0.999999999              -0.000001154               0.000014737               0.999999999              -0.000000424               0.000015277               0.999999999              -0.000000031               0.000016185               0.999999999               0.000000247               0.000017285               0.999999999               0.000000521               0.000018732               0.999999999               0.000000928               0.000020414               0.999999999               0.000001509               0.000022295               0.999999999               0.000002210               0.000024110               0.999999999               0.000003128               0.000026226               0.999999999               0.000004365               0.000028810               0.999999999               0.000005967               0.000031687               0.999999999               0.000007943               0.000034993               0.999999999               0.000010314               0.000038712               0.999999999               0.000013155               0.000042809               0.999999999               0.000016442               0.000047304               0.999999999              -0.000005145               0.000023910               0.999999999              -0.000002627               0.000021883               0.999999999              -0.000001469               0.000021882               0.999999999              -0.000000826               0.000022826               0.999999999              -0.000000336               0.000024271               0.999999999               0.000000110               0.000026113               0.999999999               0.000000732               0.000028487               0.999999999               0.000001629               0.000031219               0.999999999               0.000002775               0.000034149               0.999999999               0.000004155               0.000036982               0.999999999               0.000005842               0.000040266               0.999999999               0.000007851               0.000044152               0.999999999               0.000010169               0.000048442               0.999999999               0.000012875               0.000053289               0.999999999               0.000016013               0.000058654               0.999999999               0.000019597               0.000064528               0.999999999               0.000023611               0.000070893               0.999999999              -0.000004655               0.000031471               0.999999999              -0.000002819               0.000028788               0.999999999              -0.000001870               0.000028858               0.999999999              -0.000001186               0.000030254               0.999999999              -0.000000613               0.000032346               0.999999999               0.000000143               0.000035073               0.999999999               0.000001218               0.000038512               0.999999999               0.000002629               0.000042454               0.999999999               0.000004397               0.000046474               0.999999999               0.000006429               0.000050604               0.999999999               0.000008838               0.000055309               0.999999999               0.000011620               0.000060622               0.999999999               0.000014859               0.000066471               0.999999999               0.000018601               0.000072961               0.999999999               0.000022748               0.000080108               0.999999999               0.000027364               0.000087871               0.999999999               0.000032408               0.000096310               0.999999999              -0.000004155               0.000038727               0.999999999              -0.000003051               0.000035400               0.999999999              -0.000002280               0.000035656               0.999999999              -0.000001558               0.000037559               0.999999999              -0.000000740               0.000040381               0.999999999               0.000000408               0.000044172               0.999999999               0.000002018               0.000048781               0.999999999               0.000004065               0.000053929               0.999999999               0.000006391               0.000059330               0.999999999               0.000009068               0.000064950               0.999999999               0.000012220               0.000071400               0.999999999               0.000015830               0.000078588               0.999999999               0.000019965               0.000086467               0.999999999               0.000024615               0.000095056               0.999999999               0.000029766               0.000104406               0.999999999               0.000035425               0.000114530               0.999999999               0.000041497               0.000125409               0.999999999              -0.000003632               0.000045619               0.999999999              -0.000003314               0.000041707               0.999999999              -0.000002708               0.000042227               0.999999999              -0.000001859               0.000044741               0.999999999              -0.000000723               0.000048438               0.999999999               0.000000946               0.000053353               0.999999999               0.000003192               0.000059241               0.999999999               0.000005818               0.000065808               0.999999999               0.000008795               0.000072701               0.999999999               0.000012086               0.000080296               0.999999999               0.000015823               0.000088982               0.999999999               0.000020119               0.000098603               0.999999999               0.000025039               0.000108997               0.999999999               0.000030558               0.000120321               0.999999999               0.000036638               0.000132460               0.999999999               0.000043209               0.000145466               0.999999999               0.000050224               0.000159292               0.999999999              -0.000003042               0.000052008               0.999999999              -0.000003639               0.000047715               0.999999999              -0.000003083               0.000048585               0.999999999              -0.000002054               0.000051780               0.999999999              -0.000000539               0.000056514               0.999999999               0.000001728               0.000062710               0.999999999               0.000004563               0.000070037               0.999999999               0.000007741               0.000078218               0.999999999               0.000011111               0.000087272               0.999999999               0.000014839               0.000097289               0.999999999               0.000019219               0.000108666               0.999999999               0.000024275               0.000121087               0.999999999               0.000029976               0.000134426               0.999999999               0.000036340               0.000148852               0.999999999               0.000043241               0.000164262               0.999999999               0.000050622               0.000180443               0.999999999               0.000058459               0.000197288               0.999999999              -0.000002449               0.000057837               0.999999999              -0.000003961               0.000053398               0.999999999              -0.000003386               0.000054713               0.999999999              -0.000002172               0.000058687               0.999999999              -0.000000170               0.000064622               0.999999999               0.000002645               0.000072274               0.999999999               0.000005918               0.000081382               0.999999999               0.000009397               0.000091772               0.999999999               0.000013111               0.000103323               0.999999999               0.000017440               0.000116158               0.999999999               0.000022507               0.000130510               0.999999999               0.000028264               0.000146049               0.999999999               0.000034671               0.000162685               0.999999999               0.000041718               0.000180470               0.999999999               0.000049243               0.000199333               0.999999999               0.000057239               0.000219038               0.999999999               0.000065647               0.000239378               0.999999999              -0.000001836               0.000063354               0.999999999              -0.000004116               0.000059146               0.999999999              -0.000003908               0.000059912               0.999999999              -0.000002893               0.000063349               0.999999999              -0.000001207               0.000068688               0.999999999               0.000001181               0.000075715               0.999999999               0.000004026               0.000084281               0.999999999               0.000007200               0.000094149               0.999999999               0.000010423               0.000105155               0.999999999               0.000013772               0.000117314               0.999999999               0.000017687               0.000130716               0.999999999               0.000022225               0.000145261               0.999999999               0.000027176               0.000160781               0.999999999               0.000032637               0.000177298               0.999999999               0.000038628               0.000194928               0.999999999               0.000044998               0.000213557               0.999999999               0.000051756               0.000233246               0.999999999              -0.000001287               0.000068310               0.999999999              -0.000004104               0.000064655               0.999999999              -0.000004260               0.000065133               0.999999999              -0.000003502               0.000068158               0.999999999              -0.000002121               0.000072963               0.999999999              -0.000000142               0.000079418               0.999999999               0.000002317               0.000087402               0.999999999               0.000005133               0.000096773               0.999999999               0.000007914               0.000107350               0.999999999               0.000010648               0.000118925               0.999999999               0.000013589               0.000131513               0.999999999               0.000016966               0.000145160               0.999999999               0.000020613               0.000159767               0.999999999               0.000024622               0.000175285               0.999999999               0.000029142               0.000191649               0.999999999               0.000033955               0.000208978               0.999999999               0.000039251               0.000227342               0.999999999              -0.000000864               0.000072644               0.999999999              -0.000003908               0.000069776               0.999999999              -0.000004348               0.000070210               0.999999999              -0.000003871               0.000072916               0.999999999              -0.000002755               0.000077325               0.999999999              -0.000001152               0.000083307               0.999999999               0.000000913               0.000090774               0.999999999               0.000003229               0.000099693               0.999999999               0.000005614               0.000109829               0.999999999               0.000007846               0.000120939               0.999999999               0.000010038               0.000132858               0.999999999               0.000012442               0.000145758               0.999999999               0.000015060               0.000159610               0.999999999               0.000017881               0.000174262               0.999999999               0.000020951               0.000189703               0.999999999               0.000024373               0.000205969               0.999999999               0.000028075               0.000223108               0.999999999              -0.000000589               0.000076336               0.999999999              -0.000003480               0.000074343               0.999999999              -0.000004119               0.000074886               0.999999999              -0.000003881               0.000077414               0.999999999              -0.000003003               0.000081580               0.999999999              -0.000001739               0.000087241               0.999999999              -0.000000221               0.000094353               0.999999999               0.000001624               0.000102867               0.999999999               0.000003560               0.000112535               0.999999999               0.000005369               0.000123063               0.999999999               0.000007050               0.000134500               0.999999999               0.000008697               0.000146867               0.999999999               0.000010497               0.000160136               0.999999999               0.000012370               0.000174180               0.999999999               0.000014318               0.000189016               0.999999999               0.000016491               0.000204542               0.999999999               0.000018715               0.000220806               0.999999999              -0.000000365               0.000079259               0.999999999              -0.000002834               0.000078165               0.999999999              -0.000003557               0.000078936               0.999999999              -0.000003441               0.000081422               0.999999999              -0.000002811               0.000085459               0.999999999              -0.000001951               0.000090961               0.999999999              -0.000000822               0.000097781               0.999999999               0.000000527               0.000105862               0.999999999               0.000001942               0.000115068               0.999999999               0.000003285               0.000125188               0.999999999               0.000004528               0.000136297               0.999999999               0.000005679               0.000148313               0.999999999               0.000006865               0.000161160               0.999999999               0.000008059               0.000174806               0.999999999               0.000009238               0.000189177               0.999999999               0.000010388               0.000204190               0.999999999               0.000011477               0.000219868               0.999999999              -0.000000192               0.000081409               0.999999999              -0.000002019               0.000081061               0.999999999              -0.000002623               0.000082069               0.999999999              -0.000002574               0.000084639               0.999999999              -0.000002209               0.000088648               0.999999999              -0.000001653               0.000093989               0.999999999              -0.000000880               0.000100600               0.999999999              -0.000000079               0.000108404               0.999999999               0.000000807               0.000117209               0.999999999               0.000001730               0.000127061               0.999999999               0.000002601               0.000137963               0.999999999               0.000003360               0.000149695               0.999999999               0.000004053               0.000162190               0.999999999               0.000004734               0.000175504               0.999999999               0.000005398               0.000189599               0.999999999               0.000005948               0.000204352               0.999999999               0.000006412               0.000219639               0.999999999              -0.000000081               0.000082728               0.999999999              -0.000001052               0.000082868               0.999999999              -0.000001386               0.000084069               0.999999999              -0.000001397               0.000086725               0.999999999              -0.000001227               0.000090735               0.999999999              -0.000000894               0.000096012               0.999999999              -0.000000600               0.000102494               0.999999999              -0.000000214               0.000110102               0.999999999               0.000000240               0.000118711               0.999999999               0.000000731               0.000128412               0.999999999               0.000001170               0.000139092               0.999999999               0.000001523               0.000150557               0.999999999               0.000001846               0.000162875               0.999999999               0.000002175               0.000176034               0.999999999               0.000002469               0.000189939               0.999999999               0.000002679               0.000204503               0.999999999               0.000002861               0.000219556               0.999999999               0.000000000               0.000083146               0.999999999               0.000000000               0.000083469               0.999999999              -0.000000000               0.000084785               0.999999999              -0.000000000               0.000087453               0.999999999               0.000000000               0.000091444               0.999999999              -0.000000000               0.000096757               0.999999999              -0.000000000               0.000103160               0.999999999              -0.000000000               0.000110665               0.999999999              -0.000000000               0.000119258               0.999999999              -0.000000000               0.000128876               0.999999999              -0.000000000               0.000139450               0.999999999               0.000000000               0.000150874               0.999999999               0.000000000               0.000163135               0.999999999              -0.000000000               0.000176203               0.999999999              -0.000000000               0.000190045               0.999999999               0.000000000               0.000204541               0.999999999               0.000000000               0.000219503               0.999999999 </DataArray>
<DataArray type="Float64"                                    Name="stress"                                                      NumberOfComponents="10" format="ascii">
              0.000132806               0.001527100              -0.000000000              -0.000141085               0.000556056               0.000414972               0.000000000               0.000000000               0.000000000               0.000000000               0.000158708               0.001296055              -0.000000000              -0.000102491               0.000466178               0.000363687               0.000000000               0.000000000               0.000000000               0.000000000               0.000234962               0.001110102               0.000000000              -0.000050652               0.000386914               0.000336262               0.000000000               0.000000000               0.000000000               0.000000000               0.000266397               0.001007150               0.000000000              -0.000025995               0.000344378               0.000318384               0.000000000               0.000000000               0.000000000               0.000000000               0.000283362               0.000945544              -0.000000000              -0.000011932               0.000319156               0.000307223               0.000000000               0.000000000               0.000000000               0.000000000               0.000294020               0.000904573              -0.000000000              -0.000002814               0.000302459               0.000299645               0.000000000               0.000000000               0.000000000               0.000000000               0.000297019               0.000882838               0.000000000               0.000001027               0.000293934               0.000294961               0.000000000               0.000000000               0.000000000               0.000000000               0.000293100               0.000873498               0.000000000               0.000000725               0.000290921               0.000291647               0.000000000               0.000000000               0.000000000               0.000000000               0.000285439               0.000870025              -0.000000000              -0.000001714               0.000290577               0.000288863               0.000000000               0.000000000               0.000000000               0.000000000               0.000275670               0.000867897               0.000000000              -0.000005111               0.000291000               0.000285889               0.000000000               0.000000000               0.000000000               0.000000000               0.000258020               0.000871174               0.000000000              -0.000012139               0.000294435               0.000282296               0.000000000               0.000000000               0.000000000               0.000000000               0.000226111               0.000882409               0.000000000              -0.000025510               0.000302637               0.000277127               0.000000000               0.000000000               0.000000000               0.000000000               0.000186527               0.000898587              -0.000000000              -0.000042376               0.000313651               0.000271275               0.000000000               0.000000000               0.000000000               0.000000000               0.000145951               0.000921919              -0.000000000              -0.000060508               0.000327472               0.000266964               0.000000000               0.000000000               0.000000000               0.000000000               0.000100399               0.000951090              -0.000000000              -0.000081237               0.000344106               0.000262869               0.000000000               0.000000000               0.000000000               0.000000000               0.000049570               0.000984980              -0.000000000              -0.000104533               0.000363168               0.000258634               0.000000000               0.000000000               0.000000000               0.000000000               0.000028040               0.001015131              -0.000000000              -0.000116376               0.000377166               0.000260790               0.000000000               0.000000000               0.000000000               0.000000000               0.000144614               0.001507389              -0.000117678              -0.000134193               0.000547189               0.000412996               0.000000000               0.000000000               0.000000000               0.000000000               0.000164222               0.001279025              -0.000080587              -0.000098295               0.000459102               0.000360808               0.000000000               0.000000000               0.000000000               0.000000000               0.000233941               0.001101293              -0.000042266              -0.000049933               0.000383738               0.000333805               0.000000000               0.000000000               0.000000000               0.000000000               0.000263872               0.001002281              -0.000023997              -0.000026333               0.000342868               0.000316535               0.000000000               0.000000000               0.000000000               0.000000000               0.000279464               0.000943371              -0.000015792              -0.000013122               0.000318828               0.000305706               0.000000000               0.000000000               0.000000000               0.000000000               0.000286270               0.000906781              -0.000011617              -0.000005996               0.000304256               0.000298260               0.000000000               0.000000000               0.000000000               0.000000000               0.000287955               0.000888826              -0.000009225              -0.000003120               0.000297313               0.000294192               0.000000000               0.000000000               0.000000000               0.000000000               0.000283480               0.000881399              -0.000010740              -0.000003870               0.000295087               0.000291217               0.000000000               0.000000000               0.000000000               0.000000000               0.000274262               0.000878778              -0.000016618              -0.000006999               0.000295256               0.000288257               0.000000000               0.000000000               0.000000000               0.000000000               0.000261820               0.000876305              -0.000021507              -0.000011356               0.000295884               0.000284528               0.000000000               0.000000000               0.000000000               0.000000000               0.000244634               0.000880317              -0.000020765              -0.000018302               0.000299537               0.000281235               0.000000000               0.000000000               0.000000000               0.000000000               0.000217222               0.000891207              -0.000019900              -0.000029942               0.000307047               0.000277104               0.000000000               0.000000000               0.000000000               0.000000000               0.000179916               0.000905373              -0.000019382              -0.000045703               0.000317022               0.000271319               0.000000000               0.000000000               0.000000000               0.000000000               0.000139580               0.000925510              -0.000016479              -0.000063346               0.000329616               0.000266270               0.000000000               0.000000000               0.000000000               0.000000000               0.000095285               0.000950268              -0.000012971              -0.000083052               0.000344437               0.000261385               0.000000000               0.000000000               0.000000000               0.000000000               0.000046442               0.000978012              -0.000007853              -0.000104835               0.000360946               0.000256111               0.000000000               0.000000000               0.000000000               0.000000000               0.000025327               0.001002097              -0.000005149              -0.000115764               0.000372617               0.000256853               0.000000000               0.000000000               0.000000000               0.000000000               0.000170126               0.001443423              -0.000226877              -0.000116630               0.000520013               0.000403383               0.000000000               0.000000000               0.000000000               0.000000000               0.000176587               0.001229774              -0.000154775              -0.000087501               0.000439088               0.000351586               0.000000000               0.000000000               0.000000000               0.000000000               0.000233071               0.001073078              -0.000080400              -0.000046733               0.000373267               0.000326534               0.000000000               0.000000000               0.000000000               0.000000000               0.000256111               0.000988140              -0.000046552              -0.000027476               0.000338535               0.000311059               0.000000000               0.000000000               0.000000000               0.000000000               0.000266171               0.000938155              -0.000031692              -0.000017455               0.000318534               0.000301078               0.000000000               0.000000000               0.000000000               0.000000000               0.000268139               0.000912574              -0.000023110              -0.000013520               0.000308695               0.000295175               0.000000000               0.000000000               0.000000000               0.000000000               0.000263665               0.000903287              -0.000019013              -0.000014037               0.000305772               0.000291735               0.000000000               0.000000000               0.000000000               0.000000000               0.000254280               0.000901418              -0.000021934              -0.000017322               0.000306244               0.000288922               0.000000000               0.000000000               0.000000000               0.000000000               0.000245546               0.000902024              -0.000032144              -0.000020673               0.000307563               0.000286890               0.000000000               0.000000000               0.000000000               0.000000000               0.000233413               0.000901548              -0.000039191              -0.000025164               0.000308901               0.000283737               0.000000000               0.000000000               0.000000000               0.000000000               0.000213698               0.000906183              -0.000035857              -0.000033136               0.000313103               0.000279967               0.000000000               0.000000000               0.000000000               0.000000000               0.000187398               0.000915284              -0.000033020              -0.000044136               0.000319804               0.000275667               0.000000000               0.000000000               0.000000000               0.000000000               0.000155946               0.000927337              -0.000029909              -0.000057437               0.000328255               0.000270818               0.000000000               0.000000000               0.000000000               0.000000000               0.000121359               0.000943254              -0.000023248              -0.000072397               0.000338547               0.000266150               0.000000000               0.000000000               0.000000000               0.000000000               0.000081522               0.000960752              -0.000016583              -0.000089523               0.000350088               0.000260565               0.000000000               0.000000000               0.000000000               0.000000000               0.000038538               0.000979610              -0.000008936              -0.000107999               0.000362533               0.000254534               0.000000000               0.000000000               0.000000000               0.000000000               0.000020424               0.000995973              -0.000005810              -0.000116837               0.000370934               0.000254096               0.000000000               0.000000000               0.000000000               0.000000000               0.000207788               0.001338598              -0.000317041              -0.000089404               0.000475996               0.000386592               0.000000000               0.000000000               0.000000000               0.000000000               0.000194367               0.001156940              -0.000215041              -0.000071730               0.000409553               0.000337823               0.000000000               0.000000000               0.000000000               0.000000000               0.000230677               0.001032374              -0.000111595              -0.000042543               0.000358302               0.000315759               0.000000000               0.000000000               0.000000000               0.000000000               0.000243994               0.000967457              -0.000068006              -0.000029434               0.000332294               0.000302859               0.000000000               0.000000000               0.000000000               0.000000000               0.000247632               0.000931877              -0.000047596              -0.000023622               0.000318497               0.000294874               0.000000000               0.000000000               0.000000000               0.000000000               0.000244524               0.000919684              -0.000035172              -0.000023264               0.000314313               0.000291049               0.000000000               0.000000000               0.000000000               0.000000000               0.000233694               0.000921039              -0.000029530              -0.000027495               0.000316175               0.000288680               0.000000000               0.000000000               0.000000000               0.000000000               0.000220641               0.000927134              -0.000033181              -0.000033151               0.000320092               0.000286941               0.000000000               0.000000000               0.000000000               0.000000000               0.000208982               0.000930259              -0.000045295              -0.000037914               0.000322721               0.000284807               0.000000000               0.000000000               0.000000000               0.000000000               0.000195207               0.000936743              -0.000051724              -0.000043890               0.000326874               0.000282984               0.000000000               0.000000000               0.000000000               0.000000000               0.000176495               0.000948095              -0.000045373              -0.000052326               0.000333470               0.000281144               0.000000000               0.000000000               0.000000000               0.000000000               0.000155057               0.000960716              -0.000039311              -0.000061943               0.000340883               0.000278940               0.000000000               0.000000000               0.000000000               0.000000000               0.000129274               0.000974763              -0.000033550              -0.000073367               0.000349373               0.000276006               0.000000000               0.000000000               0.000000000               0.000000000               0.000098971               0.000989892              -0.000025296              -0.000086622               0.000358835               0.000272213               0.000000000               0.000000000               0.000000000               0.000000000               0.000065062               0.001006173              -0.000017283              -0.000101373               0.000369179               0.000267806               0.000000000               0.000000000               0.000000000               0.000000000               0.000029974               0.001024280              -0.000008786              -0.000116794               0.000380355               0.000263560               0.000000000               0.000000000               0.000000000               0.000000000               0.000016881               0.001040856              -0.000006453              -0.000123776               0.000388208               0.000264431               0.000000000               0.000000000               0.000000000               0.000000000               0.000254135               0.001210999              -0.000376353              -0.000056074               0.000422354               0.000366279               0.000000000               0.000000000               0.000000000               0.000000000               0.000213982               0.001069616              -0.000257228              -0.000053459               0.000374355               0.000320896               0.000000000               0.000000000               0.000000000               0.000000000               0.000222809               0.000987723              -0.000137237              -0.000039912               0.000342542               0.000302630               0.000000000               0.000000000               0.000000000               0.000000000               0.000228639               0.000944497              -0.000086871              -0.000032323               0.000325603               0.000293281               0.000000000               0.000000000               0.000000000               0.000000000               0.000227859               0.000925636              -0.000062343              -0.000030257               0.000318628               0.000288371               0.000000000               0.000000000               0.000000000               0.000000000               0.000219090               0.000928627              -0.000047751              -0.000033920               0.000320846               0.000286926               0.000000000               0.000000000               0.000000000               0.000000000               0.000206434               0.000939806              -0.000040767              -0.000040063               0.000326620               0.000286557               0.000000000               0.000000000               0.000000000               0.000000000               0.000192732               0.000950976              -0.000045529              -0.000046597               0.000332521               0.000285924               0.000000000               0.000000000               0.000000000               0.000000000               0.000180487               0.000962298              -0.000056694              -0.000052604               0.000338298               0.000285693               0.000000000               0.000000000               0.000000000               0.000000000               0.000166505               0.000981030              -0.000058589              -0.000060189               0.000347070               0.000286881               0.000000000               0.000000000               0.000000000               0.000000000               0.000148866               0.001006001              -0.000050918              -0.000069925               0.000358639               0.000288714               0.000000000               0.000000000               0.000000000               0.000000000               0.000127362               0.001030478              -0.000044624              -0.000081049               0.000370505               0.000289457               0.000000000               0.000000000               0.000000000               0.000000000               0.000100162               0.001054810              -0.000038666              -0.000094290               0.000383030               0.000288740               0.000000000               0.000000000               0.000000000               0.000000000               0.000073681               0.001079737              -0.000030060              -0.000107336               0.000395688               0.000288351               0.000000000               0.000000000               0.000000000               0.000000000               0.000047162               0.001105717              -0.000021157              -0.000120528               0.000408745               0.000288216               0.000000000               0.000000000               0.000000000               0.000000000               0.000020018               0.001133087              -0.000011474              -0.000134129               0.000422401               0.000288272               0.000000000               0.000000000               0.000000000               0.000000000               0.000012470               0.001155371              -0.000008861              -0.000139745               0.000431702               0.000291957               0.000000000               0.000000000               0.000000000               0.000000000               0.000290861               0.001070863              -0.000408359              -0.000024785               0.000365212               0.000340427               0.000000000               0.000000000               0.000000000               0.000000000               0.000228644               0.000974500              -0.000283096              -0.000036071               0.000336854               0.000300783               0.000000000               0.000000000               0.000000000               0.000000000               0.000212906               0.000941143              -0.000155780              -0.000037803               0.000326312               0.000288509               0.000000000               0.000000000               0.000000000               0.000000000               0.000210407               0.000922904              -0.000102600              -0.000036460               0.000319785               0.000283325               0.000000000               0.000000000               0.000000000               0.000000000               0.000206714               0.000923246              -0.000075746              -0.000037888               0.000320375               0.000282487               0.000000000               0.000000000               0.000000000               0.000000000               0.000196031               0.000940169              -0.000059841              -0.000044009               0.000328056               0.000284047               0.000000000               0.000000000               0.000000000               0.000000000               0.000183413               0.000959986              -0.000053705              -0.000051218               0.000337065               0.000285847               0.000000000               0.000000000               0.000000000               0.000000000               0.000175074               0.000980020              -0.000057202              -0.000056850               0.000345620               0.000288770               0.000000000               0.000000000               0.000000000               0.000000000               0.000168618               0.001005159              -0.000064894              -0.000062413               0.000355854               0.000293441               0.000000000               0.000000000               0.000000000               0.000000000               0.000155573               0.001042417              -0.000062358              -0.000071962               0.000371456               0.000299494               0.000000000               0.000000000               0.000000000               0.000000000               0.000136934               0.001087499              -0.000052179              -0.000084587               0.000390691               0.000306105               0.000000000               0.000000000               0.000000000               0.000000000               0.000114416               0.001132798              -0.000045737              -0.000098694               0.000410494               0.000311800               0.000000000               0.000000000               0.000000000               0.000000000               0.000087900               0.001176242              -0.000039473              -0.000114068               0.000430099               0.000316032               0.000000000               0.000000000               0.000000000               0.000000000               0.000062898               0.001219868              -0.000031276              -0.000128896               0.000449584               0.000320688               0.000000000               0.000000000               0.000000000               0.000000000               0.000038421               0.001261780              -0.000021761              -0.000143314               0.000468360               0.000325046               0.000000000               0.000000000               0.000000000               0.000000000               0.000016488               0.001303375              -0.000011051              -0.000156738               0.000486700               0.000329962               0.000000000               0.000000000               0.000000000               0.000000000               0.000012747               0.001333415              -0.000008696              -0.000161896               0.000498433               0.000336536               0.000000000               0.000000000               0.000000000               0.000000000               0.000317573               0.000924137              -0.000416146               0.000003572               0.000306852               0.000310424               0.000000000               0.000000000               0.000000000               0.000000000               0.000237014               0.000879863              -0.000293594              -0.000021103               0.000300319               0.000279216               0.000000000               0.000000000               0.000000000               0.000000000               0.000202224               0.000897484              -0.000168472              -0.000036351               0.000311275               0.000274924               0.000000000               0.000000000               0.000000000               0.000000000               0.000194332               0.000906224              -0.000115782              -0.000040404               0.000315539               0.000275136               0.000000000               0.000000000               0.000000000               0.000000000               0.000187074               0.000927681              -0.000088371              -0.000045807               0.000324493               0.000278686               0.000000000               0.000000000               0.000000000               0.000000000               0.000175968               0.000958479              -0.000072285              -0.000053822               0.000337430               0.000283609               0.000000000               0.000000000               0.000000000               0.000000000               0.000169197               0.000991256              -0.000064929              -0.000060458               0.000350568               0.000290110               0.000000000               0.000000000               0.000000000               0.000000000               0.000167623               0.001027894              -0.000065412              -0.000065628               0.000364504               0.000298876               0.000000000               0.000000000               0.000000000               0.000000000               0.000166907               0.001077790              -0.000066826              -0.000072133               0.000383304               0.000311171               0.000000000               0.000000000               0.000000000               0.000000000               0.000159352               0.001141733              -0.000057782              -0.000082959               0.000408227               0.000325268               0.000000000               0.000000000               0.000000000               0.000000000               0.000141684               0.001208426              -0.000046192              -0.000097921               0.000435445               0.000337524               0.000000000               0.000000000               0.000000000               0.000000000               0.000117172               0.001270400              -0.000040913              -0.000114860               0.000461749               0.000346889               0.000000000               0.000000000               0.000000000               0.000000000               0.000089373               0.001328586              -0.000034687              -0.000132558               0.000487044               0.000354485               0.000000000               0.000000000               0.000000000               0.000000000               0.000064615               0.001387187              -0.000027039              -0.000149167               0.000512113               0.000362946               0.000000000               0.000000000               0.000000000               0.000000000               0.000042754               0.001443305              -0.000019172              -0.000164380               0.000535890               0.000371510               0.000000000               0.000000000               0.000000000               0.000000000               0.000022127               0.001492733              -0.000009102              -0.000178293               0.000557004               0.000378710               0.000000000               0.000000000               0.000000000               0.000000000               0.000017393               0.001524324              -0.000007008              -0.000184018               0.000569442               0.000385424               0.000000000               0.000000000               0.000000000               0.000000000               0.000336425               0.000783709              -0.000399209               0.000028195               0.000251835               0.000280030               0.000000000               0.000000000               0.000000000               0.000000000               0.000241229               0.000792491              -0.000290897              -0.000008601               0.000267028               0.000258427               0.000000000               0.000000000               0.000000000               0.000000000               0.000192527               0.000860244              -0.000177647              -0.000035333               0.000298523               0.000263190               0.000000000               0.000000000               0.000000000               0.000000000               0.000181749               0.000896325              -0.000125949              -0.000043885               0.000313400               0.000269516               0.000000000               0.000000000               0.000000000               0.000000000               0.000172988               0.000940652              -0.000099294              -0.000052711               0.000331118               0.000278407               0.000000000               0.000000000               0.000000000               0.000000000               0.000164252               0.000990427              -0.000082543              -0.000062209               0.000350875               0.000288667               0.000000000               0.000000000               0.000000000               0.000000000               0.000164712               0.001045487              -0.000072101              -0.000068919               0.000371465               0.000302546               0.000000000               0.000000000               0.000000000               0.000000000               0.000173668               0.001112058              -0.000065824              -0.000073881               0.000395309               0.000321428               0.000000000               0.000000000               0.000000000               0.000000000               0.000178811               0.001191475              -0.000060675              -0.000081880               0.000424448               0.000342568               0.000000000               0.000000000               0.000000000               0.000000000               0.000169203               0.001274318              -0.000050294              -0.000095838               0.000456714               0.000360876               0.000000000               0.000000000               0.000000000               0.000000000               0.000148517               0.001352765              -0.000040277              -0.000113401               0.000488718               0.000375316               0.000000000               0.000000000               0.000000000               0.000000000               0.000124389               0.001424212              -0.000036432              -0.000131381               0.000518526               0.000387146               0.000000000               0.000000000               0.000000000               0.000000000               0.000096713               0.001491274              -0.000029860              -0.000150142               0.000547134               0.000396992               0.000000000               0.000000000               0.000000000               0.000000000               0.000071013               0.001555105              -0.000019848              -0.000167758               0.000574282               0.000406525               0.000000000               0.000000000               0.000000000               0.000000000               0.000049238               0.001615677              -0.000012169              -0.000183495               0.000599719               0.000416224               0.000000000               0.000000000               0.000000000               0.000000000               0.000026402               0.001667646              -0.000006351              -0.000198555               0.000622061               0.000423507               0.000000000               0.000000000               0.000000000               0.000000000               0.000018631               0.001699445              -0.000006533              -0.000205443               0.000634957               0.000429514               0.000000000               0.000000000               0.000000000               0.000000000               0.000343167               0.000661204              -0.000367425               0.000046036               0.000205054               0.000251090               0.000000000               0.000000000               0.000000000               0.000000000               0.000244987               0.000715892              -0.000282236               0.000002383               0.000237834               0.000240217               0.000000000               0.000000000               0.000000000               0.000000000               0.000187422               0.000827568              -0.000186506              -0.000033163               0.000286907               0.000253745               0.000000000               0.000000000               0.000000000               0.000000000               0.000175371               0.000890935              -0.000136914              -0.000045603               0.000312176               0.000266573               0.000000000               0.000000000               0.000000000               0.000000000               0.000166785               0.000956504              -0.000110107              -0.000057018               0.000337837               0.000280819               0.000000000               0.000000000               0.000000000               0.000000000               0.000163753               0.001028267              -0.000090552              -0.000067126               0.000365128               0.000298002               0.000000000               0.000000000               0.000000000               0.000000000               0.000173972               0.001109591              -0.000075061              -0.000073459               0.000394346               0.000320887               0.000000000               0.000000000               0.000000000               0.000000000               0.000191913               0.001198931              -0.000063965              -0.000077899               0.000425606               0.000347707               0.000000000               0.000000000               0.000000000               0.000000000               0.000198515               0.001290564              -0.000055659              -0.000086877               0.000459143               0.000372266               0.000000000               0.000000000               0.000000000               0.000000000               0.000187568               0.001385445              -0.000047060              -0.000102842               0.000496091               0.000393249               0.000000000               0.000000000               0.000000000               0.000000000               0.000167435               0.001471201              -0.000038813              -0.000121111               0.000530766               0.000409654               0.000000000               0.000000000               0.000000000               0.000000000               0.000143830               0.001544863              -0.000032825              -0.000139171               0.000561340               0.000422168               0.000000000               0.000000000               0.000000000               0.000000000               0.000116239               0.001614057              -0.000024454              -0.000158167               0.000590736               0.000432569               0.000000000               0.000000000               0.000000000               0.000000000               0.000090344               0.001681799              -0.000013490              -0.000176345               0.000619376               0.000443031               0.000000000               0.000000000               0.000000000               0.000000000               0.000068519               0.001746090              -0.000004603              -0.000192566               0.000646213               0.000453647               0.000000000               0.000000000               0.000000000               0.000000000               0.000046840               0.001805601              -0.000000106              -0.000208134               0.000671239               0.000463105               0.000000000               0.000000000               0.000000000               0.000000000               0.000035335               0.001839670               0.000000080              -0.000216708               0.000685453               0.000468745               0.000000000               0.000000000               0.000000000               0.000000000               0.000336386               0.000534876              -0.000328342               0.000059285               0.000158528               0.000217813               0.000000000               0.000000000               0.000000000               0.000000000               0.000246496               0.000621598              -0.000272143               0.000014736               0.000202285               0.000217021               0.000000000               0.000000000               0.000000000               0.000000000               0.000187936               0.000768421              -0.000200882              -0.000025577               0.000264663               0.000239087               0.000000000               0.000000000               0.000000000               0.000000000               0.000178993               0.000859043              -0.000155212              -0.000040258               0.000299764               0.000259506               0.000000000               0.000000000               0.000000000               0.000000000               0.000174356               0.000941722              -0.000127208              -0.000052332               0.000331348               0.000279016               0.000000000               0.000000000               0.000000000               0.000000000               0.000175620               0.001032495              -0.000106435              -0.000063204               0.000365230               0.000302025               0.000000000               0.000000000               0.000000000               0.000000000               0.000189114               0.001129960              -0.000090765              -0.000070327               0.000400092               0.000329765               0.000000000               0.000000000               0.000000000               0.000000000               0.000211735               0.001228422              -0.000077542              -0.000074152               0.000434187               0.000360035               0.000000000               0.000000000               0.000000000               0.000000000               0.000227856               0.001325732              -0.000063774              -0.000080270               0.000468663               0.000388393               0.000000000               0.000000000               0.000000000               0.000000000               0.000225847               0.001421375              -0.000053174              -0.000092979               0.000504780               0.000411801               0.000000000               0.000000000               0.000000000               0.000000000               0.000209287               0.001507323              -0.000045617              -0.000109932               0.000539080               0.000429148               0.000000000               0.000000000               0.000000000               0.000000000               0.000186300               0.001579967              -0.000036318              -0.000127633               0.000569195               0.000441562               0.000000000               0.000000000               0.000000000               0.000000000               0.000159064               0.001646879              -0.000025445              -0.000146211               0.000597691               0.000451481               0.000000000               0.000000000               0.000000000               0.000000000               0.000133302               0.001718246              -0.000016434              -0.000164792               0.000627674               0.000462882               0.000000000               0.000000000               0.000000000               0.000000000               0.000112594               0.001790547              -0.000006950              -0.000181595               0.000657375               0.000475780               0.000000000               0.000000000               0.000000000               0.000000000               0.000096206               0.001867142               0.000000875              -0.000197315               0.000688146               0.000490831               0.000000000               0.000000000               0.000000000               0.000000000               0.000083575               0.001905172               0.000005511              -0.000206805               0.000703986               0.000497181               0.000000000               0.000000000               0.000000000               0.000000000               0.000315406               0.000412812              -0.000278458               0.000066675               0.000115378               0.000182053               0.000000000               0.000000000               0.000000000               0.000000000               0.000247262               0.000524821              -0.000254657               0.000027120               0.000165898               0.000193019               0.000000000               0.000000000               0.000000000               0.000000000               0.000198367               0.000699684              -0.000212757              -0.000013073               0.000237583               0.000224510               0.000000000               0.000000000               0.000000000               0.000000000               0.000190849               0.000811882              -0.000173334              -0.000029917               0.000280597               0.000250680               0.000000000               0.000000000               0.000000000               0.000000000               0.000191974               0.000910204              -0.000146193              -0.000041785               0.000317327               0.000275541               0.000000000               0.000000000               0.000000000               0.000000000               0.000198076               0.001014776              -0.000125634              -0.000052569               0.000355778               0.000303210               0.000000000               0.000000000               0.000000000               0.000000000               0.000212410               0.001124166              -0.000109512              -0.000060867               0.000395007               0.000334140               0.000000000               0.000000000               0.000000000               0.000000000               0.000232471               0.001233619              -0.000092976              -0.000067026               0.000433544               0.000366519               0.000000000               0.000000000               0.000000000               0.000000000               0.000252693               0.001334037              -0.000075060              -0.000071995               0.000468673               0.000396678               0.000000000               0.000000000               0.000000000               0.000000000               0.000260909               0.001422768              -0.000060512              -0.000080005               0.000500919               0.000420915               0.000000000               0.000000000               0.000000000               0.000000000               0.000253159               0.001505403              -0.000049941              -0.000093240               0.000532876               0.000439636               0.000000000               0.000000000               0.000000000               0.000000000               0.000237211               0.001583279              -0.000039130              -0.000108956               0.000564073               0.000455117               0.000000000               0.000000000               0.000000000               0.000000000               0.000218277               0.001655138              -0.000028280              -0.000125038               0.000593386               0.000468348               0.000000000               0.000000000               0.000000000               0.000000000               0.000195462               0.001721722              -0.000020829              -0.000141917               0.000621207               0.000479291               0.000000000               0.000000000               0.000000000               0.000000000               0.000172486               0.001789006              -0.000011636              -0.000158943               0.000649311               0.000490367               0.000000000               0.000000000               0.000000000               0.000000000               0.000155905               0.001865746              -0.000002754              -0.000174754               0.000680160               0.000505407               0.000000000               0.000000000               0.000000000               0.000000000               0.000140318               0.001898796               0.000004058              -0.000184730               0.000694502               0.000509772               0.000000000               0.000000000               0.000000000               0.000000000               0.000277226               0.000305571              -0.000222381               0.000065763               0.000079935               0.000145697               0.000000000               0.000000000               0.000000000               0.000000000               0.000244080               0.000431912              -0.000227483               0.000037541               0.000131456               0.000168996               0.000000000               0.000000000               0.000000000               0.000000000               0.000214168               0.000619873              -0.000212866               0.000002829               0.000205679               0.000208508               0.000000000               0.000000000               0.000000000               0.000000000               0.000211118               0.000750563              -0.000183288              -0.000014651               0.000255069               0.000240418               0.000000000               0.000000000               0.000000000               0.000000000               0.000218555               0.000867747              -0.000160503              -0.000026510               0.000298083               0.000271573               0.000000000               0.000000000               0.000000000               0.000000000               0.000228231               0.000986961              -0.000141435              -0.000037784               0.000341578               0.000303795               0.000000000               0.000000000               0.000000000               0.000000000               0.000239304               0.001109809              -0.000124250              -0.000048987               0.000386262               0.000337274               0.000000000               0.000000000               0.000000000               0.000000000               0.000255336               0.001228475              -0.000106439              -0.000057808               0.000428757               0.000370949               0.000000000               0.000000000               0.000000000               0.000000000               0.000273105               0.001328521              -0.000086028              -0.000063650               0.000464053               0.000400402               0.000000000               0.000000000               0.000000000               0.000000000               0.000284579               0.001410974              -0.000066148              -0.000069654               0.000493538               0.000423884               0.000000000               0.000000000               0.000000000               0.000000000               0.000287925               0.001494142              -0.000052339              -0.000078796               0.000524308               0.000445512               0.000000000               0.000000000               0.000000000               0.000000000               0.000284256               0.001580870              -0.000041996              -0.000091012               0.000557289               0.000466277               0.000000000               0.000000000               0.000000000               0.000000000               0.000276368               0.001658659              -0.000032529              -0.000103694               0.000587445               0.000483751               0.000000000               0.000000000               0.000000000               0.000000000               0.000262432               0.001727591              -0.000024033              -0.000117537               0.000615037               0.000497500               0.000000000               0.000000000               0.000000000               0.000000000               0.000244390               0.001796588              -0.000017376              -0.000132927               0.000643166               0.000510239               0.000000000               0.000000000               0.000000000               0.000000000               0.000227766               0.001869247              -0.000010286              -0.000148243               0.000672490               0.000524247               0.000000000               0.000000000               0.000000000               0.000000000               0.000209097               0.001899205              -0.000002126              -0.000158989               0.000686058               0.000527069               0.000000000               0.000000000               0.000000000               0.000000000               0.000231170               0.000215953              -0.000167303               0.000059694               0.000052086               0.000111780               0.000000000               0.000000000               0.000000000               0.000000000               0.000237928               0.000345562              -0.000192314               0.000046027               0.000099844               0.000145871               0.000000000               0.000000000               0.000000000               0.000000000               0.000232914               0.000535261              -0.000198790               0.000020435               0.000171607               0.000192042               0.000000000               0.000000000               0.000000000               0.000000000               0.000239781               0.000683564              -0.000181446               0.000004472               0.000226362               0.000230834               0.000000000               0.000000000               0.000000000               0.000000000               0.000250741               0.000818482              -0.000163690              -0.000008282               0.000275585               0.000267303               0.000000000               0.000000000               0.000000000               0.000000000               0.000261059               0.000951036              -0.000145420              -0.000020983               0.000324003               0.000303020               0.000000000               0.000000000               0.000000000               0.000000000               0.000271167               0.001082429              -0.000129138              -0.000033616               0.000372011               0.000338396               0.000000000               0.000000000               0.000000000               0.000000000               0.000282707               0.001202650              -0.000112203              -0.000044316               0.000415651               0.000371335               0.000000000               0.000000000               0.000000000               0.000000000               0.000292683               0.001298651              -0.000090933              -0.000052575               0.000450405               0.000397829               0.000000000               0.000000000               0.000000000               0.000000000               0.000304666               0.001385356              -0.000069677              -0.000058920               0.000481421               0.000422501               0.000000000               0.000000000               0.000000000               0.000000000               0.000318879               0.001480242              -0.000054157              -0.000065451               0.000515226               0.000449775               0.000000000               0.000000000               0.000000000               0.000000000               0.000327796               0.001574760              -0.000044233              -0.000073921               0.000549555               0.000475634               0.000000000               0.000000000               0.000000000               0.000000000               0.000330755               0.001659559              -0.000036151              -0.000083412               0.000580985               0.000497573               0.000000000               0.000000000               0.000000000               0.000000000               0.000329500               0.001737859              -0.000027567              -0.000093670               0.000610504               0.000516834               0.000000000               0.000000000               0.000000000               0.000000000               0.000322885               0.001810503              -0.000021319              -0.000105231               0.000638572               0.000533341               0.000000000               0.000000000               0.000000000               0.000000000               0.000310144               0.001878829              -0.000013235              -0.000118549               0.000665786               0.000547237               0.000000000               0.000000000               0.000000000               0.000000000               0.000294550               0.001908385              -0.000004814              -0.000128091               0.000678819               0.000550728               0.000000000               0.000000000               0.000000000               0.000000000               0.000186080               0.000149668              -0.000115675               0.000051071               0.000032865               0.000083936               0.000000000               0.000000000               0.000000000               0.000000000               0.000229521               0.000272060              -0.000149318               0.000052062               0.000073332               0.000125394               0.000000000               0.000000000               0.000000000               0.000000000               0.000254420               0.000456415              -0.000169564               0.000038355               0.000139352               0.000177707               0.000000000               0.000000000               0.000000000               0.000000000               0.000272318               0.000617611              -0.000163233               0.000024918               0.000197562               0.000222480               0.000000000               0.000000000               0.000000000               0.000000000               0.000284489               0.000765683              -0.000149024               0.000010973               0.000251567               0.000262540               0.000000000               0.000000000               0.000000000               0.000000000               0.000294826               0.000905070              -0.000133564              -0.000002574               0.000302545               0.000299971               0.000000000               0.000000000               0.000000000               0.000000000               0.000305750               0.001037272              -0.000119840              -0.000015003               0.000350755               0.000335752               0.000000000               0.000000000               0.000000000               0.000000000               0.000311178               0.001156336              -0.000103478              -0.000027850               0.000394725               0.000366875               0.000000000               0.000000000               0.000000000               0.000000000               0.000316370               0.001258150              -0.000084500              -0.000038630               0.000432256               0.000393626               0.000000000               0.000000000               0.000000000               0.000000000               0.000330350               0.001360778              -0.000067492              -0.000046216               0.000468993               0.000422778               0.000000000               0.000000000               0.000000000               0.000000000               0.000350139               0.001466897              -0.000053826              -0.000052060               0.000506314               0.000454254               0.000000000               0.000000000               0.000000000               0.000000000               0.000366478               0.001563981              -0.000043733              -0.000058068               0.000540678               0.000482610               0.000000000               0.000000000               0.000000000               0.000000000               0.000377624               0.001653869              -0.000035501              -0.000065124               0.000572992               0.000507868               0.000000000               0.000000000               0.000000000               0.000000000               0.000386769               0.001739317              -0.000027478              -0.000072376               0.000603892               0.000531516               0.000000000               0.000000000               0.000000000               0.000000000               0.000391910               0.001815851              -0.000019763              -0.000080015               0.000631949               0.000551934               0.000000000               0.000000000               0.000000000               0.000000000               0.000390939               0.001885564              -0.000010646              -0.000089093               0.000658213               0.000569120               0.000000000               0.000000000               0.000000000               0.000000000               0.000384562               0.001916819              -0.000003840              -0.000095392               0.000670731               0.000575339               0.000000000               0.000000000               0.000000000               0.000000000               0.000143356               0.000104265              -0.000070511               0.000040725               0.000021179               0.000061905               0.000000000               0.000000000               0.000000000               0.000000000               0.000220771               0.000214876              -0.000101662               0.000055929               0.000052982               0.000108911               0.000000000               0.000000000               0.000000000               0.000000000               0.000276095               0.000392484              -0.000124729               0.000054475               0.000112668               0.000167143               0.000000000               0.000000000               0.000000000               0.000000000               0.000301324               0.000560452              -0.000124069               0.000042940               0.000172502               0.000215442               0.000000000               0.000000000               0.000000000               0.000000000               0.000314839               0.000712850              -0.000114938               0.000028958               0.000227961               0.000256919               0.000000000               0.000000000               0.000000000               0.000000000               0.000326911               0.000855656              -0.000104257               0.000015635               0.000280004               0.000295639               0.000000000               0.000000000               0.000000000               0.000000000               0.000333388               0.000989309              -0.000092279               0.000001357               0.000329314               0.000330671               0.000000000               0.000000000               0.000000000               0.000000000               0.000336971               0.001108637              -0.000079449              -0.000012215               0.000373614               0.000361398               0.000000000               0.000000000               0.000000000               0.000000000               0.000344314               0.001221345              -0.000067607              -0.000023550               0.000414961               0.000391411               0.000000000               0.000000000               0.000000000               0.000000000               0.000361055               0.001339972              -0.000056699              -0.000032101               0.000457353               0.000425252               0.000000000               0.000000000               0.000000000               0.000000000               0.000379351               0.001448778              -0.000045147              -0.000038841               0.000495868               0.000457027               0.000000000               0.000000000               0.000000000               0.000000000               0.000395204               0.001543446              -0.000034555              -0.000044729               0.000529387               0.000484658               0.000000000               0.000000000               0.000000000               0.000000000               0.000411694               0.001638030              -0.000027048              -0.000050368               0.000562794               0.000512426               0.000000000               0.000000000               0.000000000               0.000000000               0.000429423               0.001732378              -0.000021236              -0.000055514               0.000595958               0.000540445               0.000000000               0.000000000               0.000000000               0.000000000               0.000444928               0.001817218              -0.000014439              -0.000060304               0.000625835               0.000565531               0.000000000               0.000000000               0.000000000               0.000000000               0.000456433               0.001888475              -0.000006906              -0.000064897               0.000651118               0.000586221               0.000000000               0.000000000               0.000000000               0.000000000               0.000459215               0.001918946              -0.000002481              -0.000067663               0.000662196               0.000594534               0.000000000               0.000000000               0.000000000               0.000000000               0.000111976               0.000076522              -0.000031956               0.000032425               0.000014699               0.000047124               0.000000000               0.000000000               0.000000000               0.000000000               0.000214975               0.000179150              -0.000051262               0.000058221               0.000040309               0.000098530               0.000000000               0.000000000               0.000000000               0.000000000               0.000291506               0.000350726              -0.000066622               0.000065473               0.000095083               0.000160556               0.000000000               0.000000000               0.000000000               0.000000000               0.000322718               0.000520028              -0.000067007               0.000056015               0.000154669               0.000210684               0.000000000               0.000000000               0.000000000               0.000000000               0.000337427               0.000674526              -0.000063467               0.000042219               0.000210767               0.000252986               0.000000000               0.000000000               0.000000000               0.000000000               0.000346778               0.000818114              -0.000057548               0.000027777               0.000263443               0.000291220               0.000000000               0.000000000               0.000000000               0.000000000               0.000352860               0.000951770              -0.000049652               0.000013351               0.000312803               0.000326154               0.000000000               0.000000000               0.000000000               0.000000000               0.000359756               0.001075379              -0.000043604               0.000000486               0.000358294               0.000358780               0.000000000               0.000000000               0.000000000               0.000000000               0.000369449               0.001197535              -0.000038891              -0.000011149               0.000402891               0.000391742               0.000000000               0.000000000               0.000000000               0.000000000               0.000382872               0.001319465              -0.000032878              -0.000021356               0.000446936               0.000425580               0.000000000               0.000000000               0.000000000               0.000000000               0.000396388               0.001425723              -0.000024914              -0.000029570               0.000485093               0.000455523               0.000000000               0.000000000               0.000000000               0.000000000               0.000413029               0.001524812              -0.000018348              -0.000035715               0.000520171               0.000484455               0.000000000               0.000000000               0.000000000               0.000000000               0.000434549               0.001627547              -0.000014711              -0.000040488               0.000556006               0.000515519               0.000000000               0.000000000               0.000000000               0.000000000               0.000456716               0.001726140              -0.000011650              -0.000044499               0.000590207               0.000545708               0.000000000               0.000000000               0.000000000               0.000000000               0.000477308               0.001814214              -0.000007262              -0.000047786               0.000620661               0.000572875               0.000000000               0.000000000               0.000000000               0.000000000               0.000495501               0.001886135              -0.000003036              -0.000049954               0.000645357               0.000595403               0.000000000               0.000000000               0.000000000               0.000000000               0.000502998               0.001916229              -0.000001027              -0.000050904               0.000655705               0.000604800               0.000000000               0.000000000               0.000000000               0.000000000               0.000100980               0.000068096              -0.000000000               0.000029355               0.000012913               0.000042269               0.000000000               0.000000000               0.000000000               0.000000000               0.000213276               0.000168530               0.000000000               0.000058912               0.000036539               0.000095450               0.000000000               0.000000000               0.000000000               0.000000000               0.000296960               0.000336337              -0.000000000               0.000069317               0.000089005               0.000158323               0.000000000               0.000000000               0.000000000               0.000000000               0.000331333               0.000504468               0.000000000               0.000061191               0.000147757               0.000208948               0.000000000               0.000000000               0.000000000               0.000000000               0.000346217               0.000661582               0.000000000               0.000047133               0.000204814               0.000251947               0.000000000               0.000000000               0.000000000               0.000000000               0.000351980               0.000803779              -0.000000000               0.000031520               0.000257417               0.000288937               0.000000000               0.000000000               0.000000000               0.000000000               0.000361196               0.000936083              -0.000000000               0.000018438               0.000305878               0.000324316               0.000000000               0.000000000               0.000000000               0.000000000               0.000370183               0.001064272              -0.000000000               0.000005785               0.000352826               0.000358610               0.000000000               0.000000000               0.000000000               0.000000000               0.000378861               0.001189138              -0.000000000              -0.000006569               0.000398565               0.000391996               0.000000000               0.000000000               0.000000000               0.000000000               0.000389012               0.001308803              -0.000000000              -0.000017721               0.000442170               0.000424449               0.000000000               0.000000000               0.000000000               0.000000000               0.000402027               0.001416670              -0.000000000              -0.000026324               0.000480993               0.000454670               0.000000000               0.000000000               0.000000000               0.000000000               0.000420481               0.001519678               0.000000000              -0.000032279               0.000517314               0.000485035               0.000000000               0.000000000               0.000000000               0.000000000               0.000442865               0.001623368               0.000000000              -0.000036847               0.000553399               0.000516553               0.000000000               0.000000000               0.000000000               0.000000000               0.000465503               0.001722614              -0.000000000              -0.000040763               0.000587787               0.000547024               0.000000000               0.000000000               0.000000000               0.000000000               0.000487857               0.001812295               0.000000000              -0.000043590               0.000618623               0.000575032               0.000000000               0.000000000               0.000000000               0.000000000               0.000508063               0.001884300               0.000000000              -0.000045014               0.000643098               0.000598085               0.000000000               0.000000000               0.000000000               0.000000000               0.000516559               0.001914097               0.000000000              -0.000045552               0.000653210               0.000607658               0.000000000               0.000000000               0.000000000               0.000000000               0.000000000               0.000000000               0.000000000               0.000000000               0.000000000               0.000000000               0.000000000               0.000000000               0.000000000               0.000000000               0.000000000               0.000000000               0.000000000               0.000000000               0.000000000               0.000000000               0.000000000               0.000000000               0.000000000               0.000000000               0.000000000               0.000000000               0.000000000               0.000000000               0.000000000               0.000000000               0.000000000               0.000000000               0.000000000               0.000000000               0.000000000               0.000000000               0.000000000               0.000000000               0.000000000               0.000000000               0.000000000               0.000000000               0.000000000               0.000000000               0.000000000               0.000000000               0.000000000               0.000000000               0.000000000               0.000000000               0.000000000               0.000000000               0.000000000               0.000000000               0.000000000               0.000000000               0.000000000               0.000000000               0.000000000               0.000000000               0.000000000               0.000000000               0.000000000               0.000000000               0.000000000               0.000000000               0.000000000               0.000000000               0.000000000               0.000000000               0.000000000               0.000000000               0.000000000               0.000000000               0.000000000               0.000000000               0.000000000               0.000000000               0.000000000               0.000000000               0.000000000               0.000000000               0.000000000               0.000000000               0.000000000               0.000000000               0.000000000               0.000000000               0.000000000               0.000000000               0.000000000               0.000000000               0.000000000               0.000000000               0.000000000               0.000000000               0.000000000               0.000000000               0.000000000               0.000000000               0.000000000               0.000000000               0.000000000               0.000000000               0.000000000               0.000000000               0.000000000               0.000000000               0.000000000               0.000000000               0.000000000               0.000000000               0.000000000               0.000000000               0.000000000               0.000000000               0.000000000               0.000000000               0.000000000               0.000000000               0.000000000               0.000000000               0.000000000               0.000000000               0.000000000               0.000000000               0.000000000               0.000000000               0.000000000               0.000000000               0.000000000               0.000000000               0.000000000               0.000000000               0.000000000               0.000000000               0.000000000               0.000000000               0.000000000               0.000000000               0.000000000               0.000000000               0.000000000               0.000000000               0.000000000               0.000000000               0.000000000               0.000000000               0.000000000               0.000000000               0.000000000               0.000000000               0.000000000               0.000000000               0.000000000               0.000000000               0.000000000               0.000000000               0.000000000               0.000000000               0.000000000               0.000000000               0.000000000               0.000000000               0.000000000               0.000000000               0.000000000               0.000000000               0.000000000               0.000000000               0.000000000               0.000000000               0.000000000               0.000000000               0.000144614               0.001507389               0.000117678              -0.000134193               0.000547189               0.000412996               0.000000000               0.000000000               0.000000000               0.000000000               0.000164222               0.001279025               0.000080587              -0.000098295               0.000459102               0.000360808               0.000000000               0.000000000               0.000000000               0.000000000               0.000233941               0.001101293               0.000042266              -0.000049933               0.000383738               0.000333805               0.000000000               0.000000000               0.000000000               0.000000000               0.000263872               0.001002281               0.000023997              -0.000026333               0.000342868               0.000316535               0.000000000               0.000000000               0.000000000               0.000000000               0.000279464               0.000943371               0.000015792              -0.000013122               0.000318828               0.000305706               0.000000000               0.000000000               0.000000000               0.000000000               0.000286270               0.000906781               0.000011617              -0.000005996               0.000304256               0.000298260               0.000000000               0.000000000               0.000000000               0.000000000               0.000287955               0.000888826               0.000009225              -0.000003120               0.000297313               0.000294192               0.000000000               0.000000000               0.000000000               0.000000000               0.000283480               0.000881399               0.000010740              -0.000003870               0.000295087               0.000291217               0.000000000               0.000000000               0.000000000               0.000000000               0.000274262               0.000878778               0.000016618              -0.000006999               0.000295256               0.000288257               0.000000000               0.000000000               0.000000000               0.000000000               0.000261820               0.000876305               0.000021507              -0.000011356               0.000295884               0.000284528               0.000000000               0.000000000               0.000000000               0.000000000               0.000244634               0.000880317               0.000020765              -0.000018302               0.000299537               0.000281235               0.000000000               0.000000000               0.000000000               0.000000000               0.000217222               0.000891207               0.000019900              -0.000029942               0.000307047               0.000277104               0.000000000               0.000000000               0.000000000               0.000000000               0.000179916               0.000905373               0.000019382              -0.000045703               0.000317022               0.000271319               0.000000000               0.000000000               0.000000000               0.000000000               0.000139580               0.000925510               0.000016479              -0.000063346               0.000329616               0.000266270               0.000000000               0.000000000               0.000000000               0.000000000               0.000095285               0.000950268               0.000012971              -0.000083052               0.000344437               0.000261385               0.000000000               0.000000000               0.000000000               0.000000000               0.000046442               0.000978012               0.000007853              -0.000104835               0.000360946               0.000256111               0.000000000               0.000000000               0.000000000               0.000000000               0.000025327               0.001002097               0.000005149              -0.000115764               0.000372617               0.000256853               0.000000000               0.000000000               0.000000000               0.000000000               0.000170126               0.001443423               0.000226877              -0.000116630               0.000520013               0.000403383               0.000000000               0.000000000               0.000000000               0.000000000               0.000176587               0.001229774               0.000154775              -0.000087501               0.000439088               0.000351586               0.000000000               0.000000000               0.000000000               0.000000000               0.000233071               0.001073078               0.000080400              -0.000046733               0.000373267               0.000326534               0.000000000               0.000000000               0.000000000               0.000000000               0.000256111               0.000988140               0.000046552              -0.000027476               0.000338535               0.000311059               0.000000000               0.000000000               0.000000000               0.000000000               0.000266171               0.000938155               0.000031692              -0.000017455               0.000318534               0.000301078               0.000000000               0.000000000               0.000000000               0.000000000               0.000268139               0.000912574               0.000023110              -0.000013520               0.000308695               0.000295175               0.000000000               0.000000000               0.000000000               0.000000000               0.000263665               0.000903287               0.000019013              -0.000014037               0.000305772               0.000291735               0.000000000               0.000000000               0.000000000               0.000000000               0.000254280               0.000901418               0.000021934              -0.000017322               0.000306244               0.000288922               0.000000000               0.000000000               0.000000000               0.000000000               0.000245546               0.000902024               0.000032144              -0.000020673               0.000307563               0.000286890               0.000000000               0.000000000               0.000000000               0.000000000               0.000233413               0.000901548               0.000039191              -0.000025164               0.000308901               0.000283737               0.000000000               0.000000000               0.000000000               0.000000000               0.000213698               0.000906183               0.000035857              -0.000033136               0.000313103               0.000279967               0.000000000               0.000000000               0.000000000               0.000000000               0.000187398               0.000915284               0.000033020              -0.000044136               0.000319804               0.000275667               0.000000000               0.000000000               0.000000000               0.000000000               0.000155946               0.000927337               0.000029909              -0.000057437               0.000328255               0.000270818               0.000000000               0.000000000               0.000000000               0.000000000               0.000121359               0.000943254               0.000023248              -0.000072397               0.000338547               0.000266150               0.000000000               0.000000000               0.000000000               0.000000000               0.000081522               0.000960752               0.000016583              -0.000089523               0.000350088               0.000260565               0.000000000               0.000000000               0.000000000               0.000000000               0.000038538               0.000979610               0.000008936              -0.000107999               0.000362533               0.000254534               0.000000000               0.000000000               0.000000000               0.000000000               0.000020424               0.000995973               0.000005810              -0.000116837               0.000370934               0.000254096               0.000000000               0.000000000               0.000000000               0.000000000               0.000207788               0.001338598               0.000317041              -0.000089404               0.000475996               0.000386592               0.000000000               0.000000000               0.000000000               0.000000000               0.000194367               0.001156940               0.000215041              -0.000071730               0.000409553               0.000337823               0.000000000               0.000000000               0.000000000               0.000000000               0.000230677               0.001032374               0.000111595              -0.000042543               0.000358302               0.000315759               0.000000000               0.000000000               0.000000000               0.000000000               0.000243994               0.000967457               0.000068006              -0.000029434               0.000332294               0.000302859               0.000000000               0.000000000               0.000000000               0.000000000               0.000247632               0.000931877               0.000047596              -0.000023622               0.000318497               0.000294874               0.000000000               0.000000000               0.000000000               0.000000000               0.000244524               0.000919684               0.000035172              -0.000023264               0.000314313               0.000291049               0.000000000               0.000000000               0.000000000               0.000000000               0.000233694               0.000921039               0.000029530              -0.000027495               0.000316175               0.000288680               0.000000000               0.000000000               0.000000000               0.000000000               0.000220641               0.000927134               0.000033181              -0.000033151               0.000320092               0.000286941               0.000000000               0.000000000               0.000000000               0.000000000               0.000208982               0.000930259               0.000045295              -0.000037914               0.000322721               0.000284807               0.000000000               0.000000000               0.000000000               0.000000000               0.000195207               0.000936743               0.000051724              -0.000043890               0.000326874               0.000282984               0.000000000               0.000000000               0.000000000               0.000000000               0.000176495               0.000948095               0.000045373              -0.000052326               0.000333470               0.000281144               0.000000000               0.000000000               0.000000000               0.000000000               0.000155057               0.000960716               0.000039311              -0.000061943               0.000340883               0.000278940               0.000000000               0.000000000               0.000000000               0.000000000               0.000129274               0.000974763               0.000033550              -0.000073367               0.000349373               0.000276006               0.000000000               0.000000000               0.000000000               0.000000000               0.000098971               0.000989892               0.000025296              -0.000086622               0.000358835               0.000272213               0.000000000               0.000000000               0.000000000               0.000000000               0.000065062               0.001006173               0.000017283              -0.000101373               0.000369179               0.000267806               0.000000000               0.000000000               0.000000000               0.000000000               0.000029974               0.001024280               0.000008786              -0.000116794               0.000380355               0.000263560               0.000000000               0.000000000               0.000000000               0.000000000               0.000016881               0.001040856               0.000006453              -0.000123776               0.000388208               0.000264431               0.000000000               0.000000000               0.000000000               0.000000000               0.000254135               0.001210999               0.000376353              -0.000056074               0.000422354               0.000366279               0.000000000               0.000000000               0.000000000               0.000000000               0.000213982               0.001069616               0.000257228              -0.000053459               0.000374355               0.000320896               0.000000000               0.000000000               0.000000000               0.000000000               0.000222809               0.000987723               0.000137237              -0.000039912               0.000342542               0.000302630               0.000000000               0.000000000               0.000000000               0.000000000               0.000228639               0.000944497               0.000086871              -0.000032323               0.000325603               0.000293281               0.000000000               0.000000000               0.000000000               0.000000000               0.000227859               0.000925636               0.000062343              -0.000030257               0.000318628               0.000288371               0.000000000               0.000000000               0.000000000               0.000000000               0.000219090               0.000928627               0.000047751              -0.000033920               0.000320846               0.000286926               0.000000000               0.000000000               0.000000000               0.000000000               0.000206434               0.000939806               0.000040767              -0.000040063               0.000326620               0.000286557               0.000000000               0.000000000               0.000000000               0.000000000               0.000192732               0.000950976               0.000045529              -0.000046597               0.000332521               0.000285924               0.000000000               0.000000000               0.000000000               0.000000000               0.000180487               0.000962298               0.000056694              -0.000052604               0.000338298               0.000285693               0.000000000               0.000000000               0.000000000               0.000000000               0.000166505               0.000981030               0.000058589              -0.000060189               0.000347070               0.000286881               0.000000000               0.000000000               0.000000000               0.000000000               0.000148866               0.001006001               0.000050918              -0.000069925               0.000358639               0.000288714               0.000000000               0.000000000               0.000000000               0.000000000               0.000127362               0.001030478               0.000044624              -0.000081049               0.000370505               0.000289457               0.000000000               0.000000000               0.000000000               0.000000000               0.000100162               0.001054810               0.000038666              -0.000094290               0.000383030               0.000288740               0.000000000               0.000000000               0.000000000               0.000000000               0.000073681               0.001079737               0.000030060              -0.000107336               0.000395688               0.000288351               0.000000000               0.000000000               0.000000000               0.000000000               0.000047162               0.001105717               0.000021157              -0.000120528               0.000408745               0.000288216               0.000000000               0.000000000               0.000000000               0.000000000               0.000020018               0.001133087               0.000011474              -0.000134129               0.000422401               0.000288272               0.000000000               0.000000000               0.000000000               0.000000000               0.000012470               0.001155371               0.000008861              -0.000139745               0.000431702               0.000291957               0.000000000               0.000000000               0.000000000               0.000000000               0.000290861               0.001070863               0.000408359              -0.000024785               0.000365212               0.000340427               0.000000000               0.000000000               0.000000000               0.000000000               0.000228644               0.000974500               0.000283096              -0.000036071               0.000336854               0.000300783               0.000000000               0.000000000               0.000000000               0.000000000               0.000212906               0.000941143               0.000155780              -0.000037803               0.000326312               0.000288509               0.000000000               0.000000000               0.000000000               0.000000000               0.000210407               0.000922904               0.000102600              -0.000036460               0.000319785               0.000283325               0.000000000               0.000000000               0.000000000               0.000000000               0.000206714               0.000923246               0.000075746              -0.000037888               0.000320375               0.000282487               0.000000000               0.000000000               0.000000000               0.000000000               0.000196031               0.000940169               0.000059841              -0.000044009               0.000328056               0.000284047               0.000000000               0.000000000               0.000000000               0.000000000               0.000183413               0.000959986               0.000053705              -0.000051218               0.000337065               0.000285847               0.000000000               0.000000000               0.000000000               0.000000000               0.000175074               0.000980020               0.000057202              -0.000056850               0.000345620               0.000288770               0.000000000               0.000000000               0.000000000               0.000000000               0.000168618               0.001005159               0.000064894              -0.000062413               0.000355854               0.000293441               0.000000000               0.000000000               0.000000000               0.000000000               0.000155573               0.001042417               0.000062358              -0.000071962               0.000371456               0.000299494               0.000000000               0.000000000               0.000000000               0.000000000               0.000136934               0.001087499               0.000052179              -0.000084587               0.000390691               0.000306105               0.000000000               0.000000000               0.000000000               0.000000000               0.000114416               0.001132798               0.000045737              -0.000098694               0.000410494               0.000311800               0.000000000               0.000000000               0.000000000               0.000000000               0.000087900               0.001176242               0.000039473              -0.000114068               0.000430099               0.000316032               0.000000000               0.000000000               0.000000000               0.000000000               0.000062898               0.001219868               0.000031276              -0.000128896               0.000449584               0.000320688               0.000000000               0.000000000               0.000000000               0.000000000               0.000038421               0.001261780               0.000021761              -0.000143314               0.000468360               0.000325046               0.000000000               0.000000000               0.000000000               0.000000000               0.000016488               0.001303375               0.000011051              -0.000156738               0.000486700               0.000329962               0.000000000               0.000000000               0.000000000               0.000000000               0.000012747               0.001333415               0.000008696              -0.000161896               0.000498433               0.000336536               0.000000000               0.000000000               0.000000000               0.000000000               0.000317573               0.000924137               0.000416146               0.000003572               0.000306852               0.000310424               0.000000000               0.000000000               0.000000000               0.000000000               0.000237014               0.000879863               0.000293594              -0.000021103               0.000300319               0.000279216               0.000000000               0.000000000               0.000000000               0.000000000               0.000202224               0.000897484               0.000168472              -0.000036351               0.000311275               0.000274924               0.000000000               0.000000000               0.000000000               0.000000000               0.000194332               0.000906224               0.000115782              -0.000040404               0.000315539               0.000275136               0.000000000               0.000000000               0.000000000               0.000000000               0.000187074               0.000927681               0.000088371              -0.000045807               0.000324493               0.000278686               0.000000000               0.000000000               0.000000000               0.000000000               0.000175968               0.000958479               0.000072285              -0.000053822               0.000337430               0.000283609               0.000000000               0.000000000               0.000000000               0.000000000               0.000169197               0.000991256               0.000064929              -0.000060458               0.000350568               0.000290110               0.000000000               0.000000000               0.000000000               0.000000000               0.000167623               0.001027894               0.000065412              -0.000065628               0.000364504               0.000298876               0.000000000               0.000000000               0.000000000               0.000000000               0.000166907               0.001077790               0.000066826              -0.000072133               0.000383304               0.000311171               0.000000000               0.000000000               0.000000000               0.000000000               0.000159352               0.001141733               0.000057782              -0.000082959               0.000408227               0.000325268               0.000000000               0.000000000               0.000000000               0.000000000               0.000141684               0.001208426               0.000046192              -0.000097921               0.000435445               0.000337524               0.000000000               0.000000000               0.000000000               0.000000000               0.000117172               0.001270400               0.000040913              -0.000114860               0.000461749               0.000346889               0.000000000               0.000000000               0.000000000               0.000000000               0.000089373               0.001328586               0.000034687              -0.000132558               0.000487044               0.000354485               0.000000000               0.000000000               0.000000000               0.000000000               0.000064615               0.001387187               0.000027039              -0.000149167               0.000512113               0.000362946               0.000000000               0.000000000               0.000000000               0.000000000               0.000042754               0.001443305               0.000019172              -0.000164380               0.000535890               0.000371510               0.000000000               0.000000000               0.000000000               0.000000000               0.000022127               0.001492733               0.000009102              -0.000178293               0.000557004               0.000378710               0.000000000               0.000000000               0.000000000               0.000000000               0.000017393               0.001524324               0.000007008              -0.000184018               0.000569442               0.000385424               0.000000000               0.000000000               0.000000000               0.000000000               0.000336425               0.000783709               0.000399209               0.000028195               0.000251835               0.000280030               0.000000000               0.000000000               0.000000000               0.000000000               0.000241229               0.000792491               0.000290897              -0.000008601               0.000267028               0.000258427               0.000000000               0.000000000               0.000000000               0.000000000               0.000192527               0.000860244               0.000177647              -0.000035333               0.000298523               0.000263190               0.000000000               0.000000000               0.000000000               0.000000000               0.000181749               0.000896325               0.000125949              -0.000043885               0.000313400               0.000269516               0.000000000               0.000000000               0.000000000               0.000000000               0.000172988               0.000940652               0.000099294              -0.000052711               0.000331118               0.000278407               0.000000000               0.000000000               0.000000000               0.000000000               0.000164252               0.000990427               0.000082543              -0.000062209               0.000350875               0.000288667               0.000000000               0.000000000               0.000000000               0.000000000               0.000164712               0.001045487               0.000072101              -0.000068919               0.000371465               0.000302546               0.000000000               0.000000000               0.000000000               0.000000000               0.000173668               0.001112058               0.000065824              -0.000073881               0.000395309               0.000321428               0.000000000               0.000000000               0.000000000               0.000000000               0.000178811               0.001191475               0.000060675              -0.000081880               0.000424448               0.000342568               0.000000000               0.000000000               0.000000000               0.000000000               0.000169203               0.001274318               0.000050294              -0.000095838               0.000456714               0.000360876               0.000000000               0.000000000               0.000000000               0.000000000               0.000148517               0.001352765               0.000040277              -0.000113401               0.000488718               0.000375316               0.000000000               0.000000000               0.000000000               0.000000000               0.000124389               0.001424212               0.000036432              -0.000131381               0.000518526               0.000387146               0.000000000               0.000000000               0.000000000               0.000000000               0.000096713               0.001491274               0.000029860              -0.000150142               0.000547134               0.000396992               0.000000000               0.000000000               0.000000000               0.000000000               0.000071013               0.001555105               0.000019848              -0.000167758               0.000574282               0.000406525               0.000000000               0.000000000               0.000000000               0.000000000               0.000049238               0.001615677               0.000012169              -0.000183495               0.000599719               0.000416224               0.000000000               0.000000000               0.000000000               0.000000000               0.000026402               0.001667646               0.000006351              -0.000198555               0.000622061               0.000423507               0.000000000               0.000000000               0.000000000               0.000000000               0.000018631               0.001699445               0.000006533              -0.000205443               0.000634957               0.000429514               0.000000000               0.000000000               0.000000000               0.000000000               0.000343167               0.000661204               0.000367425               0.000046036               0.000205054               0.000251090               0.000000000               0.000000000               0.000000000               0.000000000               0.000244987               0.000715892               0.000282236               0.000002383               0.000237834               0.000240217               0.000000000               0.000000000               0.000000000               0.000000000               0.000187422               0.000827568               0.000186506              -0.000033163               0.000286907               0.000253745               0.000000000               0.000000000               0.000000000               0.000000000               0.000175371               0.000890935               0.000136914              -0.000045603               0.000312176               0.000266573               0.000000000               0.000000000               0.000000000               0.000000000               0.000166785               0.000956504               0.000110107              -0.000057018               0.000337837               0.000280819               0.000000000               0.000000000               0.000000000               0.000000000               0.000163753               0.001028267               0.000090552              -0.000067126               0.000365128               0.000298002               0.000000000               0.000000000               0.000000000               0.000000000               0.000173972               0.001109591               0.000075061              -0.000073459               0.000394346               0.000320887               0.000000000               0.000000000               0.000000000               0.000000000               0.000191913               0.001198931               0.000063965              -0.000077899               0.000425606               0.000347707               0.000000000               0.000000000               0.000000000               0.000000000               0.000198515               0.001290564               0.000055659              -0.000086877               0.000459143               0.000372266               0.000000000               0.000000000               0.000000000               0.000000000               0.000187568               0.001385445               0.000047060              -0.000102842               0.000496091               0.000393249               0.000000000               0.000000000               0.000000000               0.000000000               0.000167435               0.001471201               0.000038813              -0.000121111               0.000530766               0.000409654               0.000000000               0.000000000               0.000000000               0.000000000               0.000143830               0.001544863               0.000032825              -0.000139171               0.000561340               0.000422168               0.000000000               0.000000000               0.000000000               0.000000000               0.000116239               0.001614057               0.000024454              -0.000158167               0.000590736               0.000432569               0.000000000               0.000000000               0.000000000               0.000000000               0.000090344               0.001681799               0.000013490              -0.000176345               0.000619376               0.000443031               0.000000000               0.000000000               0.000000000               0.000000000               0.000068519               0.001746090               0.000004603              -0.000192566               0.000646213               0.000453647               0.000000000               0.000000000               0.000000000               0.000000000               0.000046840               0.001805601               0.000000106              -0.000208134               0.000671239               0.000463105               0.000000000               0.000000000               0.000000000               0.000000000               0.000035335               0.001839670              -0.000000080              -0.000216708               0.000685453               0.000468745               0.000000000               0.000000000               0.000000000               0.000000000               0.000336386               0.000534876               0.000328342               0.000059285               0.000158528               0.000217813               0.000000000               0.000000000               0.000000000               0.000000000               0.000246496               0.000621598               0.000272143               0.000014736               0.000202285               0.000217021               0.000000000               0.000000000               0.000000000               0.000000000               0.000187936               0.000768421               0.000200882              -0.000025577               0.000264663               0.000239087               0.000000000               0.000000000               0.000000000               0.000000000               0.000178993               0.000859043               0.000155212              -0.000040258               0.000299764               0.000259506               0.000000000               0.000000000               0.000000000               0.000000000               0.000174356               0.000941722               0.000127208              -0.000052332               0.000331348               0.000279016               0.000000000               0.000000000               0.000000000               0.000000000               0.000175620               0.001032495               0.000106435              -0.000063204               0.000365230               0.000302025               0.000000000               0.000000000               0.000000000               0.000000000               0.000189114               0.001129960               0.000090765              -0.000070327               0.000400092               0.000329765               0.000000000               0.000000000               0.000000000               0.000000000               0.000211735               0.001228422               0.000077542              -0.000074152               0.000434187               0.000360035               0.000000000               0.000000000               0.000000000               0.000000000               0.000227856               0.001325732               0.000063774              -0.000080270               0.000468663               0.000388393               0.000000000               0.000000000               0.000000000               0.000000000               0.000225847               0.001421375               0.000053174              -0.000092979               0.000504780               0.000411801               0.000000000               0.000000000               0.000000000               0.000000000               0.000209287               0.001507323               0.000045617              -0.000109932               0.000539080               0.000429148               0.000000000               0.000000000               0.000000000               0.000000000               0.000186300               0.001579967               0.000036318              -0.000127633               0.000569195               0.000441562               0.000000000               0.000000000               0.000000000               0.000000000               0.000159064               0.001646879               0.000025445              -0.000146211               0.000597691               0.000451481               0.000000000               0.000000000               0.000000000               0.000000000               0.000133302               0.001718246               0.000016434              -0.000164792               0.000627674               0.000462882               0.000000000               0.000000000               0.000000000               0.000000000               0.000112594               0.001790547               0.000006950              -0.000181595               0.000657375               0.000475780               0.000000000               0.000000000               0.000000000               0.000000000               0.000096206               0.001867142              -0.000000875              -0.000197315               0.000688146               0.000490831               0.000000000               0.000000000               0.000000000               0.000000000               0.000083575               0.001905172              -0.000005511              -0.000206805               0.000703986               0.000497181               0.000000000               0.000000000               0.000000000               0.000000000               0.000315406               0.000412812               0.000278458               0.000066675               0.000115378               0.000182053               0.000000000               0.000000000               0.000000000               0.000000000               0.000247262               0.000524821               0.000254657               0.000027120               0.000165898               0.000193019               0.000000000               0.000000000               0.000000000               0.000000000               0.000198367               0.000699684               0.000212757              -0.000013073               0.000237583               0.000224510               0.000000000               0.000000000               0.000000000               0.000000000               0.000190849               0.000811882               0.000173334              -0.000029917               0.000280597               0.000250680               0.000000000               0.000000000               0.000000000               0.000000000               0.000191974               0.000910204               0.000146193              -0.000041785               0.000317327               0.000275541               0.000000000               0.000000000               0.000000000               0.000000000               0.000198076               0.001014776               0.000125634              -0.000052569               0.000355778               0.000303210               0.000000000               0.000000000               0.000000000               0.000000000               0.000212410               0.001124166               0.000109512              -0.000060867               0.000395007               0.000334140               0.000000000               0.000000000               0.000000000               0.000000000               0.000232471               0.001233619               0.000092976              -0.000067026               0.000433544               0.000366519               0.000000000               0.000000000               0.000000000               0.000000000               0.000252693               0.001334037               0.000075060              -0.000071995               0.000468673               0.000396678               0.000000000               0.000000000               0.000000000               0.000000000               0.000260909               0.001422768               0.000060512              -0.000080005               0.000500919               0.000420915               0.000000000               0.000000000               0.000000000               0.000000000               0.000253159               0.001505403               0.000049941              -0.000093240               0.000532876               0.000439636               0.000000000               0.000000000               0.000000000               0.000000000               0.000237211               0.001583279               0.000039130              -0.000108956               0.000564073               0.000455117               0.000000000               0.000000000               0.000000000               0.000000000               0.000218277               0.001655138               0.000028280              -0.000125038               0.000593386               0.000468348               0.000000000               0.000000000               0.000000000               0.000000000               0.000195462               0.001721722               0.000020829              -0.000141917               0.000621207               0.000479291               0.000000000               0.000000000               0.000000000               0.000000000               0.000172486               0.001789006               0.000011636              -0.000158943               0.000649311               0.000490367               0.000000000               0.000000000               0.000000000               0.000000000               0.000155905               0.001865746               0.000002754              -0.000174754               0.000680160               0.000505407               0.000000000               0.000000000               0.000000000               0.000000000               0.000140318               0.001898796              -0.000004058              -0.000184730               0.000694502               0.000509772               0.000000000               0.000000000               0.000000000               0.000000000               0.000277226               0.000305571               0.000222381               0.000065763               0.000079935               0.000145697               0.000000000               0.000000000               0.000000000               0.000000000               0.000244080               0.000431912               0.000227483               0.000037541               0.000131456               0.000168996               0.000000000               0.000000000               0.000000000               0.000000000               0.000214168               0.000619873               0.000212866               0.000002829               0.000205679               0.000208508               0.000000000               0.000000000               0.000000000               0.000000000               0.000211118               0.000750563               0.000183288              -0.000014651               0.000255069               0.000240418               0.000000000               0.000000000               0.000000000               0.000000000               0.000218555               0.000867747               0.000160503              -0.000026510               0.000298083               0.000271573               0.000000000               0.000000000               0.000000000               0.000000000               0.000228231               0.000986961               0.000141435              -0.000037784               0.000341578               0.000303795               0.000000000               0.000000000               0.000000000               0.000000000               0.000239304               0.001109809               0.000124250              -0.000048987               0.000386262               0.000337274               0.000000000               0.000000000               0.000000000               0.000000000               0.000255336               0.001228475               0.000106439              -0.000057808               0.000428757               0.000370949               0.000000000               0.000000000               0.000000000               0.000000000               0.000273105               0.001328521               0.000086028              -0.000063650               0.000464053               0.000400402               0.000000000               0.000000000               0.000000000               0.000000000               0.000284579               0.001410974               0.000066148              -0.000069654               0.000493538               0.000423884               0.000000000               0.000000000               0.000000000               0.000000000               0.000287925               0.001494142               0.000052339              -0.000078796               0.000524308               0.000445512               0.000000000               0.000000000               0.000000000               0.000000000               0.000284256               0.001580870               0.000041996              -0.000091012               0.000557289               0.000466277               0.000000000               0.000000000               0.000000000               0.000000000               0.000276368               0.001658659               0.000032529              -0.000103694               0.000587445               0.000483751               0.000000000               0.000000000               0.000000000               0.000000000               0.000262432               0.001727591               0.000024033              -0.000117537               0.000615037               0.000497500               0.000000000               0.000000000               0.000000000               0.000000000               0.000244390               0.001796588               0.000017376              -0.000132927               0.000643166               0.000510239               0.000000000               0.000000000               0.000000000               0.000000000               0.000227766               0.001869247               0.000010286              -0.000148243               0.000672490               0.000524247               0.000000000               0.000000000               0.000000000               0.000000000               0.000209097               0.001899205               0.000002126              -0.000158989               0.000686058               0.000527069               0.000000000               0.000000000               0.000000000               0.000000000               0.000231170               0.000215953               0.000167303               0.000059694               0.000052086               0.000111780               0.000000000               0.000000000               0.000000000               0.000000000               0.000237928               0.000345562               0.000192314               0.000046027               0.000099844               0.000145871               0.000000000               0.000000000               0.000000000               0.000000000               0.000232914               0.000535261               0.000198790               0.000020435               0.000171607               0.000192042               0.000000000               0.000000000               0.000000000               0.000000000               0.000239781               0.000683564               0.000181446               0.000004472               0.000226362               0.000230834               0.000000000               0.000000000               0.000000000               0.000000000               0.000250741               0.000818482               0.000163690              -0.000008282               0.000275585               0.000267303               0.000000000               0.000000000               0.000000000               0.000000000               0.000261059               0.000951036               0.000145420              -0.000020983               0.000324003               0.000303020               0.000000000               0.000000000               0.000000000               0.000000000               0.000271167               0.001082429               0.000129138              -0.000033616               0.000372011               0.000338396               0.000000000               0.000000000               0.000000000               0.000000000               0.000282707               0.001202650               0.000112203              -0.000044316               0.000415651               0.000371335               0.000000000               0.000000000               0.000000000               0.000000000               0.000292683               0.001298651               0.000090933              -0.000052575               0.000450405               0.000397829               0.000000000               0.000000000               0.000000000               0.000000000               0.000304666               0.001385356               0.000069677              -0.000058920               0.000481421               0.000422501               0.000000000               0.000000000               0.000000000               0.000000000               0.000318879               0.001480242               0.000054157              -0.000065451               0.000515226               0.000449775               0.000000000               0.000000000               0.000000000               0.000000000               0.000327796               0.001574760               0.000044233              -0.000073921               0.000549555               0.000475634               0.000000000               0.000000000               0.000000000               0.000000000               0.000330755               0.001659559               0.000036151              -0.000083412               0.000580985               0.000497573               0.000000000               0.000000000               0.000000000               0.000000000               0.000329500               0.001737859               0.000027567              -0.000093670               0.000610504               0.000516834               0.000000000               0.000000000               0.000000000               0.000000000               0.000322885               0.001810503               0.000021319              -0.000105231               0.000638572               0.000533341               0.000000000               0.000000000               0.000000000               0.000000000               0.000310144               0.001878829               0.000013235              -0.000118549               0.000665786               0.000547237               0.000000000               0.000000000               0.000000000               0.000000000               0.000294550               0.001908385               0.000004814              -0.000128091               0.000678819               0.000550728               0.000000000               0.000000000               0.000000000               0.000000000               0.000186080               0.000149668               0.000115675               0.000051071               0.000032865               0.000083936               0.000000000               0.000000000               0.000000000               0.000000000               0.000229521               0.000272060               0.000149318               0.000052062               0.000073332               0.000125394               0.000000000               0.000000000               0.000000000               0.000000000               0.000254420               0.000456415               0.000169564               0.000038355               0.000139352               0.000177707               0.000000000               0.000000000               0.000000000               0.000000000               0.000272318               0.000617611               0.000163233               0.000024918               0.000197562               0.000222480               0.000000000               0.000000000               0.000000000               0.000000000               0.000284489               0.000765683               0.000149024               0.000010973               0.000251567               0.000262540               0.000000000               0.000000000               0.000000000               0.000000000               0.000294826               0.000905070               0.000133564              -0.000002574               0.000302545               0.000299971               0.000000000               0.000000000               0.000000000               0.000000000               0.000305750               0.001037272               0.000119840              -0.000015003               0.000350755               0.000335752               0.000000000               0.000000000               0.000000000               0.000000000               0.000311178               0.001156336               0.000103478              -0.000027850               0.000394725               0.000366875               0.000000000               0.000000000               0.000000000               0.000000000               0.000316370               0.001258150               0.000084500              -0.000038630               0.000432256               0.000393626               0.000000000               0.000000000               0.000000000               0.000000000               0.000330350               0.001360778               0.000067492              -0.000046216               0.000468993               0.000422778               0.000000000               0.000000000               0.000000000               0.000000000               0.000350139               0.001466897               0.000053826              -0.000052060               0.000506314               0.000454254               0.000000000               0.000000000               0.000000000               0.000000000               0.000366478               0.001563981               0.000043733              -0.000058068               0.000540678               0.000482610               0.000000000               0.000000000               0.000000000               0.000000000               0.000377624               0.001653869               0.000035501              -0.000065124               0.000572992               0.000507868               0.000000000               0.000000000               0.000000000               0.000000000               0.000386769               0.001739317               0.000027478              -0.000072376               0.000603892               0.000531516               0.000000000               0.000000000               0.000000000               0.000000000               0.000391910               0.001815851               0.000019763              -0.000080015               0.000631949               0.000551934               0.000000000               0.000000000               0.000000000               0.000000000               0.000390939               0.001885564               0.000010646              -0.000089093               0.000658213               0.000569120               0.000000000               0.000000000               0.000000000               0.000000000               0.000384562               0.001916819               0.000003840              -0.000095392               0.000670731               0.000575339               0.000000000               0.000000000               0.000000000               0.000000000               0.000143356               0.000104265               0.000070511               0.000040725               0.000021179               0.000061905               0.000000000               0.000000000               0.000000000               0.000000000               0.000220771               0.000214876               0.000101662               0.000055929               0.000052982               0.000108911               0.000000000               0.000000000               0.000000000               0.000000000               0.000276095               0.000392484               0.000124729               0.000054475               0.000112668               0.000167143               0.000000000               0.000000000               0.000000000               0.000000000               0.000301324               0.000560452               0.000124069               0.000042940               0.000172502               0.000215442               0.000000000               0.000000000               0.000000000               0.000000000               0.000314839               0.000712850               0.000114938               0.000028958               0.000227961               0.000256919               0.000000000               0.000000000               0.000000000               0.000000000               0.000326911               0.000855656               0.000104257               0.000015635               0.000280004               0.000295639               0.000000000               0.000000000               0.000000000               0.000000000               0.000333388               0.000989309               0.000092279               0.000001357               0.000329314               0.000330671               0.000000000               0.000000000               0.000000000               0.000000000               0.000336971               0.001108637               0.000079449              -0.000012215               0.000373614               0.000361398               0.000000000               0.000000000               0.000000000               0.000000000               0.000344314               0.001221345               0.000067607              -0.000023550               0.000414961               0.000391411               0.000000000               0.000000000               0.000000000               0.000000000               0.000361055               0.001339972               0.000056699              -0.000032101               0.000457353               0.000425252               0.000000000               0.000000000               0.000000000               0.000000000               0.000379351               0.001448778               0.000045147              -0.000038841               0.000495868               0.000457027               0.000000000               0.000000000               0.000000000               0.000000000               0.000395204               0.001543446               0.000034555              -0.000044729               0.000529387               0.000484658               0.000000000               0.000000000               0.000000000               0.000000000               0.000411694               0.001638030               0.000027048              -0.000050368               0.000562794               0.000512426               0.000000000               0.000000000               0.000000000               0.000000000               0.000429423               0.001732378               0.000021236              -0.000055514               0.000595958               0.000540445               0.000000000               0.000000000               0.000000000               0.000000000               0.000444928               0.001817218               0.000014439              -0.000060304               0.000625835               0.000565531               0.000000000               0.000000000               0.000000000               0.000000000               0.000456433               0.001888475               0.000006906              -0.000064897               0.000651118               0.000586221               0.000000000               0.000000000               0.000000000               0.000000000               0.000459215               0.001918946               0.000002481              -0.000067663               0.000662196               0.000594534               0.000000000               0.000000000               0.000000000               0.000000000               0.000111976               0.000076522               0.000031956               0.000032425               0.000014699               0.000047124               0.000000000               0.000000000               0.000000000               0.000000000               0.000214975               0.000179150               0.000051262               0.000058221               0.000040309               0.000098530               0.000000000               0.000000000               0.000000000               0.000000000               0.000291506               0.000350726               0.000066622               0.000065473               0.000095083               0.000160556               0.000000000               0.000000000               0.000000000               0.000000000               0.000322718               0.000520028               0.000067007               0.000056015               0.000154669               0.000210684               0.000000000               0.000000000               0.000000000               0.000000000               0.000337427               0.000674526               0.000063467               0.000042219               0.000210767               0.000252986               0.000000000               0.000000000               0.000000000               0.000000000               0.000346778               0.000818114               0.000057548               0.000027777               0.000263443               0.000291220               0.000000000               0.000000000               0.000000000               0.000000000               0.000352860               0.000951770               0.000049652               0.000013351               0.000312803               0.000326154               0.000000000               0.000000000               0.000000000               0.000000000               0.000359756               0.001075379               0.000043604               0.000000486               0.000358294               0.000358780               0.000000000               0.000000000               0.000000000               0.000000000               0.000369449               0.001197535               0.000038891              -0.000011149               0.000402891               0.000391742               0.000000000               0.000000000               0.000000000               0.000000000               0.000382872               0.001319465               0.000032878              -0.000021356               0.000446936               0.000425580               0.000000000               0.000000000               0.000000000               0.000000000               0.000396388               0.001425723               0.000024914              -0.000029570               0.000485093               0.000455523               0.000000000               0.000000000               0.000000000               0.000000000               0.000413029               0.001524812               0.000018348              -0.000035715               0.000520171               0.000484455               0.000000000               0.000000000               0.000000000               0.000000000               0.000434549               0.001627547               0.000014711              -0.000040488               0.000556006               0.000515519               0.000000000               0.000000000               0.000000000               0.000000000               0.000456716               0.001726140               0.000011650              -0.000044499               0.000590207               0.000545708               0.000000000               0.000000000               0.000000000               0.000000000               0.000477308               0.001814214               0.000007262              -0.000047786               0.000620661               0.000572875               0.000000000               0.000000000               0.000000000               0.000000000               0.000495501               0.001886135               0.000003036              -0.000049954               0.000645357               0.000595403               0.000000000               0.000000000               0.000000000               0.000000000               0.000502998               0.001916229               0.000001027              -0.000050904               0.000655705               0.000604800               0.000000000               0.000000000               0.000000000               0.000000000               0.000100980               0.000068096               0.000000000               0.000029355               0.000012913               0.000042269               0.000000000               0.000000000               0.000000000               0.000000000               0.000213276               0.000168530               0.000000000               0.000058912               0.000036539               0.000095450               0.000000000               0.000000000               0.000000000               0.000000000               0.000296960               0.000336337              -0.000000000               0.000069317               0.000089005               0.000158323               0.000000000               0.000000000               0.000000000               0.000000000               0.000331333               0.000504468              -0.000000000               0.000061191               0.000147757               0.000208948               0.000000000               0.000000000               0.000000000               0.000000000               0.000346217               0.000661582              -0.000000000               0.000047133               0.000204814               0.000251947               0.000000000               0.000000000               0.000000000               0.000000000               0.000351980               0.000803779               0.000000000               0.000031520               0.000257417               0.000288937               0.000000000               0.000000000               0.000000000               0.000000000               0.000361196               0.000936083              -0.000000000               0.000018438               0.000305878               0.000324316               0.000000000               0.000000000               0.000000000               0.000000000               0.000370183               0.001064272              -0.000000000               0.000005785               0.000352826               0.000358610               0.000000000               0.000000000               0.000000000               0.000000000               0.000378861               0.001189138               0.000000000              -0.000006569               0.000398565               0.000391996               0.000000000               0.000000000               0.000000000               0.000000000               0.000389012               0.001308803               0.000000000              -0.000017721               0.000442170               0.000424449               0.000000000               0.000000000               0.000000000               0.000000000               0.000402027               0.001416670              -0.000000000              -0.000026324               0.000480993               0.000454670               0.000000000               0.000000000               0.000000000               0.000000000               0.000420481               0.001519678               0.000000000              -0.000032279               0.000517314               0.000485035               0.000000000               0.000000000               0.000000000               0.000000000               0.000442865               0.001623368               0.000000000              -0.000036847               0.000553399               0.000516553               0.000000000               0.000000000               0.000000000               0.000000000               0.000465503               0.001722614               0.000000000              -0.000040763               0.000587787               0.000547024               0.000000000               0.000000000               0.000000000               0.000000000               0.000487857               0.001812295               0.000000000              -0.000043590               0.000618623               0.000575032               0.000000000               0.000000000               0.000000000               0.000000000               0.000508063               0.001884300               0.000000000              -0.000045014               0.000643098               0.000598085               0.000000000               0.000000000               0.000000000               0.000000000               0.000516559               0.001914097               0.000000000              -0.000045552               0.000653210               0.000607658               0.000000000               0.000000000               0.000000000               0.000000000               0.000132806               0.001527100              -0.000000000              -0.000141085               0.000556056               0.000414972               0.000000000               0.000000000               0.000000000               0.000000000               0.000158708               0.001296055              -0.000000000              -0.000102491               0.000466178               0.000363687               0.000000000               0.000000000               0.000000000               0.000000000               0.000234962               0.001110102               0.000000000              -0.000050652               0.000386914               0.000336262               0.000000000               0.000000000               0.000000000               0.000000000               0.000266397               0.001007150               0.000000000              -0.000025995               0.000344378               0.000318384               0.000000000               0.000000000               0.000000000               0.000000000               0.000283362               0.000945544               0.000000000              -0.000011932               0.000319156               0.000307223               0.000000000               0.000000000               0.000000000               0.000000000               0.000294020               0.000904573               0.000000000              -0.000002814               0.000302459               0.000299645               0.000000000               0.000000000               0.000000000               0.000000000               0.000297019               0.000882838              -0.000000000               0.000001027               0.000293934               0.000294961               0.000000000               0.000000000               0.000000000               0.000000000               0.000293100               0.000873498              -0.000000000               0.000000725               0.000290921               0.000291647               0.000000000               0.000000000               0.000000000               0.000000000               0.000285439               0.000870025              -0.000000000              -0.000001714               0.000290577               0.000288863               0.000000000               0.000000000               0.000000000               0.000000000               0.000275670               0.000867897              -0.000000000              -0.000005111               0.000291000               0.000285889               0.000000000               0.000000000               0.000000000               0.000000000               0.000258020               0.000871174              -0.000000000              -0.000012139               0.000294435               0.000282296               0.000000000               0.000000000               0.000000000               0.000000000               0.000226111               0.000882409               0.000000000              -0.000025510               0.000302637               0.000277127               0.000000000               0.000000000               0.000000000               0.000000000               0.000186527               0.000898587              -0.000000000              -0.000042376               0.000313651               0.000271275               0.000000000               0.000000000               0.000000000               0.000000000               0.000145951               0.000921919               0.000000000              -0.000060508               0.000327472               0.000266964               0.000000000               0.000000000               0.000000000               0.000000000               0.000100399               0.000951090               0.000000000              -0.000081237               0.000344106               0.000262869               0.000000000               0.000000000               0.000000000               0.000000000               0.000049570               0.000984980               0.000000000              -0.000104533               0.000363168               0.000258634               0.000000000               0.000000000               0.000000000               0.000000000               0.000028040               0.001015131               0.000000000              -0.000116376               0.000377166               0.000260790               0.000000000               0.000000000               0.000000000               0.000000000               0.000144614               0.001507389              -0.000117678              -0.000134193               0.000547189               0.000412996               0.000000000               0.000000000               0.000000000               0.000000000               0.000164222               0.001279025              -0.000080587              -0.000098295               0.000459102               0.000360808               0.000000000               0.000000000               0.000000000               0.000000000               0.000233941               0.001101293              -0.000042266              -0.000049933               0.000383738               0.000333805               0.000000000               0.000000000               0.000000000               0.000000000               0.000263872               0.001002281              -0.000023997              -0.000026333               0.000342868               0.000316535               0.000000000               0.000000000               0.000000000               0.000000000               0.000279464               0.000943371              -0.000015792              -0.000013122               0.000318828               0.000305706               0.000000000               0.000000000               0.000000000               0.000000000               0.000286270               0.000906781              -0.000011617              -0.000005996               0.000304256               0.000298260               0.000000000               0.000000000               0.000000000               0.000000000               0.000287955               0.000888826              -0.000009225              -0.000003120               0.000297313               0.000294192               0.000000000               0.000000000               0.000000000               0.000000000               0.000283480               0.000881399              -0.000010740              -0.000003870               0.000295087               0.000291217               0.000000000               0.000000000               0.000000000               0.000000000               0.000274262               0.000878778              -0.000016618              -0.000006999               0.000295256               0.000288257               0.000000000               0.000000000               0.000000000               0.000000000               0.000261820               0.000876305              -0.000021507              -0.000011356               0.000295884               0.000284528               0.000000000               0.000000000               0.000000000               0.000000000               0.000244634               0.000880317              -0.000020765              -0.000018302               0.000299537               0.000281235               0.000000000               0.000000000               0.000000000               0.000000000               0.000217222               0.000891207              -0.000019900              -0.000029942               0.000307047               0.000277104               0.000000000               0.000000000               0.000000000               0.000000000               0.000179916               0.000905373              -0.000019382              -0.000045703               0.000317022               0.000271319               0.000000000               0.000000000               0.000000000               0.000000000               0.000139580               0.000925510              -0.000016479              -0.000063346               0.000329616               0.000266270               0.000000000               0.000000000               0.000000000               0.000000000               0.000095285               0.000950268              -0.000012971              -0.000083052               0.000344437               0.000261385               0.000000000               0.000000000               0.000000000               0.000000000               0.000046442               0.000978012              -0.000007853              -0.000104835               0.000360946               0.000256111               0.000000000               0.000000000               0.000000000               0.000000000               0.000025327               0.001002097              -0.000005149              -0.000115764               0.000372617               0.000256853               0.000000000               0.000000000               0.000000000               0.000000000               0.000170126               0.001443423              -0.000226877              -0.000116630               0.000520013               0.000403383               0.000000000               0.000000000               0.000000000               0.000000000               0.000176587               0.001229774              -0.000154775              -0.000087501               0.000439088               0.000351586               0.000000000               0.000000000               0.000000000               0.000000000               0.000233071               0.001073078              -0.000080400              -0.000046733               0.000373267               0.000326534               0.000000000               0.000000000               0.000000000               0.000000000               0.000256111               0.000988140              -0.000046552              -0.000027476               0.000338535               0.000311059               0.000000000               0.000000000               0.000000000               0.000000000               0.000266171               0.000938155              -0.000031692              -0.000017455               0.000318534               0.000301078               0.000000000               0.000000000               0.000000000               0.000000000               0.000268139               0.000912574              -0.000023110              -0.000013520               0.000308695               0.000295175               0.000000000               0.000000000               0.000000000               0.000000000               0.000263665               0.000903287              -0.000019013              -0.000014037               0.000305772               0.000291735               0.000000000               0.000000000               0.000000000               0.000000000               0.000254280               0.000901418              -0.000021934              -0.000017322               0.000306244               0.000288922               0.000000000               0.000000000               0.000000000               0.000000000               0.000245546               0.000902024              -0.000032144              -0.000020673               0.000307563               0.000286890               0.000000000               0.000000000               0.000000000               0.000000000               0.000233413               0.000901548              -0.000039191              -0.000025164               0.000308901               0.000283737               0.000000000               0.000000000               0.000000000               0.000000000               0.000213698               0.000906183              -0.000035857              -0.000033136               0.000313103               0.000279967               0.000000000               0.000000000               0.000000000               0.000000000               0.000187398               0.000915284              -0.000033020              -0.000044136               0.000319804               0.000275667               0.000000000               0.000000000               0.000000000               0.000000000               0.000155946               0.000927337              -0.000029909              -0.000057437               0.000328255               0.000270818               0.000000000               0.000000000               0.000000000               0.000000000               0.000121359               0.000943254              -0.000023248              -0.000072397               0.000338547               0.000266150               0.000000000               0.000000000               0.000000000               0.000000000               0.000081522               0.000960752              -0.000016583              -0.000089523               0.000350088               0.000260565               0.000000000               0.000000000               0.000000000               0.000000000               0.000038538               0.000979610              -0.000008936              -0.000107999               0.000362533               0.000254534               0.000000000               0.000000000               0.000000000               0.000000000               0.000020424               0.000995973              -0.000005810              -0.000116837               0.000370934               0.000254096               0.000000000               0.000000000               0.000000000               0.000000000               0.000207788               0.001338598              -0.000317041              -0.000089404               0.000475996               0.000386592               0.000000000               0.000000000               0.000000000               0.000000000               0.000194367               0.001156940              -0.000215041              -0.000071730               0.000409553               0.000337823               0.000000000               0.000000000               0.000000000               0.000000000               0.000230677               0.001032374              -0.000111595              -0.000042543               0.000358302               0.000315759               0.000000000               0.000000000               0.000000000               0.000000000               0.000243994               0.000967457              -0.000068006              -0.000029434               0.000332294               0.000302859               0.000000000               0.000000000               0.000000000               0.000000000               0.000247632               0.000931877              -0.000047596              -0.000023622               0.000318497               0.000294874               0.000000000               0.000000000               0.000000000               0.000000000               0.000244524               0.000919684              -0.000035172              -0.000023264               0.000314313               0.000291049               0.000000000               0.000000000               0.000000000               0.000000000               0.000233694               0.000921039              -0.000029530              -0.000027495               0.000316175               0.000288680               0.000000000               0.000000000               0.000000000               0.000000000               0.000220641               0.000927134              -0.000033181              -0.000033151               0.000320092               0.000286941               0.000000000               0.000000000               0.000000000               0.000000000               0.000208982               0.000930259              -0.000045295              -0.000037914               0.000322721               0.000284807               0.000000000               0.000000000               0.000000000               0.000000000               0.000195207               0.000936743              -0.000051724              -0.000043890               0.000326874               0.000282984               0.000000000               0.000000000               0.000000000               0.000000000               0.000176495               0.000948095              -0.000045373              -0.000052326               0.000333470               0.000281144               0.000000000               0.000000000               0.000000000               0.000000000               0.000155057               0.000960716              -0.000039311              -0.000061943               0.000340883               0.000278940               0.000000000               0.000000000               0.000000000               0.000000000               0.000129274               0.000974763              -0.000033550              -0.000073367               0.000349373               0.000276006               0.000000000               0.000000000               0.000000000               0.000000000               0.000098971               0.000989892              -0.000025296              -0.000086622               0.000358835               0.000272213               0.000000000               0.000000000               0.000000000               0.000000000               0.000065062               0.001006173              -0.000017283              -0.000101373               0.000369179               0.000267806               0.000000000               0.000000000               0.000000000               0.000000000               0.000029974               0.001024280              -0.000008786              -0.000116794               0.000380355               0.000263560               0.000000000               0.000000000               0.000000000               0.000000000               0.000016881               0.001040856              -0.000006453              -0.000123776               0.000388208               0.000264431               0.000000000               0.000000000               0.000000000               0.000000000               0.000254135               0.001210999              -0.000376353              -0.000056074               0.000422354               0.000366279               0.000000000               0.000000000               0.000000000               0.000000000               0.000213982               0.001069616              -0.000257228              -0.000053459               0.000374355               0.000320896               0.000000000               0.000000000               0.000000000               0.000000000               0.000222809               0.000987723              -0.000137237              -0.000039912               0.000342542               0.000302630               0.000000000               0.000000000               0.000000000               0.000000000               0.000228639               0.000944497              -0.000086871              -0.000032323               0.000325603               0.000293281               0.000000000               0.000000000               0.000000000               0.000000000               0.000227859               0.000925636              -0.000062343              -0.000030257               0.000318628               0.000288371               0.000000000               0.000000000               0.000000000               0.000000000               0.000219090               0.000928627              -0.000047751              -0.000033920               0.000320846               0.000286926               0.000000000               0.000000000               0.000000000               0.000000000               0.000206434               0.000939806              -0.000040767              -0.000040063               0.000326620               0.000286557               0.000000000               0.000000000               0.000000000               0.000000000               0.000192732               0.000950976              -0.000045529              -0.000046597               0.000332521               0.000285924               0.000000000               0.000000000               0.000000000               0.000000000               0.000180487               0.000962298              -0.000056694              -0.000052604               0.000338298               0.000285693               0.000000000               0.000000000               0.000000000               0.000000000               0.000166505               0.000981030              -0.000058589              -0.000060189               0.000347070               0.000286881               0.000000000               0.000000000               0.000000000               0.000000000               0.000148866               0.001006001              -0.000050918              -0.000069925               0.000358639               0.000288714               0.000000000               0.000000000               0.000000000               0.000000000               0.000127362               0.001030478              -0.000044624              -0.000081049               0.000370505               0.000289457               0.000000000               0.000000000               0.000000000               0.000000000               0.000100162               0.001054810              -0.000038666              -0.000094290               0.000383030               0.000288740               0.000000000               0.000000000               0.000000000               0.000000000               0.000073681               0.001079737              -0.000030060              -0.000107336               0.000395688               0.000288351               0.000000000               0.000000000               0.000000000               0.000000000               0.000047162               0.001105717              -0.000021157              -0.000120528               0.000408745               0.000288216               0.000000000               0.000000000               0.000000000               0.000000000               0.000020018               0.001133087              -0.000011474              -0.000134129               0.000422401               0.000288272               0.000000000               0.000000000               0.000000000               0.000000000               0.000012470               0.001155371              -0.000008861              -0.000139745               0.000431702               0.000291957               0.000000000               0.000000000               0.000000000               0.000000000               0.000290861               0.001070863              -0.000408359              -0.000024785               0.000365212               0.000340427               0.000000000               0.000000000               0.000000000               0.000000000               0.000228644               0.000974500              -0.000283096              -0.000036071               0.000336854               0.000300783               0.000000000               0.000000000               0.000000000               0.000000000               0.000212906               0.000941143              -0.000155780              -0.000037803               0.000326312               0.000288509               0.000000000               0.000000000               0.000000000               0.000000000               0.000210407               0.000922904              -0.000102600              -0.000036460               0.000319785               0.000283325               0.000000000               0.000000000               0.000000000               0.000000000               0.000206714               0.000923246              -0.000075746              -0.000037888               0.000320375               0.000282487               0.000000000               0.000000000               0.000000000               0.000000000               0.000196031               0.000940169              -0.000059841              -0.000044009               0.000328056               0.000284047               0.000000000               0.000000000               0.000000000               0.000000000               0.000183413               0.000959986              -0.000053705              -0.000051218               0.000337065               0.000285847               0.000000000               0.000000000               0.000000000               0.000000000               0.000175074               0.000980020              -0.000057202              -0.000056850               0.000345620               0.000288770               0.000000000               0.000000000               0.000000000               0.000000000               0.000168618               0.001005159              -0.000064894              -0.000062413               0.000355854               0.000293441               0.000000000               0.000000000               0.000000000               0.000000000               0.000155573               0.001042417              -0.000062358              -0.000071962               0.000371456               0.000299494               0.000000000               0.000000000               0.000000000               0.000000000               0.000136934               0.001087499              -0.000052179              -0.000084587               0.000390691               0.000306105               0.000000000               0.000000000               0.000000000               0.000000000               0.000114416               0.001132798              -0.000045737              -0.000098694               0.000410494               0.000311800               0.000000000               0.000000000               0.000000000               0.000000000               0.000087900               0.001176242              -0.000039473              -0.000114068               0.000430099               0.000316032               0.000000000               0.000000000               0.000000000               0.000000000               0.000062898               0.001219868              -0.000031276              -0.000128896               0.000449584               0.000320688               0.000000000               0.000000000               0.000000000               0.000000000               0.000038421               0.001261780              -0.000021761              -0.000143314               0.000468360               0.000325046               0.000000000               0.000000000               0.000000000               0.000000000               0.000016488               0.001303375              -0.000011051              -0.000156738               0.000486700               0.000329962               0.000000000               0.000000000               0.000000000               0.000000000               0.000012747               0.001333415              -0.000008696              -0.000161896               0.000498433               0.000336536               0.000000000               0.000000000               0.000000000               0.000000000               0.000317573               0.000924137              -0.000416146               0.000003572               0.000306852               0.000310424               0.000000000               0.000000000               0.000000000               0.000000000               0.000237014               0.000879863              -0.000293594              -0.000021103               0.000300319               0.000279216               0.000000000               0.000000000               0.000000000               0.000000000               0.000202224               0.000897484              -0.000168472              -0.000036351               0.000311275               0.000274924               0.000000000               0.000000000               0.000000000               0.000000000               0.000194332               0.000906224              -0.000115782              -0.000040404               0.000315539               0.000275136               0.000000000               0.000000000               0.000000000               0.000000000               0.000187074               0.000927681              -0.000088371              -0.000045807               0.000324493               0.000278686               0.000000000               0.000000000               0.000000000               0.000000000               0.000175968               0.000958479              -0.000072285              -0.000053822               0.000337430               0.000283609               0.000000000               0.000000000               0.000000000               0.000000000               0.000169197               0.000991256              -0.000064929              -0.000060458               0.000350568               0.000290110               0.000000000               0.000000000               0.000000000               0.000000000               0.000167623               0.001027894              -0.000065412              -0.000065628               0.000364504               0.000298876               0.000000000               0.000000000               0.000000000               0.000000000               0.000166907               0.001077790              -0.000066826              -0.000072133               0.000383304               0.000311171               0.000000000               0.000000000               0.000000000               0.000000000               0.000159352               0.001141733              -0.000057782              -0.000082959               0.000408227               0.000325268               0.000000000               0.000000000               0.000000000               0.000000000               0.000141684               0.001208426              -0.000046192              -0.000097921               0.000435445               0.000337524               0.000000000               0.000000000               0.000000000               0.000000000               0.000117172               0.001270400              -0.000040913              -0.000114860               0.000461749               0.000346889               0.000000000               0.000000000               0.000000000               0.000000000               0.000089373               0.001328586              -0.000034687              -0.000132558               0.000487044               0.000354485               0.000000000               0.000000000               0.000000000               0.000000000               0.000064615               0.001387187              -0.000027039              -0.000149167               0.000512113               0.000362946               0.000000000               0.000000000               0.000000000               0.000000000               0.000042754               0.001443305              -0.000019172              -0.000164380               0.000535890               0.000371510               0.000000000               0.000000000               0.000000000               0.000000000               0.000022127               0.001492733              -0.000009102              -0.000178293               0.000557004               0.000378710               0.000000000               0.000000000               0.000000000               0.000000000               0.000017393               0.001524324              -0.000007008              -0.000184018               0.000569442               0.000385424               0.000000000               0.000000000               0.000000000               0.000000000               0.000336425               0.000783709              -0.000399209               0.000028195               0.000251835               0.000280030               0.000000000               0.000000000               0.000000000               0.000000000               0.000241229               0.000792491              -0.000290897              -0.000008601               0.000267028               0.000258427               0.000000000               0.000000000               0.000000000               0.000000000               0.000192527               0.000860244              -0.000177647              -0.000035333               0.000298523               0.000263190               0.000000000               0.000000000               0.000000000               0.000000000               0.000181749               0.000896325              -0.000125949              -0.000043885               0.000313400               0.000269516               0.000000000               0.000000000               0.000000000               0.000000000               0.000172988               0.000940652              -0.000099294              -0.000052711               0.000331118               0.000278407               0.000000000               0.000000000               0.000000000               0.000000000               0.000164252               0.000990427              -0.000082543              -0.000062209               0.000350875               0.000288667               0.000000000               0.000000000               0.000000000               0.000000000               0.000164712               0.001045487              -0.000072101              -0.000068919               0.000371465               0.000302546               0.000000000               0.000000000               0.000000000               0.000000000               0.000173668               0.001112058              -0.000065824              -0.000073881               0.000395309               0.000321428               0.000000000               0.000000000               0.000000000               0.000000000               0.000178811               0.001191475              -0.000060675              -0.000081880               0.000424448               0.000342568               0.000000000               0.000000000               0.000000000               0.000000000               0.000169203               0.001274318              -0.000050294              -0.000095838               0.000456714               0.000360876               0.000000000               0.000000000               0.000000000               0.000000000               0.000148517               0.001352765              -0.000040277              -0.000113401               0.000488718               0.000375316               0.000000000               0.000000000               0.000000000               0.000000000               0.000124389               0.001424212              -0.000036432              -0.000131381               0.000518526               0.000387146               0.000000000               0.000000000               0.000000000               0.000000000               0.000096713               0.001491274              -0.000029860              -0.000150142               0.000547134               0.000396992               0.000000000               0.000000000               0.000000000               0.000000000               0.000071013               0.001555105              -0.000019848              -0.000167758               0.000574282               0.000406525               0.000000000               0.000000000               0.000000000               0.000000000               0.000049238               0.001615677              -0.000012169              -0.000183495               0.000599719               0.000416224               0.000000000               0.000000000               0.000000000               0.000000000               0.000026402               0.001667646              -0.000006351              -0.000198555               0.000622061               0.000423507               0.000000000               0.000000000               0.000000000               0.000000000               0.000018631               0.001699445              -0.000006533              -0.000205443               0.000634957               0.000429514               0.000000000               0.000000000               0.000000000               0.000000000               0.000343167               0.000661204              -0.000367425               0.000046036               0.000205054               0.000251090               0.000000000               0.000000000               0.000000000               0.000000000               0.000244987               0.000715892              -0.000282236               0.000002383               0.000237834               0.000240217               0.000000000               0.000000000               0.000000000               0.000000000               0.000187422               0.000827568              -0.000186506              -0.000033163               0.000286907               0.000253745               0.000000000               0.000000000               0.000000000               0.000000000               0.000175371               0.000890935              -0.000136914              -0.000045603               0.000312176               0.000266573               0.000000000               0.000000000               0.000000000               0.000000000               0.000166785               0.000956504              -0.000110107              -0.000057018               0.000337837               0.000280819               0.000000000               0.000000000               0.000000000               0.000000000               0.000163753               0.001028267              -0.000090552              -0.000067126               0.000365128               0.000298002               0.000000000               0.000000000               0.000000000               0.000000000               0.000173972               0.001109591              -0.000075061              -0.000073459               0.000394346               0.000320887               0.000000000               0.000000000               0.000000000               0.000000000               0.000191913               0.001198931              -0.000063965              -0.000077899               0.000425606               0.000347707               0.000000000               0.000000000               0.000000000               0.000000000               0.000198515               0.001290564              -0.000055659              -0.000086877               0.000459143               0.000372266               0.000000000               0.000000000               0.000000000               0.000000000               0.000187568               0.001385445              -0.000047060              -0.000102842               0.000496091               0.000393249               0.000000000               0.000000000               0.000000000               0.000000000               0.000167435               0.001471201              -0.000038813              -0.000121111               0.000530766               0.000409654               0.000000000               0.000000000               0.000000000               0.000000000               0.000143830               0.001544863              -0.000032825              -0.000139171               0.000561340               0.000422168               0.000000000               0.000000000               0.000000000               0.000000000               0.000116239               0.001614057              -0.000024454              -0.000158167               0.000590736               0.000432569               0.000000000               0.000000000               0.000000000               0.000000000               0.000090344               0.001681799              -0.000013490              -0.000176345               0.000619376               0.000443031               0.000000000               0.000000000               0.000000000               0.000000000               0.000068519               0.001746090              -0.000004603              -0.000192566               0.000646213               0.000453647               0.000000000               0.000000000               0.000000000               0.000000000               0.000046840               0.001805601              -0.000000106              -0.000208134               0.000671239               0.000463105               0.000000000               0.000000000               0.000000000               0.000000000               0.000035335               0.001839670               0.000000080              -0.000216708               0.000685453               0.000468745               0.000000000               0.000000000               0.000000000               0.000000000               0.000336386               0.000534876              -0.000328342               0.000059285               0.000158528               0.000217813               0.000000000               0.000000000               0.000000000               0.000000000               0.000246496               0.000621598              -0.000272143               0.000014736               0.000202285               0.000217021               0.000000000               0.000000000               0.000000000               0.000000000               0.000187936               0.000768421              -0.000200882              -0.000025577               0.000264663               0.000239087               0.000000000               0.000000000               0.000000000               0.000000000               0.000178993               0.000859043              -0.000155212              -0.000040258               0.000299764               0.000259506               0.000000000               0.000000000               0.000000000               0.000000000               0.000174356               0.000941722              -0.000127208              -0.000052332               0.000331348               0.000279016               0.000000000               0.000000000               0.000000000               0.000000000               0.000175620               0.001032495              -0.000106435              -0.000063204               0.000365230               0.000302025               0.000000000               0.000000000               0.000000000               0.000000000               0.000189114               0.001129960              -0.000090765              -0.000070327               0.000400092               0.000329765               0.000000000               0.000000000               0.000000000               0.000000000               0.000211735               0.001228422              -0.000077542              -0.000074152               0.000434187               0.000360035               0.000000000               0.000000000               0.000000000               0.000000000               0.000227856               0.001325732              -0.000063774              -0.000080270               0.000468663               0.000388393               0.000000000               0.000000000               0.000000000               0.000000000               0.000225847               0.001421375              -0.000053174              -0.000092979               0.000504780               0.000411801               0.000000000               0.000000000               0.000000000               0.000000000               0.000209287               0.001507323              -0.000045617              -0.000109932               0.000539080               0.000429148               0.000000000               0.000000000               0.000000000               0.000000000               0.000186300               0.001579967              -0.000036318              -0.000127633               0.000569195               0.000441562               0.000000000               0.000000000               0.000000000               0.000000000               0.000159064               0.001646879              -0.000025445              -0.000146211               0.000597691               0.000451481               0.000000000               0.000000000               0.000000000               0.000000000               0.000133302               0.001718246              -0.000016434              -0.000164792               0.000627674               0.000462882               0.000000000               0.000000000               0.000000000               0.000000000               0.000112594               0.001790547              -0.000006950              -0.000181595               0.000657375               0.000475780               0.000000000               0.000000000               0.000000000               0.000000000               0.000096206               0.001867142               0.000000875              -0.000197315               0.000688146               0.000490831               0.000000000               0.000000000               0.000000000               0.000000000               0.000083575               0.001905172               0.000005511              -0.000206805               0.000703986               0.000497181               0.000000000               0.000000000               0.000000000               0.000000000               0.000315406               0.000412812              -0.000278458               0.000066675               0.000115378               0.000182053               0.000000000               0.000000000               0.000000000               0.000000000               0.000247262               0.000524821              -0.000254657               0.000027120               0.000165898               0.000193019               0.000000000               0.000000000               0.000000000               0.000000000               0.000198367               0.000699684              -0.000212757              -0.000013073               0.000237583               0.000224510               0.000000000               0.000000000               0.000000000               0.000000000               0.000190849               0.000811882              -0.000173334              -0.000029917               0.000280597               0.000250680               0.000000000               0.000000000               0.000000000               0.000000000               0.000191974               0.000910204              -0.000146193              -0.000041785               0.000317327               0.000275541               0.000000000               0.000000000               0.000000000               0.000000000               0.000198076               0.001014776              -0.000125634              -0.000052569               0.000355778               0.000303210               0.000000000               0.000000000               0.000000000               0.000000000               0.000212410               0.001124166              -0.000109512              -0.000060867               0.000395007               0.000334140               0.000000000               0.000000000               0.000000000               0.000000000               0.000232471               0.001233619              -0.000092976              -0.000067026               0.000433544               0.000366519               0.000000000               0.000000000               0.000000000               0.000000000               0.000252693               0.001334037              -0.000075060              -0.000071995               0.000468673               0.000396678               0.000000000               0.000000000               0.000000000               0.000000000               0.000260909               0.001422768              -0.000060512              -0.000080005               0.000500919               0.000420915               0.000000000               0.000000000               0.000000000               0.000000000               0.000253159               0.001505403              -0.000049941              -0.000093240               0.000532876               0.000439636               0.000000000               0.000000000               0.000000000               0.000000000               0.000237211               0.001583279              -0.000039130              -0.000108956               0.000564073               0.000455117               0.000000000               0.000000000               0.000000000               0.000000000               0.000218277               0.001655138              -0.000028280              -0.000125038               0.000593386               0.000468348               0.000000000               0.000000000               0.000000000               0.000000000               0.000195462               0.001721722              -0.000020829              -0.000141917               0.000621207               0.000479291               0.000000000               0.000000000               0.000000000               0.000000000               0.000172486               0.001789006              -0.000011636              -0.000158943               0.000649311               0.000490367               0.000000000               0.000000000               0.000000000               0.000000000               0.000155905               0.001865746              -0.000002754              -0.000174754               0.000680160               0.000505407               0.000000000               0.000000000               0.000000000               0.000000000               0.000140318               0.001898796               0.000004058              -0.000184730               0.000694502               0.000509772               0.000000000               0.000000000               0.000000000               0.000000000               0.000277226               0.000305571              -0.000222381               0.000065763               0.000079935               0.000145697               0.000000000               0.000000000               0.000000000               0.000000000               0.000244080               0.000431912              -0.000227483               0.000037541               0.000131456               0.000168996               0.000000000               0.000000000               0.000000000               0.000000000               0.000214168               0.000619873              -0.000212866               0.000002829               0.000205679               0.000208508               0.000000000               0.000000000               0.000000000               0.000000000               0.000211118               0.000750563              -0.000183288              -0.000014651               0.000255069               0.000240418               0.000000000               0.000000000               0.000000000               0.000000000               0.000218555               0.000867747              -0.000160503              -0.000026510               0.000298083               0.000271573               0.000000000               0.000000000               0.000000000               0.000000000               0.000228231               0.000986961              -0.000141435              -0.000037784               0.000341578               0.000303795               0.000000000               0.000000000               0.000000000               0.000000000               0.000239304               0.001109809              -0.000124250              -0.000048987               0.000386262               0.000337274               0.000000000               0.000000000               0.000000000               0.000000000               0.000255336               0.001228475              -0.000106439              -0.000057808               0.000428757               0.000370949               0.000000000               0.000000000               0.000000000               0.000000000               0.000273105               0.001328521              -0.000086028              -0.000063650               0.000464053               0.000400402               0.000000000               0.000000000               0.000000000               0.000000000               0.000284579               0.001410974              -0.000066148              -0.000069654               0.000493538               0.000423884               0.000000000               0.000000000               0.000000000               0.000000000               0.000287925               0.001494142              -0.000052339              -0.000078796               0.000524308               0.000445512               0.000000000               0.000000000               0.000000000               0.000000000               0.000284256               0.001580870              -0.000041996              -0.000091012               0.000557289               0.000466277               0.000000000               0.000000000               0.000000000               0.000000000               0.000276368               0.001658659              -0.000032529              -0.000103694               0.000587445               0.000483751               0.000000000               0.000000000               0.000000000               0.000000000               0.000262432               0.001727591              -0.000024033              -0.000117537               0.000615037               0.000497500               0.000000000               0.000000000               0.000000000               0.000000000               0.000244390               0.001796588              -0.000017376              -0.000132927               0.000643166               0.000510239               0.000000000               0.000000000               0.000000000               0.000000000               0.000227766               0.001869247              -0.000010286              -0.000148243               0.000672490               0.000524247               0.000000000               0.000000000               0.000000000               0.000000000               0.000209097               0.001899205              -0.000002126              -0.000158989               0.000686058               0.000527069               0.000000000               0.000000000               0.000000000               0.000000000               0.000231170               0.000215953              -0.000167303               0.000059694               0.000052086               0.000111780               0.000000000               0.000000000               0.000000000               0.000000000               0.000237928               0.000345562              -0.000192314               0.000046027               0.000099844               0.000145871               0.000000000               0.000000000               0.000000000               0.000000000               0.000232914               0.000535261              -0.000198790               0.000020435               0.000171607               0.000192042               0.000000000               0.000000000               0.000000000               0.000000000               0.000239781               0.000683564              -0.000181446               0.000004472               0.000226362               0.000230834               0.000000000               0.000000000               0.000000000               0.000000000               0.000250741               0.000818482              -0.000163690              -0.000008282               0.000275585               0.000267303               0.000000000               0.000000000               0.000000000               0.000000000               0.000261059               0.000951036              -0.000145420              -0.000020983               0.000324003               0.000303020               0.000000000               0.000000000               0.000000000               0.000000000               0.000271167               0.001082429              -0.000129138              -0.000033616               0.000372011               0.000338396               0.000000000               0.000000000               0.000000000               0.000000000               0.000282707               0.001202650              -0.000112203              -0.000044316               0.000415651               0.000371335               0.000000000               0.000000000               0.000000000               0.000000000               0.000292683               0.001298651              -0.000090933              -0.000052575               0.000450405               0.000397829               0.000000000               0.000000000               0.000000000               0.000000000               0.000304666               0.001385356              -0.000069677              -0.000058920               0.000481421               0.000422501               0.000000000               0.000000000               0.000000000               0.000000000               0.000318879               0.001480242              -0.000054157              -0.000065451               0.000515226               0.000449775               0.000000000               0.000000000               0.000000000               0.000000000               0.000327796               0.001574760              -0.000044233              -0.000073921               0.000549555               0.000475634               0.000000000               0.000000000               0.000000000               0.000000000               0.000330755               0.001659559              -0.000036151              -0.000083412               0.000580985               0.000497573               0.000000000               0.000000000               0.000000000               0.000000000               0.000329500               0.001737859              -0.000027567              -0.000093670               0.000610504               0.000516834               0.000000000               0.000000000               0.000000000               0.000000000               0.000322885               0.001810503              -0.000021319              -0.000105231               0.000638572               0.000533341               0.000000000               0.000000000               0.000000000               0.000000000               0.000310144               0.001878829              -0.000013235              -0.000118549               0.000665786               0.000547237               0.000000000               0.000000000               0.000000000               0.000000000               0.000294550               0.001908385              -0.000004814              -0.000128091               0.000678819               0.000550728               0.000000000               0.000000000               0.000000000               0.000000000               0.000186080               0.000149668              -0.000115675               0.000051071               0.000032865               0.000083936               0.000000000               0.000000000               0.000000000               0.000000000               0.000229521               0.000272060              -0.000149318               0.000052062               0.000073332               0.000125394               0.000000000               0.000000000               0.000000000               0.000000000               0.000254420               0.000456415              -0.000169564               0.000038355               0.000139352               0.000177707               0.000000000               0.000000000               0.000000000               0.000000000               0.000272318               0.000617611              -0.000163233               0.000024918               0.000197562               0.000222480               0.000000000               0.000000000               0.000000000               0.000000000               0.000284489               0.000765683              -0.000149024               0.000010973               0.000251567               0.000262540               0.000000000               0.000000000               0.000000000               0.000000000               0.000294826               0.000905070              -0.000133564              -0.000002574               0.000302545               0.000299971               0.000000000               0.000000000               0.000000000               0.000000000               0.000305750               0.001037272              -0.000119840              -0.000015003               0.000350755               0.000335752               0.000000000               0.000000000               0.000000000               0.000000000               0.000311178               0.001156336              -0.000103478              -0.000027850               0.000394725               0.000366875               0.000000000               0.000000000               0.000000000               0.000000000               0.000316370               0.001258150              -0.000084500              -0.000038630               0.000432256               0.000393626               0.000000000               0.000000000               0.000000000               0.000000000               0.000330350               0.001360778              -0.000067492              -0.000046216               0.000468993               0.000422778               0.000000000               0.000000000               0.000000000               0.000000000               0.000350139               0.001466897              -0.000053826              -0.000052060               0.000506314               0.000454254               0.000000000               0.000000000               0.000000000               0.000000000               0.000366478               0.001563981              -0.000043733              -0.000058068               0.000540678               0.000482610               0.000000000               0.000000000               0.000000000               0.000000000               0.000377624               0.001653869              -0.000035501              -0.000065124               0.000572992               0.000507868               0.000000000               0.000000000               0.000000000               0.000000000               0.000386769               0.001739317              -0.000027478              -0.000072376               0.000603892               0.000531516               0.000000000               0.000000000               0.000000000               0.000000000               0.000391910               0.001815851              -0.000019763              -0.000080015               0.000631949               0.000551934               0.000000000               0.000000000               0.000000000               0.000000000               0.000390939               0.001885564              -0.000010646              -0.000089093               0.000658213               0.000569120               0.000000000               0.000000000               0.000000000               0.000000000               0.000384562               0.001916819              -0.000003840              -0.000095392               0.000670731               0.000575339               0.000000000               0.000000000               0.000000000               0.000000000               0.000143356               0.000104265              -0.000070511               0.000040725               0.000021179               0.000061905               0.000000000               0.000000000               0.000000000               0.000000000               0.000220771               0.000214876              -0.000101662               0.000055929               0.000052982               0.000108911               0.000000000               0.000000000               0.000000000               0.000000000               0.000276095               0.000392484              -0.000124729               0.000054475               0.000112668               0.000167143               0.000000000               0.000000000               0.000000000               0.000000000               0.000301324               0.000560452              -0.000124069               0.000042940               0.000172502               0.000215442               0.000000000               0.000000000               0.000000000               0.000000000               0.000314839               0.000712850              -0.000114938               0.000028958               0.000227961               0.000256919               0.000000000               0.000000000               0.000000000               0.000000000               0.000326911               0.000855656              -0.000104257               0.000015635               0.000280004               0.000295639               0.000000000               0.000000000               0.000000000               0.000000000               0.000333388               0.000989309              -0.000092279               0.000001357               0.000329314               0.000330671               0.000000000               0.000000000               0.000000000               0.000000000               0.000336971               0.001108637              -0.000079449              -0.000012215               0.000373614               0.000361398               0.000000000               0.000000000               0.000000000               0.000000000               0.000344314               0.001221345              -0.000067607              -0.000023550               0.000414961               0.000391411               0.000000000               0.000000000               0.000000000               0.000000000               0.000361055               0.001339972              -0.000056699              -0.000032101               0.000457353               0.000425252               0.000000000               0.000000000               0.000000000               0.000000000               0.000379351               0.001448778              -0.000045147              -0.000038841               0.000495868               0.000457027               0.000000000               0.000000000               0.000000000               0.000000000               0.000395204               0.001543446              -0.000034555              -0.000044729               0.000529387               0.000484658               0.000000000               0.000000000               0.000000000               0.000000000               0.000411694               0.001638030              -0.000027048              -0.000050368               0.000562794               0.000512426               0.000000000               0.000000000               0.000000000               0.000000000               0.000429423               0.001732378              -0.000021236              -0.000055514               0.000595958               0.000540445               0.000000000               0.000000000               0.000000000               0.000000000               0.000444928               0.001817218              -0.000014439              -0.000060304               0.000625835               0.000565531               0.000000000               0.000000000               0.000000000               0.000000000               0.000456433               0.001888475              -0.000006906              -0.000064897               0.000651118               0.000586221               0.000000000               0.000000000               0.000000000               0.000000000               0.000459215               0.001918946              -0.000002481              -0.000067663               0.000662196               0.000594534               0.000000000               0.000000000               0.000000000               0.000000000               0.000111976               0.000076522              -0.000031956               0.000032425               0.000014699               0.000047124               0.000000000               0.000000000               0.000000000               0.000000000               0.000214975               0.000179150              -0.000051262               0.000058221               0.000040309               0.000098530               0.000000000               0.000000000               0.000000000               0.000000000               0.000291506               0.000350726              -0.000066622               0.000065473               0.000095083               0.000160556               0.000000000               0.000000000               0.000000000               0.000000000               0.000322718               0.000520028              -0.000067007               0.000056015               0.000154669               0.000210684               0.000000000               0.000000000               0.000000000               0.000000000               0.000337427               0.000674526              -0.000063467               0.000042219               0.000210767               0.000252986               0.000000000               0.000000000               0.000000000               0.000000000               0.000346778               0.000818114              -0.000057548               0.000027777               0.000263443               0.000291220               0.000000000               0.000000000               0.000000000               0.000000000               0.000352860               0.000951770              -0.000049652               0.000013351               0.000312803               0.000326154               0.000000000               0.000000000               0.000000000               0.000000000               0.000359756               0.001075379              -0.000043604               0.000000486               0.000358294               0.000358780               0.000000000               0.000000000               0.000000000               0.000000000               0.000369449               0.001197535              -0.000038891              -0.000011149               0.000402891               0.000391742               0.000000000               0.000000000               0.000000000               0.000000000               0.000382872               0.001319465              -0.000032878              -0.000021356               0.000446936               0.000425580               0.000000000               0.000000000               0.000000000               0.000000000               0.000396388               0.001425723              -0.000024914              -0.000029570               0.000485093               0.000455523               0.000000000               0.000000000               0.000000000               0.000000000               0.000413029               0.001524812              -0.000018348              -0.000035715               0.000520171               0.000484455               0.000000000               0.000000000               0.000000000               0.000000000               0.000434549               0.001627547              -0.000014711              -0.000040488               0.000556006               0.000515519               0.000000000               0.000000000               0.000000000               0.000000000               0.000456716               0.001726140              -0.000011650              -0.000044499               0.000590207               0.000545708               0.000000000               0.000000000               0.000000000               0.000000000               0.000477308               0.001814214              -0.000007262              -0.000047786               0.000620661               0.000572875               0.000000000               0.000000000               0.000000000               0.000000000               0.000495501               0.001886135              -0.000003036              -0.000049954               0.000645357               0.000595403               0.000000000               0.000000000               0.000000000               0.000000000               0.000502998               0.001916229              -0.000001027              -0.000050904               0.000655705               0.000604800               0.000000000               0.000000000               0.000000000               0.000000000               0.000000000               0.000000000               0.000000000               0.000000000               0.000000000               0.000000000               0.000000000               0.000000000               0.000000000               0.000000000               0.000000000               0.000000000               0.000000000               0.000000000               0.000000000               0.000000000               0.000000000               0.000000000               0.000000000               0.000000000               0.000000000               0.000000000               0.000000000               0.000000000               0.000000000               0.000000000               0.000000000               0.000000000               0.000000000               0.000000000               0.000000000               0.000000000               0.000000000               0.000000000               0.000000000               0.000000000               0.000000000               0.000000000               0.000000000               0.000000000               0.000000000               0.000000000               0.000000000               0.000000000               0.000000000               0.000000000               0.000000000               0.000000000               0.000000000               0.000000000               0.000000000               0.000000000               0.000000000               0.000000000               0.000000000               0.000000000               0.000000000               0.000000000               0.000000000               0.000000000               0.000000000               0.000000000               0.000000000               0.000000000               0.000000000               0.000000000               0.000000000               0.000000000               0.000000000               0.000000000               0.000000000               0.000000000               0.000000000               0.000000000               0.000000000               0.000000000               0.000000000               0.000000000               0.000000000               0.000000000               0.000000000               0.000000000               0.000000000               0.000000000               0.000000000               0.000000000               0.000000000               0.000000000               0.000000000               0.000000000               0.000000000               0.000000000               0.000000000               0.000000000               0.000000000               0.000000000               0.000000000               0.000000000               0.000000000               0.000000000               0.000000000               0.000000000               0.000000000               0.000000000               0.000000000               0.000000000               0.000000000               0.000000000               0.000000000               0.000000000               0.000000000               0.000000000               0.000000000               0.000000000               0.000000000               0.000000000               0.000000000               0.000000000               0.000000000               0.000000000               0.000000000               0.000000000               0.000000000               0.000000000               0.000000000               0.000000000               0.000000000               0.000000000               0.000000000               0.000000000               0.000000000               0.000000000               0.000000000               0.000000000               0.000000000               0.000000000               0.000000000               0.000000000               0.000000000               0.000000000               0.000000000               0.000000000               0.000000000               0.000000000               0.000000000               0.000000000               0.000000000               0.000000000               0.000000000               0.000000000               0.000000000               0.000000000               0.000000000               0.000000000               0.000000000               0.000000000               0.000000000               0.000000000               0.000000000               0.000000000               0.000000000               0.000000000               0.000000000               0.000000000               0.000000000               0.000000000               0.000000000               0.000000000               0.000000000               0.000000000               0.000000000               0.000000000               0.000000000               0.000000000               0.000000000               0.000000000               0.000000000               0.000000000               0.000000000               0.000000000               0.000000000               0.000000000               0.000000000               0.000000000               0.000000000               0.000000000               0.000000000               0.000000000               0.000000000               0.000000000               0.000000000               0.000000000               0.000000000               0.000000000               0.000000000               0.000000000               0.000000000               0.000000000               0.000000000               0.000000000               0.000000000               0.000000000               0.000000000               0.000000000               0.000000000               0.000000000               0.000000000               0.000000000               0.000000000               0.000000000               0.000000000               0.000000000               0.000000000               0.000000000               0.000000000               0.000000000               0.000000000               0.000000000               0.000000000               0.000000000               0.000000000               0.000000000               0.000000000               0.000000000               0.000000000               0.000000000               0.000000000               0.000000000               0.000000000               0.000000000               0.000000000               0.000000000               0.000000000               0.000000000               0.000000000               0.000000000               0.000000000               0.000000000               0.000000000               0.000000000               0.000000000               0.000000000               0.000000000               0.000000000               0.000000000               0.000000000               0.000000000               0.000000000               0.000000000               0.000000000               0.000000000               0.000000000               0.000000000               0.000000000               0.000000000               0.000000000               0.000000000               0.000000000               0.000000000               0.000000000               0.000000000               0.000000000               0.000000000               0.000000000               0.000000000               0.000000000               0.000000000               0.000000000               0.000000000               0.000000000               0.000000000               0.000000000               0.000000000               0.000000000               0.000000000               0.000000000               0.000000000               0.000000000               0.000000000               0.000000000               0.000000000               0.000000000               0.000000000               0.000000000               0.000000000               0.000000000               0.000000000               0.000000000               0.000000000               0.000000000               0.000000000               0.000000000               0.000000000               0.000000000               0.000000000               0.000000000               0.000000000               0.000000000               0.000000000               0.000000000               0.000000000               0.000000000               0.000000000               0.000000000               0.000000000               0.000000000               0.000000000               0.000000000               0.000000000               0.000000000               0.000000000               0.000000000               0.000000000               0.000000000               0.000000000               0.000000000               0.000000000               0.000000000               0.000000000               0.000000000               0.000000000               0.000000000               0.000000000               0.000000000               0.000000000               0.000000000               0.000000000               0.000000000               0.000000000               0.000000000               0.000000000               0.000000000               0.000000000               0.000000000               0.000000000               0.000000000               0.000000000               0.000000000               0.000000000               0.000000000               0.000144614               0.001507389               0.000117678              -0.000134193               0.000547189               0.000412996               0.000000000               0.000000000               0.000000000               0.000000000               0.000164222               0.001279025               0.000080587              -0.000098295               0.000459102               0.000360808               0.000000000               0.000000000               0.000000000               0.000000000               0.000233941               0.001101293               0.000042266              -0.000049933               0.000383738               0.000333805               0.000000000               0.000000000               0.000000000               0.000000000               0.000263872               0.001002281               0.000023997              -0.000026333               0.000342868               0.000316535               0.000000000               0.000000000               0.000000000               0.000000000               0.000279464               0.000943371               0.000015792              -0.000013122               0.000318828               0.000305706               0.000000000               0.000000000               0.000000000               0.000000000               0.000286270               0.000906781               0.000011617              -0.000005996               0.000304256               0.000298260               0.000000000               0.000000000               0.000000000               0.000000000               0.000287955               0.000888826               0.000009225              -0.000003120               0.000297313               0.000294192               0.000000000               0.000000000               0.000000000               0.000000000               0.000283480               0.000881399               0.000010740              -0.000003870               0.000295087               0.000291217               0.000000000               0.000000000               0.000000000               0.000000000               0.000274262               0.000878778               0.000016618              -0.000006999               0.000295256               0.000288257               0.000000000               0.000000000               0.000000000               0.000000000               0.000261820               0.000876305               0.000021507              -0.000011356               0.000295884               0.000284528               0.000000000               0.000000000               0.000000000               0.000000000               0.000244634               0.000880317               0.000020765              -0.000018302               0.000299537               0.000281235               0.000000000               0.000000000               0.000000000               0.000000000               0.000217222               0.000891207               0.000019900              -0.000029942               0.000307047               0.000277104               0.000000000               0.000000000               0.000000000               0.000000000               0.000179916               0.000905373               0.000019382              -0.000045703               0.000317022               0.000271319               0.000000000               0.000000000               0.000000000               0.000000000               0.000139580               0.000925510               0.000016479              -0.000063346               0.000329616               0.000266270               0.000000000               0.000000000               0.000000000               0.000000000               0.000095285               0.000950268               0.000012971              -0.000083052               0.000344437               0.000261385               0.000000000               0.000000000               0.000000000               0.000000000               0.000046442               0.000978012               0.000007853              -0.000104835               0.000360946               0.000256111               0.000000000               0.000000000               0.000000000               0.000000000               0.000025327               0.001002097               0.000005149              -0.000115764               0.000372617               0.000256853               0.000000000               0.000000000               0.000000000               0.000000000               0.000170126               0.001443423               0.000226877              -0.000116630               0.000520013               0.000403383               0.000000000               0.000000000               0.000000000               0.000000000               0.000176587               0.001229774               0.000154775              -0.000087501               0.000439088               0.000351586               0.000000000               0.000000000               0.000000000               0.000000000               0.000233071               0.001073078               0.000080400              -0.000046733               0.000373267               0.000326534               0.000000000               0.000000000               0.000000000               0.000000000               0.000256111               0.000988140               0.000046552              -0.000027476               0.000338535               0.000311059               0.000000000               0.000000000               0.000000000               0.000000000               0.000266171               0.000938155               0.000031692              -0.000017455               0.000318534               0.000301078               0.000000000               0.000000000               0.000000000               0.000000000               0.000268139               0.000912574               0.000023110              -0.000013520               0.000308695               0.000295175               0.000000000               0.000000000               0.000000000               0.000000000               0.000263665               0.000903287               0.000019013              -0.000014037               0.000305772               0.000291735               0.000000000               0.000000000               0.000000000               0.000000000               0.000254280               0.000901418               0.000021934              -0.000017322               0.000306244               0.000288922               0.000000000               0.000000000               0.000000000               0.000000000               0.000245546               0.000902024               0.000032144              -0.000020673               0.000307563               0.000286890               0.000000000               0.000000000               0.000000000               0.000000000               0.000233413               0.000901548               0.000039191              -0.000025164               0.000308901               0.000283737               0.000000000               0.000000000               0.000000000               0.000000000               0.000213698               0.000906183               0.000035857              -0.000033136               0.000313103               0.000279967               0.000000000               0.000000000               0.000000000               0.000000000               0.000187398               0.000915284               0.000033020              -0.000044136               0.000319804               0.000275667               0.000000000               0.000000000               0.000000000               0.000000000               0.000155946               0.000927337               0.000029909              -0.000057437               0.000328255               0.000270818               0.000000000               0.000000000               0.000000000               0.000000000               0.000121359               0.000943254               0.000023248              -0.000072397               0.000338547               0.000266150               0.000000000               0.000000000               0.000000000               0.000000000               0.000081522               0.000960752               0.000016583              -0.000089523               0.000350088               0.000260565               0.000000000               0.000000000               0.000000000               0.000000000               0.000038538               0.000979610               0.000008936              -0.000107999               0.000362533               0.000254534               0.000000000               0.000000000               0.000000000               0.000000000               0.000020424               0.000995973               0.000005810              -0.000116837               0.000370934               0.000254096               0.000000000               0.000000000               0.000000000               0.000000000               0.000207788               0.001338598               0.000317041              -0.000089404               0.000475996               0.000386592               0.000000000               0.000000000               0.000000000               0.000000000               0.000194367               0.001156940               0.000215041              -0.000071730               0.000409553               0.000337823               0.000000000               0.000000000               0.000000000               0.000000000               0.000230677               0.001032374               0.000111595              -0.000042543               0.000358302               0.000315759               0.000000000               0.000000000               0.000000000               0.000000000               0.000243994               0.000967457               0.000068006              -0.000029434               0.000332294               0.000302859               0.000000000               0.000000000               0.000000000               0.000000000               0.000247632               0.000931877               0.000047596              -0.000023622               0.000318497               0.000294874               0.000000000               0.000000000               0.000000000               0.000000000               0.000244524               0.000919684               0.000035172              -0.000023264               0.000314313               0.000291049               0.000000000               0.000000000               0.000000000               0.000000000               0.000233694               0.000921039               0.000029530              -0.000027495               0.000316175               0.000288680               0.000000000               0.000000000               0.000000000               0.000000000               0.000220641               0.000927134               0.000033181              -0.000033151               0.000320092               0.000286941               0.000000000               0.000000000               0.000000000               0.000000000               0.000208982               0.000930259               0.000045295              -0.000037914               0.000322721               0.000284807               0.000000000               0.000000000               0.000000000               0.000000000               0.000195207               0.000936743               0.000051724              -0.000043890               0.000326874               0.000282984               0.000000000               0.000000000               0.000000000               0.000000000               0.000176495               0.000948095               0.000045373              -0.000052326               0.000333470               0.000281144               0.000000000               0.000000000               0.000000000               0.000000000               0.000155057               0.000960716               0.000039311              -0.000061943               0.000340883               0.000278940               0.000000000               0.000000000               0.000000000               0.000000000               0.000129274               0.000974763               0.000033550              -0.000073367               0.000349373               0.000276006               0.000000000               0.000000000               0.000000000               0.000000000               0.000098971               0.000989892               0.000025296              -0.000086622               0.000358835               0.000272213               0.000000000               0.000000000               0.000000000               0.000000000               0.000065062               0.001006173               0.000017283              -0.000101373               0.000369179               0.000267806               0.000000000               0.000000000               0.000000000               0.000000000               0.000029974               0.001024280               0.000008786              -0.000116794               0.000380355               0.000263560               0.000000000               0.000000000               0.000000000               0.000000000               0.000016881               0.001040856               0.000006453              -0.000123776               0.000388208               0.000264431               0.000000000               0.000000000               0.000000000               0.000000000               0.000254135               0.001210999               0.000376353              -0.000056074               0.000422354               0.000366279               0.000000000               0.000000000               0.000000000               0.000000000               0.000213982               0.001069616               0.000257228              -0.000053459               0.000374355               0.000320896               0.000000000               0.000000000               0.000000000               0.000000000               0.000222809               0.000987723               0.000137237              -0.000039912               0.000342542               0.000302630               0.000000000               0.000000000               0.000000000               0.000000000               0.000228639               0.000944497               0.000086871              -0.000032323               0.000325603               0.000293281               0.000000000               0.000000000               0.000000000               0.000000000               0.000227859               0.000925636               0.000062343              -0.000030257               0.000318628               0.000288371               0.000000000               0.000000000               0.000000000               0.000000000               0.000219090               0.000928627               0.000047751              -0.000033920               0.000320846               0.000286926               0.000000000               0.000000000               0.000000000               0.000000000               0.000206434               0.000939806               0.000040767              -0.000040063               0.000326620               0.000286557               0.000000000               0.000000000               0.000000000               0.000000000               0.000192732               0.000950976               0.000045529              -0.000046597               0.000332521               0.000285924               0.000000000               0.000000000               0.000000000               0.000000000               0.000180487               0.000962298               0.000056694              -0.000052604               0.000338298               0.000285693               0.000000000               0.000000000               0.000000000               0.000000000               0.000166505               0.000981030               0.000058589              -0.000060189               0.000347070               0.000286881               0.000000000               0.000000000               0.000000000               0.000000000               0.000148866               0.001006001               0.000050918              -0.000069925               0.000358639               0.000288714               0.000000000               0.000000000               0.000000000               0.000000000               0.000127362               0.001030478               0.000044624              -0.000081049               0.000370505               0.000289457               0.000000000               0.000000000               0.000000000               0.000000000               0.000100162               0.001054810               0.000038666              -0.000094290               0.000383030               0.000288740               0.000000000               0.000000000               0.000000000               0.000000000               0.000073681               0.001079737               0.000030060              -0.000107336               0.000395688               0.000288351               0.000000000               0.000000000               0.000000000               0.000000000               0.000047162               0.001105717               0.000021157              -0.000120528               0.000408745               0.000288216               0.000000000               0.000000000               0.000000000               0.000000000               0.000020018               0.001133087               0.000011474              -0.000134129               0.000422401               0.000288272               0.000000000               0.000000000               0.000000000               0.000000000               0.000012470               0.001155371               0.000008861              -0.000139745               0.000431702               0.000291957               0.000000000               0.000000000               0.000000000               0.000000000               0.000290861               0.001070863               0.000408359              -0.000024785               0.000365212               0.000340427               0.000000000               0.000000000               0.000000000               0.000000000               0.000228644               0.000974500               0.000283096              -0.000036071               0.000336854               0.000300783               0.000000000               0.000000000               0.000000000               0.000000000               0.000212906               0.000941143               0.000155780              -0.000037803               0.000326312               0.000288509               0.000000000               0.000000000               0.000000000               0.000000000               0.000210407               0.000922904               0.000102600              -0.000036460               0.000319785               0.000283325               0.000000000               0.000000000               0.000000000               0.000000000               0.000206714               0.000923246               0.000075746              -0.000037888               0.000320375               0.000282487               0.000000000               0.000000000               0.000000000               0.000000000               0.000196031               0.000940169               0.000059841              -0.000044009               0.000328056               0.000284047               0.000000000               0.000000000               0.000000000               0.000000000               0.000183413               0.000959986               0.000053705              -0.000051218               0.000337065               0.000285847               0.000000000               0.000000000               0.000000000               0.000000000               0.000175074               0.000980020               0.000057202              -0.000056850               0.000345620               0.000288770               0.000000000               0.000000000               0.000000000               0.000000000               0.000168618               0.001005159               0.000064894              -0.000062413               0.000355854               0.000293441               0.000000000               0.000000000               0.000000000               0.000000000               0.000155573               0.001042417               0.000062358              -0.000071962               0.000371456               0.000299494               0.000000000               0.000000000               0.000000000               0.000000000               0.000136934               0.001087499               0.000052179              -0.000084587               0.000390691               0.000306105               0.000000000               0.000000000               0.000000000               0.000000000               0.000114416               0.001132798               0.000045737              -0.000098694               0.000410494               0.000311800               0.000000000               0.000000000               0.000000000               0.000000000               0.000087900               0.001176242               0.000039473              -0.000114068               0.000430099               0.000316032               0.000000000               0.000000000               0.000000000               0.000000000               0.000062898               0.001219868               0.000031276              -0.000128896               0.000449584               0.000320688               0.000000000               0.000000000               0.000000000               0.000000000               0.000038421               0.001261780               0.000021761              -0.000143314               0.000468360               0.000325046               0.000000000               0.000000000               0.000000000               0.000000000               0.000016488               0.001303375               0.000011051              -0.000156738               0.000486700               0.000329962               0.000000000               0.000000000               0.000000000               0.000000000               0.000012747               0.001333415               0.000008696              -0.000161896               0.000498433               0.000336536               0.000000000               0.000000000               0.000000000               0.000000000               0.000317573               0.000924137               0.000416146               0.000003572               0.000306852               0.000310424               0.000000000               0.000000000               0.000000000               0.000000000               0.000237014               0.000879863               0.000293594              -0.000021103               0.000300319               0.000279216               0.000000000               0.000000000               0.000000000               0.000000000               0.000202224               0.000897484               0.000168472              -0.000036351               0.000311275               0.000274924               0.000000000               0.000000000               0.000000000               0.000000000               0.000194332               0.000906224               0.000115782              -0.000040404               0.000315539               0.000275136               0.000000000               0.000000000               0.000000000               0.000000000               0.000187074               0.000927681               0.000088371              -0.000045807               0.000324493               0.000278686               0.000000000               0.000000000               0.000000000               0.000000000               0.000175968               0.000958479               0.000072285              -0.000053822               0.000337430               0.000283609               0.000000000               0.000000000               0.000000000               0.000000000               0.000169197               0.000991256               0.000064929              -0.000060458               0.000350568               0.000290110               0.000000000               0.000000000               0.000000000               0.000000000               0.000167623               0.001027894               0.000065412              -0.000065628               0.000364504               0.000298876               0.000000000               0.000000000               0.000000000               0.000000000               0.000166907               0.001077790               0.000066826              -0.000072133               0.000383304               0.000311171               0.000000000               0.000000000               0.000000000               0.000000000               0.000159352               0.001141733               0.000057782              -0.000082959               0.000408227               0.000325268               0.000000000               0.000000000               0.000000000               0.000000000               0.000141684               0.001208426               0.000046192              -0.000097921               0.000435445               0.000337524               0.000000000               0.000000000               0.000000000               0.000000000               0.000117172               0.001270400               0.000040913              -0.000114860               0.000461749               0.000346889               0.000000000               0.000000000               0.000000000               0.000000000               0.000089373               0.001328586               0.000034687              -0.000132558               0.000487044               0.000354485               0.000000000               0.000000000               0.000000000               0.000000000               0.000064615               0.001387187               0.000027039              -0.000149167               0.000512113               0.000362946               0.000000000               0.000000000               0.000000000               0.000000000               0.000042754               0.001443305               0.000019172              -0.000164380               0.000535890               0.000371510               0.000000000               0.000000000               0.000000000               0.000000000               0.000022127               0.001492733               0.000009102              -0.000178293               0.000557004               0.000378710               0.000000000               0.000000000               0.000000000               0.000000000               0.000017393               0.001524324               0.000007008              -0.000184018               0.000569442               0.000385424               0.000000000               0.000000000               0.000000000               0.000000000               0.000336425               0.000783709               0.000399209               0.000028195               0.000251835               0.000280030               0.000000000               0.000000000               0.000000000               0.000000000               0.000241229               0.000792491               0.000290897              -0.000008601               0.000267028               0.000258427               0.000000000               0.000000000               0.000000000               0.000000000               0.000192527               0.000860244               0.000177647              -0.000035333               0.000298523               0.000263190               0.000000000               0.000000000               0.000000000               0.000000000               0.000181749               0.000896325               0.000125949              -0.000043885               0.000313400               0.000269516               0.000000000               0.000000000               0.000000000               0.000000000               0.000172988               0.000940652               0.000099294              -0.000052711               0.000331118               0.000278407               0.000000000               0.000000000               0.000000000               0.000000000               0.000164252               0.000990427               0.000082543              -0.000062209               0.000350875               0.000288667               0.000000000               0.000000000               0.000000000               0.000000000               0.000164712               0.001045487               0.000072101              -0.000068919               0.000371465               0.000302546               0.000000000               0.000000000               0.000000000               0.000000000               0.000173668               0.001112058               0.000065824              -0.000073881               0.000395309               0.000321428               0.000000000               0.000000000               0.000000000               0.000000000               0.000178811               0.001191475               0.000060675              -0.000081880               0.000424448               0.000342568               0.000000000               0.000000000               0.000000000               0.000000000               0.000169203               0.001274318               0.000050294              -0.000095838               0.000456714               0.000360876               0.000000000               0.000000000               0.000000000               0.000000000               0.000148517               0.001352765               0.000040277              -0.000113401               0.000488718               0.000375316               0.000000000               0.000000000               0.000000000               0.000000000               0.000124389               0.001424212               0.000036432              -0.000131381               0.000518526               0.000387146               0.000000000               0.000000000               0.000000000               0.000000000               0.000096713               0.001491274               0.000029860              -0.000150142               0.000547134               0.000396992               0.000000000               0.000000000               0.000000000               0.000000000               0.000071013               0.001555105               0.000019848              -0.000167758               0.000574282               0.000406525               0.000000000               0.000000000               0.000000000               0.000000000               0.000049238               0.001615677               0.000012169              -0.000183495               0.000599719               0.000416224               0.000000000               0.000000000               0.000000000               0.000000000               0.000026402               0.001667646               0.000006351              -0.000198555               0.000622061               0.000423507               0.000000000               0.000000000               0.000000000               0.000000000               0.000018631               0.001699445               0.000006533              -0.000205443               0.000634957               0.000429514               0.000000000               0.000000000               0.000000000               0.000000000               0.000343167               0.000661204               0.000367425               0.000046036               0.000205054               0.000251090               0.000000000               0.000000000               0.000000000               0.000000000               0.000244987               0.000715892               0.000282236               0.000002383               0.000237834               0.000240217               0.000000000               0.000000000               0.000000000               0.000000000               0.000187422               0.000827568               0.000186506              -0.000033163               0.000286907               0.000253745               0.000000000               0.000000000               0.000000000               0.000000000               0.000175371               0.000890935               0.000136914              -0.000045603               0.000312176               0.000266573               0.000000000               0.000000000               0.000000000               0.000000000               0.000166785               0.000956504               0.000110107              -0.000057018               0.000337837               0.000280819               0.000000000               0.000000000               0.000000000               0.000000000               0.000163753               0.001028267               0.000090552              -0.000067126               0.000365128               0.000298002               0.000000000               0.000000000               0.000000000               0.000000000               0.000173972               0.001109591               0.000075061              -0.000073459               0.000394346               0.000320887               0.000000000               0.000000000               0.000000000               0.000000000               0.000191913               0.001198931               0.000063965              -0.000077899               0.000425606               0.000347707               0.000000000               0.000000000               0.000000000               0.000000000               0.000198515               0.001290564               0.000055659              -0.000086877               0.000459143               0.000372266               0.000000000               0.000000000               0.000000000               0.000000000               0.000187568               0.001385445               0.000047060              -0.000102842               0.000496091               0.000393249               0.000000000               0.000000000               0.000000000               0.000000000               0.000167435               0.001471201               0.000038813              -0.000121111               0.000530766               0.000409654               0.000000000               0.000000000               0.000000000               0.000000000               0.000143830               0.001544863               0.000032825              -0.000139171               0.000561340               0.000422168               0.000000000               0.000000000               0.000000000               0.000000000               0.000116239               0.001614057               0.000024454              -0.000158167               0.000590736               0.000432569               0.000000000               0.000000000               0.000000000               0.000000000               0.000090344               0.001681799               0.000013490              -0.000176345               0.000619376               0.000443031               0.000000000               0.000000000               0.000000000               0.000000000               0.000068519               0.001746090               0.000004603              -0.000192566               0.000646213               0.000453647               0.000000000               0.000000000               0.000000000               0.000000000               0.000046840               0.001805601               0.000000106              -0.000208134               0.000671239               0.000463105               0.000000000               0.000000000               0.000000000               0.000000000               0.000035335               0.001839670              -0.000000080              -0.000216708               0.000685453               0.000468745               0.000000000               0.000000000               0.000000000               0.000000000               0.000336386               0.000534876               0.000328342               0.000059285               0.000158528               0.000217813               0.000000000               0.000000000               0.000000000               0.000000000               0.000246496               0.000621598               0.000272143               0.000014736               0.000202285               0.000217021               0.000000000               0.000000000               0.000000000               0.000000000               0.000187936               0.000768421               0.000200882              -0.000025577               0.000264663               0.000239087               0.000000000               0.000000000               0.000000000               0.000000000               0.000178993               0.000859043               0.000155212              -0.000040258               0.000299764               0.000259506               0.000000000               0.000000000               0.000000000               0.000000000               0.000174356               0.000941722               0.000127208              -0.000052332               0.000331348               0.000279016               0.000000000               0.000000000               0.000000000               0.000000000               0.000175620               0.001032495               0.000106435              -0.000063204               0.000365230               0.000302025               0.000000000               0.000000000               0.000000000               0.000000000               0.000189114               0.001129960               0.000090765              -0.000070327               0.000400092               0.000329765               0.000000000               0.000000000               0.000000000               0.000000000               0.000211735               0.001228422               0.000077542              -0.000074152               0.000434187               0.000360035               0.000000000               0.000000000               0.000000000               0.000000000               0.000227856               0.001325732               0.000063774              -0.000080270               0.000468663               0.000388393               0.000000000               0.000000000               0.000000000               0.000000000               0.000225847               0.001421375               0.000053174              -0.000092979               0.000504780               0.000411801               0.000000000               0.000000000               0.000000000               0.000000000               0.000209287               0.001507323               0.000045617              -0.000109932               0.000539080               0.000429148               0.000000000               0.000000000               0.000000000               0.000000000               0.000186300               0.001579967               0.000036318              -0.000127633               0.000569195               0.000441562               0.000000000               0.000000000               0.000000000               0.000000000               0.000159064               0.001646879               0.000025445              -0.000146211               0.000597691               0.000451481               0.000000000               0.000000000               0.000000000               0.000000000               0.000133302               0.001718246               0.000016434              -0.000164792               0.000627674               0.000462882               0.000000000               0.000000000               0.000000000               0.000000000               0.000112594               0.001790547               0.000006950              -0.000181595               0.000657375               0.000475780               0.000000000               0.000000000               0.000000000               0.000000000               0.000096206               0.001867142              -0.000000875              -0.000197315               0.000688146               0.000490831               0.000000000               0.000000000               0.000000000               0.000000000               0.000083575               0.001905172              -0.000005511              -0.000206805               0.000703986               0.000497181               0.000000000               0.000000000               0.000000000               0.000000000               0.000315406               0.000412812               0.000278458               0.000066675               0.000115378               0.000182053               0.000000000               0.000000000               0.000000000               0.000000000               0.000247262               0.000524821               0.000254657               0.000027120               0.000165898               0.000193019               0.000000000               0.000000000               0.000000000               0.000000000               0.000198367               0.000699684               0.000212757              -0.000013073               0.000237583               0.000224510               0.000000000               0.000000000               0.000000000               0.000000000               0.000190849               0.000811882               0.000173334              -0.000029917               0.000280597               0.000250680               0.000000000               0.000000000               0.000000000               0.000000000               0.000191974               0.000910204               0.000146193              -0.000041785               0.000317327               0.000275541               0.000000000               0.000000000               0.000000000               0.000000000               0.000198076               0.001014776               0.000125634              -0.000052569               0.000355778               0.000303210               0.000000000               0.000000000               0.000000000               0.000000000               0.000212410               0.001124166               0.000109512              -0.000060867               0.000395007               0.000334140               0.000000000               0.000000000               0.000000000               0.000000000               0.000232471               0.001233619               0.000092976              -0.000067026               0.000433544               0.000366519               0.000000000               0.000000000               0.000000000               0.000000000               0.000252693               0.001334037               0.000075060              -0.000071995               0.000468673               0.000396678               0.000000000               0.000000000               0.000000000               0.000000000               0.000260909               0.001422768               0.000060512              -0.000080005               0.000500919               0.000420915               0.000000000               0.000000000               0.000000000               0.000000000               0.000253159               0.001505403               0.000049941              -0.000093240               0.000532876               0.000439636               0.000000000               0.000000000               0.000000000               0.000000000               0.000237211               0.001583279               0.000039130              -0.000108956               0.000564073               0.000455117               0.000000000               0.000000000               0.000000000               0.000000000               0.000218277               0.001655138               0.000028280              -0.000125038               0.000593386               0.000468348               0.000000000               0.000000000               0.000000000               0.000000000               0.000195462               0.001721722               0.000020829              -0.000141917               0.000621207               0.000479291               0.000000000               0.000000000               0.000000000               0.000000000               0.000172486               0.001789006               0.000011636              -0.000158943               0.000649311               0.000490367               0.000000000               0.000000000               0.000000000               0.000000000               0.000155905               0.001865746               0.000002754              -0.000174754               0.000680160               0.000505407               0.000000000               0.000000000               0.000000000               0.000000000               0.000140318               0.001898796              -0.000004058              -0.000184730               0.000694502               0.000509772               0.000000000               0.000000000               0.000000000               0.000000000               0.000277226               0.000305571               0.000222381               0.000065763               0.000079935               0.000145697               0.000000000               0.000000000               0.000000000               0.000000000               0.000244080               0.000431912               0.000227483               0.000037541               0.000131456               0.000168996               0.000000000               0.000000000               0.000000000               0.000000000               0.000214168               0.000619873               0.000212866               0.000002829               0.000205679               0.000208508               0.000000000               0.000000000               0.000000000               0.000000000               0.000211118               0.000750563               0.000183288              -0.000014651               0.000255069               0.000240418               0.000000000               0.000000000               0.000000000               0.000000000               0.000218555               0.000867747               0.000160503              -0.000026510               0.000298083               0.000271573               0.000000000               0.000000000               0.000000000               0.000000000               0.000228231               0.000986961               0.000141435              -0.000037784               0.000341578               0.000303795               0.000000000               0.000000000               0.000000000               0.000000000               0.000239304               0.001109809               0.000124250              -0.000048987               0.000386262               0.000337274               0.000000000               0.000000000               0.000000000               0.000000000               0.000255336               0.001228475               0.000106439              -0.000057808               0.000428757               0.000370949               0.000000000               0.000000000               0.000000000               0.000000000               0.000273105               0.001328521               0.000086028              -0.000063650               0.000464053               0.000400402               0.000000000               0.000000000               0.000000000               0.000000000               0.000284579               0.001410974               0.000066148              -0.000069654               0.000493538               0.000423884               0.000000000               0.000000000               0.000000000               0.000000000               0.000287925               0.001494142               0.000052339              -0.000078796               0.000524308               0.000445512               0.000000000               0.000000000               0.000000000               0.000000000               0.000284256               0.001580870               0.000041996              -0.000091012               0.000557289               0.000466277               0.000000000               0.000000000               0.000000000               0.000000000               0.000276368               0.001658659               0.000032529              -0.000103694               0.000587445               0.000483751               0.000000000               0.000000000               0.000000000               0.000000000               0.000262432               0.001727591               0.000024033              -0.000117537               0.000615037               0.000497500               0.000000000               0.000000000               0.000000000               0.000000000               0.000244390               0.001796588               0.000017376              -0.000132927               0.000643166               0.000510239               0.000000000               0.000000000               0.000000000               0.000000000               0.000227766               0.001869247               0.000010286              -0.000148243               0.000672490               0.000524247               0.000000000               0.000000000               0.000000000               0.000000000               0.000209097               0.001899205               0.000002126              -0.000158989               0.000686058               0.000527069               0.000000000               0.000000000               0.000000000               0.000000000               0.000231170               0.000215953               0.000167303               0.000059694               0.000052086               0.000111780               0.000000000               0.000000000               0.000000000               0.000000000               0.000237928               0.000345562               0.000192314               0.000046027               0.000099844               0.000145871               0.000000000               0.000000000               0.000000000               0.000000000               0.000232914               0.000535261               0.000198790               0.000020435               0.000171607               0.000192042               0.000000000               0.000000000               0.000000000               0.000000000               0.000239781               0.000683564               0.000181446               0.000004472               0.000226362               0.000230834               0.000000000               0.000000000               0.000000000               0.000000000               0.000250741               0.000818482               0.000163690              -0.000008282               0.000275585               0.000267303               0.000000000               0.000000000               0.000000000               0.000000000               0.000261059               0.000951036               0.000145420              -0.000020983               0.000324003               0.000303020               0.000000000               0.000000000               0.000000000               0.000000000               0.000271167               0.001082429               0.000129138              -0.000033616               0.000372011               0.000338396               0.000000000               0.000000000               0.000000000               0.000000000               0.000282707               0.001202650               0.000112203              -0.000044316               0.000415651               0.000371335               0.000000000               0.000000000               0.000000000               0.000000000               0.000292683               0.001298651               0.000090933              -0.000052575               0.000450405               0.000397829               0.000000000               0.000000000               0.000000000               0.000000000               0.000304666               0.001385356               0.000069677              -0.000058920               0.000481421               0.000422501               0.000000000               0.000000000               0.000000000               0.000000000               0.000318879               0.001480242               0.000054157              -0.000065451               0.000515226               0.000449775               0.000000000               0.000000000               0.000000000               0.000000000               0.000327796               0.001574760               0.000044233              -0.000073921               0.000549555               0.000475634               0.000000000               0.000000000               0.000000000               0.000000000               0.000330755               0.001659559               0.000036151              -0.000083412               0.000580985               0.000497573               0.000000000               0.000000000               0.000000000               0.000000000               0.000329500               0.001737859               0.000027567              -0.000093670               0.000610504               0.000516834               0.000000000               0.000000000               0.000000000               0.000000000               0.000322885               0.001810503               0.000021319              -0.000105231               0.000638572               0.000533341               0.000000000               0.000000000               0.000000000               0.000000000               0.000310144               0.001878829               0.000013235              -0.000118549               0.000665786               0.000547237               0.000000000               0.000000000               0.000000000               0.000000000               0.000294550               0.001908385               0.000004814              -0.000128091               0.000678819               0.000550728               0.000000000               0.000000000               0.000000000               0.000000000               0.000186080               0.000149668               0.000115675               0.000051071               0.000032865               0.000083936               0.000000000               0.000000000               0.000000000               0.000000000               0.000229521               0.000272060               0.000149318               0.000052062               0.000073332               0.000125394               0.000000000               0.000000000               0.000000000               0.000000000               0.000254420               0.000456415               0.000169564               0.000038355               0.000139352               0.000177707               0.000000000               0.000000000               0.000000000               0.000000000               0.000272318               0.000617611               0.000163233               0.000024918               0.000197562               0.000222480               0.000000000               0.000000000               0.000000000               0.000000000               0.000284489               0.000765683               0.000149024               0.000010973               0.000251567               0.000262540               0.000000000               0.000000000               0.000000000               0.000000000               0.000294826               0.000905070               0.000133564              -0.000002574               0.000302545               0.000299971               0.000000000               0.000000000               0.000000000               0.000000000               0.000305750               0.001037272               0.000119840              -0.000015003               0.000350755               0.000335752               0.000000000               0.000000000               0.000000000               0.000000000               0.000311178               0.001156336               0.000103478              -0.000027850               0.000394725               0.000366875               0.000000000               0.000000000               0.000000000               0.000000000               0.000316370               0.001258150               0.000084500              -0.000038630               0.000432256               0.000393626               0.000000000               0.000000000               0.000000000               0.000000000               0.000330350               0.001360778               0.000067492              -0.000046216               0.000468993               0.000422778               0.000000000               0.000000000               0.000000000               0.000000000               0.000350139               0.001466897               0.000053826              -0.000052060               0.000506314               0.000454254               0.000000000               0.000000000               0.000000000               0.000000000               0.000366478               0.001563981               0.000043733              -0.000058068               0.000540678               0.000482610               0.000000000               0.000000000               0.000000000               0.000000000               0.000377624               0.001653869               0.000035501              -0.000065124               0.000572992               0.000507868               0.000000000               0.000000000               0.000000000               0.000000000               0.000386769               0.001739317               0.000027478              -0.000072376               0.000603892               0.000531516               0.000000000               0.000000000               0.000000000               0.000000000               0.000391910               0.001815851               0.000019763              -0.000080015               0.000631949               0.000551934               0.000000000               0.000000000               0.000000000               0.000000000               0.000390939               0.001885564               0.000010646              -0.000089093               0.000658213               0.000569120               0.000000000               0.000000000               0.000000000               0.000000000               0.000384562               0.001916819               0.000003840              -0.000095392               0.000670731               0.000575339               0.000000000               0.000000000               0.000000000               0.000000000               0.000143356               0.000104265               0.000070511               0.000040725               0.000021179               0.000061905               0.000000000               0.000000000               0.000000000               0.000000000               0.000220771               0.000214876               0.000101662               0.000055929               0.000052982               0.000108911               0.000000000               0.000000000               0.000000000               0.000000000               0.000276095               0.000392484               0.000124729               0.000054475               0.000112668               0.000167143               0.000000000               0.000000000               0.000000000               0.000000000               0.000301324               0.000560452               0.000124069               0.000042940               0.000172502               0.000215442               0.000000000               0.000000000               0.000000000               0.000000000               0.000314839               0.000712850               0.000114938               0.000028958               0.000227961               0.000256919               0.000000000               0.000000000               0.000000000               0.000000000               0.000326911               0.000855656               0.000104257               0.000015635               0.000280004               0.000295639               0.000000000               0.000000000               0.000000000               0.000000000               0.000333388               0.000989309               0.000092279               0.000001357               0.000329314               0.000330671               0.000000000               0.000000000               0.000000000               0.000000000               0.000336971               0.001108637               0.000079449              -0.000012215               0.000373614               0.000361398               0.000000000               0.000000000               0.000000000               0.000000000               0.000344314               0.001221345               0.000067607              -0.000023550               0.000414961               0.000391411               0.000000000               0.000000000               0.000000000               0.000000000               0.000361055               0.001339972               0.000056699              -0.000032101               0.000457353               0.000425252               0.000000000               0.000000000               0.000000000               0.000000000               0.000379351               0.001448778               0.000045147              -0.000038841               0.000495868               0.000457027               0.000000000               0.000000000               0.000000000               0.000000000               0.000395204               0.001543446               0.000034555              -0.000044729               0.000529387               0.000484658               0.000000000               0.000000000               0.000000000               0.000000000               0.000411694               0.001638030               0.000027048              -0.000050368               0.000562794               0.000512426               0.000000000               0.000000000               0.000000000               0.000000000               0.000429423               0.001732378               0.000021236              -0.000055514               0.000595958               0.000540445               0.000000000               0.000000000               0.000000000               0.000000000               0.000444928               0.001817218               0.000014439              -0.000060304               0.000625835               0.000565531               0.000000000               0.000000000               0.000000000               0.000000000               0.000456433               0.001888475               0.000006906              -0.000064897               0.000651118               0.000586221               0.000000000               0.000000000               0.000000000               0.000000000               0.000459215               0.001918946               0.000002481              -0.000067663               0.000662196               0.000594534               0.000000000               0.000000000               0.000000000               0.000000000               0.000111976               0.000076522               0.000031956               0.000032425               0.000014699               0.000047124               0.000000000               0.000000000               0.000000000               0.000000000               0.000214975               0.000179150               0.000051262               0.000058221               0.000040309               0.000098530               0.000000000               0.000000000               0.000000000               0.000000000               0.000291506               0.000350726               0.000066622               0.000065473               0.000095083               0.000160556               0.000000000               0.000000000               0.000000000               0.000000000               0.000322718               0.000520028               0.000067007               0.000056015               0.000154669               0.000210684               0.000000000               0.000000000               0.000000000               0.000000000               0.000337427               0.000674526               0.000063467               0.000042219               0.000210767               0.000252986               0.000000000               0.000000000               0.000000000               0.000000000               0.000346778               0.000818114               0.000057548               0.000027777               0.000263443               0.000291220               0.000000000               0.000000000               0.000000000               0.000000000               0.000352860               0.000951770               0.000049652               0.000013351               0.000312803               0.000326154               0.000000000               0.000000000               0.000000000               0.000000000               0.000359756               0.001075379               0.000043604               0.000000486               0.000358294               0.000358780               0.000000000               0.000000000               0.000000000               0.000000000               0.000369449               0.001197535               0.000038891              -0.000011149               0.000402891               0.000391742               0.000000000               0.000000000               0.000000000               0.000000000               0.000382872               0.001319465               0.000032878              -0.000021356               0.000446936               0.000425580               0.000000000               0.000000000               0.000000000               0.000000000               0.000396388               0.001425723               0.000024914              -0.000029570               0.000485093               0.000455523               0.000000000               0.000000000               0.000000000               0.000000000               0.000413029               0.001524812               0.000018348              -0.000035715               0.000520171               0.000484455               0.000000000               0.000000000               0.000000000               0.000000000               0.000434549               0.001627547               0.000014711              -0.000040488               0.000556006               0.000515519               0.000000000               0.000000000               0.000000000               0.000000000               0.000456716               0.001726140               0.000011650              -0.000044499               0.000590207               0.000545708               0.000000000               0.000000000               0.000000000               0.000000000               0.000477308               0.001814214               0.000007262              -0.000047786               0.000620661               0.000572875               0.000000000               0.000000000               0.000000000               0.000000000               0.000495501               0.001886135               0.000003036              -0.000049954               0.000645357               0.000595403               0.000000000               0.000000000               0.000000000               0.000000000               0.000502998               0.001916229               0.000001027              -0.000050904               0.000655705               0.000604800               0.000000000               0.000000000               0.000000000               0.000000000               0.000000000               0.000000000               0.000000000               0.000000000               0.000000000               0.000000000               0.000000000               0.000000000               0.000000000               0.000000000               0.000000000               0.000000000               0.000000000               0.000000000               0.000000000               0.000000000               0.000000000               0.000000000               0.000000000               0.000000000               0.000000000               0.000000000               0.000000000               0.000000000               0.000000000               0.000000000               0.000000000               0.000000000               0.000000000               0.000000000               0.000000000               0.000000000               0.000000000               0.000000000               0.000000000               0.000000000               0.000000000               0.000000000               0.000000000               0.000000000               0.000000000               0.000000000               0.000000000               0.000000000               0.000000000               0.000000000               0.000000000               0.000000000               0.000000000               0.000000000               0.000000000               0.000000000               0.000000000               0.000000000               0.000000000               0.000000000               0.000000000               0.000000000               0.000000000               0.000000000               0.000000000               0.000000000               0.000000000               0.000000000               0.000000000               0.000000000               0.000000000               0.000000000               0.000000000               0.000000000               0.000000000               0.000000000               0.000000000               0.000000000               0.000000000               0.000000000               0.000000000               0.000000000               0.000000000               0.000000000               0.000000000               0.000000000               0.000000000               0.000000000               0.000000000               0.000000000               0.000000000               0.000000000               0.000000000               0.000000000               0.000000000               0.000000000               0.000000000               0.000000000               0.000000000               0.000000000               0.000000000               0.000000000               0.000000000               0.000000000               0.000000000               0.000000000               0.000000000               0.000000000               0.000000000               0.000000000               0.000000000               0.000000000               0.000000000               0.000000000               0.000000000               0.000000000               0.000000000               0.000000000               0.000000000               0.000000000               0.000000000               0.000000000               0.000000000               0.000000000               0.000000000               0.000000000               0.000000000               0.000000000               0.000000000               0.000000000               0.000000000               0.000000000               0.000000000               0.000000000               0.000000000               0.000000000               0.000000000               0.000000000               0.000000000               0.000000000               0.000000000               0.000000000               0.000000000               0.000000000               0.000000000               0.000000000               0.000000000               0.000000000               0.000000000               0.000000000               0.000000000               0.000000000               0.000000000               0.000000000               0.000000000               0.000000000               0.000000000               0.000000000               0.000000000               0.000000000               0.000000000               0.000000000               0.000000000               0.000000000               0.000000000               0.000000000               0.000000000               0.000000000               0.000000000               0.000000000               0.000000000               0.000000000               0.000000000               0.000000000 </DataArray>
</PointData>
</Piece>
</UnstructuredGrid> </VTKFile>
