<?xml version="1.0"?>
<VTKFile type="UnstructuredGrid" version="0.1">
<UnstructuredGrid>
<Piece NumberOfPoints="      1156" NumberOfCells="      1024">
<Points>
<DataArray type="Float64"                                    Name="coordinates"                                                      NumberOfComponents=" 3" format="ascii">
              0.133000000               0.000000000               0.000000000               0.155937500               0.000000000               0.000000000               0.178875000               0.000000000               0.000000000               0.201812500               0.000000000               0.000000000               0.224750000               0.000000000               0.000000000               0.247687500               0.000000000               0.000000000               0.270625000               0.000000000               0.000000000               0.293562500               0.000000000               0.000000000               0.316500000               0.000000000               0.000000000               0.339437500               0.000000000               0.000000000               0.362375000               0.000000000               0.000000000               0.385312500               0.000000000               0.000000000               0.408250000               0.000000000               0.000000000               0.431187500               0.000000000               0.000000000               0.454125000               0.000000000               0.000000000               0.477062500               0.000000000               0.000000000               0.500000000               0.000000000               0.000000000               0.132359569               0.013036280               0.000000000               0.155337096               0.016127762               0.000000000               0.178314623               0.019219245               0.000000000               0.201292150               0.022310727               0.000000000               0.224269676               0.025402210               0.000000000               0.247247203               0.028493692               0.000000000               0.270224730               0.031585175               0.000000000               0.293202257               0.034676657               0.000000000               0.316179784               0.037768140               0.000000000               0.339157311               0.040859622               0.000000000               0.362134838               0.043951105               0.000000000               0.385112365               0.047042587               0.000000000               0.408089892               0.050134070               0.000000000               0.431067419               0.053225552               0.000000000               0.454044946               0.056317035               0.000000000               0.477022473               0.059408517               0.000000000               0.500000000               0.062500000               0.000000000               0.130444442               0.025947013               0.000000000               0.153541665               0.032137825               0.000000000               0.176638887               0.038328636               0.000000000               0.199736109               0.044519448               0.000000000               0.222833332               0.050710260               0.000000000               0.245930554               0.056901071               0.000000000               0.269027776               0.063091883               0.000000000               0.292124999               0.069282695               0.000000000               0.315222221               0.075473506               0.000000000               0.338319444               0.081664318               0.000000000               0.361416666               0.087855130               0.000000000               0.384513888               0.094045942               0.000000000               0.407611111               0.100236753               0.000000000               0.430708333               0.106427565               0.000000000               0.453805555               0.112618377               0.000000000               0.476902778               0.118809188               0.000000000               0.500000000               0.125000000               0.000000000               0.127273065               0.038607862               0.000000000               0.150568498               0.047913621               0.000000000               0.173863932               0.057219379               0.000000000               0.197159365               0.066525138               0.000000000               0.220454798               0.075830897               0.000000000               0.243750232               0.085136655               0.000000000               0.267045665               0.094442414               0.000000000               0.290341099               0.103748172               0.000000000               0.313636532               0.113053931               0.000000000               0.336931966               0.122359690               0.000000000               0.360227399               0.131665448               0.000000000               0.383522833               0.140971207               0.000000000               0.406818266               0.150276966               0.000000000               0.430113700               0.159582724               0.000000000               0.453409133               0.168888483               0.000000000               0.476704567               0.178194241               0.000000000               0.500000000               0.187500000               0.000000000               0.122875978               0.050896897               0.000000000               0.146446229               0.063340840               0.000000000               0.170016481               0.075784784               0.000000000               0.193586732               0.088228728               0.000000000               0.217156983               0.100672672               0.000000000               0.240727235               0.113116616               0.000000000               0.264297486               0.125560560               0.000000000               0.287867738               0.138004504               0.000000000               0.311437989               0.150448448               0.000000000               0.335008240               0.162892392               0.000000000               0.358578492               0.175336336               0.000000000               0.382148743               0.187780280               0.000000000               0.405718994               0.200224224               0.000000000               0.429289246               0.212668168               0.000000000               0.452859497               0.225112112               0.000000000               0.476429749               0.237556056               0.000000000               0.500000000               0.250000000               0.000000000               0.117295528               0.062695766               0.000000000               0.141214558               0.078308531               0.000000000               0.165133587               0.093921295               0.000000000               0.189052617               0.109534060               0.000000000               0.212971646               0.125146824               0.000000000               0.236890676               0.140759589               0.000000000               0.260809705               0.156372354               0.000000000               0.284728735               0.171985118               0.000000000               0.308647764               0.187597883               0.000000000               0.332566794               0.203210648               0.000000000               0.356485823               0.218823412               0.000000000               0.380404853               0.234436177               0.000000000               0.404323882               0.250048941               0.000000000               0.428242912               0.265661706               0.000000000               0.452161941               0.281274471               0.000000000               0.476080971               0.296887235               0.000000000               0.500000000               0.312500000               0.000000000               0.110585458               0.073890841               0.000000000               0.134923867               0.092710163               0.000000000               0.159262276               0.111529486               0.000000000               0.183600685               0.130348808               0.000000000               0.207939094               0.149168131               0.000000000               0.232277503               0.167987453               0.000000000               0.256615912               0.186806776               0.000000000               0.280954320               0.205626098               0.000000000               0.305292729               0.224445420               0.000000000               0.329631138               0.243264743               0.000000000               0.353969547               0.262084065               0.000000000               0.378307956               0.280903388               0.000000000               0.402646365               0.299722710               0.000000000               0.426984773               0.318542033               0.000000000               0.451323182               0.337361355               0.000000000               0.475661591               0.356180678               0.000000000               0.500000000               0.375000000               0.000000000               0.102810390               0.084374307               0.000000000               0.127634741               0.106444663               0.000000000               0.152459092               0.128515018               0.000000000               0.177283442               0.150585374               0.000000000               0.202107793               0.172655730               0.000000000               0.226932143               0.194726086               0.000000000               0.251756494               0.216796442               0.000000000               0.276580845               0.238866798               0.000000000               0.301405195               0.260937153               0.000000000               0.326229546               0.283007509               0.000000000               0.351053896               0.305077865               0.000000000               0.375878247               0.327148221               0.000000000               0.400702598               0.349218577               0.000000000               0.425526948               0.371288933               0.000000000               0.450351299               0.393359288               0.000000000               0.475175649               0.415429644               0.000000000               0.500000000               0.437500000               0.000000000               0.094045202               0.094045202               0.000000000               0.119417377               0.119417377               0.000000000               0.144789552               0.144789552               0.000000000               0.170161727               0.170161727               0.000000000               0.195533901               0.195533901               0.000000000               0.220906076               0.220906076               0.000000000               0.246278251               0.246278251               0.000000000               0.271650426               0.271650426               0.000000000               0.297022601               0.297022601               0.000000000               0.322394776               0.322394776               0.000000000               0.347766951               0.347766951               0.000000000               0.373139126               0.373139126               0.000000000               0.398511300               0.398511300               0.000000000               0.423883475               0.423883475               0.000000000               0.449255650               0.449255650               0.000000000               0.474627825               0.474627825               0.000000000               0.500000000               0.500000000               0.000000000               0.084374307               0.102810390               0.000000000               0.106444663               0.127634741               0.000000000               0.128515018               0.152459092               0.000000000               0.150585374               0.177283442               0.000000000               0.172655730               0.202107793               0.000000000               0.194726086               0.226932143               0.000000000               0.216796442               0.251756494               0.000000000               0.238866798               0.276580845               0.000000000               0.260937153               0.301405195               0.000000000               0.283007509               0.326229546               0.000000000               0.305077865               0.351053896               0.000000000               0.327148221               0.375878247               0.000000000               0.349218577               0.400702598               0.000000000               0.371288933               0.425526948               0.000000000               0.393359288               0.450351299               0.000000000               0.415429644               0.475175649               0.000000000               0.437500000               0.500000000               0.000000000               0.073890841               0.110585458               0.000000000               0.092710163               0.134923867               0.000000000               0.111529486               0.159262276               0.000000000               0.130348808               0.183600685               0.000000000               0.149168131               0.207939094               0.000000000               0.167987453               0.232277503               0.000000000               0.186806776               0.256615912               0.000000000               0.205626098               0.280954320               0.000000000               0.224445420               0.305292729               0.000000000               0.243264743               0.329631138               0.000000000               0.262084065               0.353969547               0.000000000               0.280903388               0.378307956               0.000000000               0.299722710               0.402646365               0.000000000               0.318542033               0.426984773               0.000000000               0.337361355               0.451323182               0.000000000               0.356180678               0.475661591               0.000000000               0.375000000               0.500000000               0.000000000               0.062695766               0.117295528               0.000000000               0.078308531               0.141214558               0.000000000               0.093921295               0.165133587               0.000000000               0.109534060               0.189052617               0.000000000               0.125146824               0.212971646               0.000000000               0.140759589               0.236890676               0.000000000               0.156372354               0.260809705               0.000000000               0.171985118               0.284728735               0.000000000               0.187597883               0.308647764               0.000000000               0.203210648               0.332566794               0.000000000               0.218823412               0.356485823               0.000000000               0.234436177               0.380404853               0.000000000               0.250048941               0.404323882               0.000000000               0.265661706               0.428242912               0.000000000               0.281274471               0.452161941               0.000000000               0.296887235               0.476080971               0.000000000               0.312500000               0.500000000               0.000000000               0.050896897               0.122875978               0.000000000               0.063340840               0.146446229               0.000000000               0.075784784               0.170016481               0.000000000               0.088228728               0.193586732               0.000000000               0.100672672               0.217156983               0.000000000               0.113116616               0.240727235               0.000000000               0.125560560               0.264297486               0.000000000               0.138004504               0.287867738               0.000000000               0.150448448               0.311437989               0.000000000               0.162892392               0.335008240               0.000000000               0.175336336               0.358578492               0.000000000               0.187780280               0.382148743               0.000000000               0.200224224               0.405718994               0.000000000               0.212668168               0.429289246               0.000000000               0.225112112               0.452859497               0.000000000               0.237556056               0.476429749               0.000000000               0.250000000               0.500000000               0.000000000               0.038607862               0.127273065               0.000000000               0.047913621               0.150568498               0.000000000               0.057219379               0.173863932               0.000000000               0.066525138               0.197159365               0.000000000               0.075830897               0.220454798               0.000000000               0.085136655               0.243750232               0.000000000               0.094442414               0.267045665               0.000000000               0.103748172               0.290341099               0.000000000               0.113053931               0.313636532               0.000000000               0.122359690               0.336931966               0.000000000               0.131665448               0.360227399               0.000000000               0.140971207               0.383522833               0.000000000               0.150276966               0.406818266               0.000000000               0.159582724               0.430113700               0.000000000               0.168888483               0.453409133               0.000000000               0.178194241               0.476704567               0.000000000               0.187500000               0.500000000               0.000000000               0.025947013               0.130444442               0.000000000               0.032137825               0.153541665               0.000000000               0.038328636               0.176638887               0.000000000               0.044519448               0.199736109               0.000000000               0.050710260               0.222833332               0.000000000               0.056901071               0.245930554               0.000000000               0.063091883               0.269027776               0.000000000               0.069282695               0.292124999               0.000000000               0.075473506               0.315222221               0.000000000               0.081664318               0.338319444               0.000000000               0.087855130               0.361416666               0.000000000               0.094045942               0.384513888               0.000000000               0.100236753               0.407611111               0.000000000               0.106427565               0.430708333               0.000000000               0.112618377               0.453805555               0.000000000               0.118809188               0.476902778               0.000000000               0.125000000               0.500000000               0.000000000               0.013036280               0.132359569               0.000000000               0.016127762               0.155337096               0.000000000               0.019219245               0.178314623               0.000000000               0.022310727               0.201292150               0.000000000               0.025402210               0.224269676               0.000000000               0.028493692               0.247247203               0.000000000               0.031585175               0.270224730               0.000000000               0.034676657               0.293202257               0.000000000               0.037768140               0.316179784               0.000000000               0.040859622               0.339157311               0.000000000               0.043951105               0.362134838               0.000000000               0.047042587               0.385112365               0.000000000               0.050134070               0.408089892               0.000000000               0.053225552               0.431067419               0.000000000               0.056317035               0.454044946               0.000000000               0.059408517               0.477022473               0.000000000               0.062500000               0.500000000               0.000000000               0.000000000               0.133000000               0.000000000               0.000000000               0.155937500               0.000000000               0.000000000               0.178875000               0.000000000               0.000000000               0.201812500               0.000000000               0.000000000               0.224750000               0.000000000               0.000000000               0.247687500               0.000000000               0.000000000               0.270625000               0.000000000               0.000000000               0.293562500               0.000000000               0.000000000               0.316500000               0.000000000               0.000000000               0.339437500               0.000000000               0.000000000               0.362375000               0.000000000               0.000000000               0.385312500               0.000000000               0.000000000               0.408250000               0.000000000               0.000000000               0.431187500               0.000000000               0.000000000               0.454125000               0.000000000               0.000000000               0.477062500               0.000000000               0.000000000               0.500000000               0.000000000               0.133000000               0.000000000               0.000000000               0.155937500               0.000000000               0.000000000               0.178875000               0.000000000               0.000000000               0.201812500               0.000000000               0.000000000               0.224750000               0.000000000               0.000000000               0.247687500               0.000000000               0.000000000               0.270625000               0.000000000               0.000000000               0.293562500               0.000000000               0.000000000               0.316500000               0.000000000               0.000000000               0.339437500               0.000000000               0.000000000               0.362375000               0.000000000               0.000000000               0.385312500               0.000000000               0.000000000               0.408250000               0.000000000               0.000000000               0.431187500               0.000000000               0.000000000               0.454125000               0.000000000               0.000000000               0.477062500               0.000000000               0.000000000               0.500000000               0.000000000               0.000000000               0.132359569              -0.013036280               0.000000000               0.155337096              -0.016127762               0.000000000               0.178314623              -0.019219245               0.000000000               0.201292150              -0.022310727               0.000000000               0.224269676              -0.025402210               0.000000000               0.247247203              -0.028493692               0.000000000               0.270224730              -0.031585175               0.000000000               0.293202257              -0.034676657               0.000000000               0.316179784              -0.037768140               0.000000000               0.339157311              -0.040859622               0.000000000               0.362134838              -0.043951105               0.000000000               0.385112365              -0.047042587               0.000000000               0.408089892              -0.050134070               0.000000000               0.431067419              -0.053225552               0.000000000               0.454044946              -0.056317035               0.000000000               0.477022473              -0.059408517               0.000000000               0.500000000              -0.062500000               0.000000000               0.130444442              -0.025947013               0.000000000               0.153541665              -0.032137825               0.000000000               0.176638887              -0.038328636               0.000000000               0.199736109              -0.044519448               0.000000000               0.222833332              -0.050710260               0.000000000               0.245930554              -0.056901071               0.000000000               0.269027776              -0.063091883               0.000000000               0.292124999              -0.069282695               0.000000000               0.315222221              -0.075473506               0.000000000               0.338319444              -0.081664318               0.000000000               0.361416666              -0.087855130               0.000000000               0.384513888              -0.094045942               0.000000000               0.407611111              -0.100236753               0.000000000               0.430708333              -0.106427565               0.000000000               0.453805555              -0.112618377               0.000000000               0.476902778              -0.118809188               0.000000000               0.500000000              -0.125000000               0.000000000               0.127273065              -0.038607862               0.000000000               0.150568498              -0.047913621               0.000000000               0.173863932              -0.057219379               0.000000000               0.197159365              -0.066525138               0.000000000               0.220454798              -0.075830897               0.000000000               0.243750232              -0.085136655               0.000000000               0.267045665              -0.094442414               0.000000000               0.290341099              -0.103748172               0.000000000               0.313636532              -0.113053931               0.000000000               0.336931966              -0.122359690               0.000000000               0.360227399              -0.131665448               0.000000000               0.383522833              -0.140971207               0.000000000               0.406818266              -0.150276966               0.000000000               0.430113700              -0.159582724               0.000000000               0.453409133              -0.168888483               0.000000000               0.476704567              -0.178194241               0.000000000               0.500000000              -0.187500000               0.000000000               0.122875978              -0.050896897               0.000000000               0.146446229              -0.063340840               0.000000000               0.170016481              -0.075784784               0.000000000               0.193586732              -0.088228728               0.000000000               0.217156983              -0.100672672               0.000000000               0.240727235              -0.113116616               0.000000000               0.264297486              -0.125560560               0.000000000               0.287867738              -0.138004504               0.000000000               0.311437989              -0.150448448               0.000000000               0.335008240              -0.162892392               0.000000000               0.358578492              -0.175336336               0.000000000               0.382148743              -0.187780280               0.000000000               0.405718994              -0.200224224               0.000000000               0.429289246              -0.212668168               0.000000000               0.452859497              -0.225112112               0.000000000               0.476429749              -0.237556056               0.000000000               0.500000000              -0.250000000               0.000000000               0.117295528              -0.062695766               0.000000000               0.141214558              -0.078308531               0.000000000               0.165133587              -0.093921295               0.000000000               0.189052617              -0.109534060               0.000000000               0.212971646              -0.125146824               0.000000000               0.236890676              -0.140759589               0.000000000               0.260809705              -0.156372354               0.000000000               0.284728735              -0.171985118               0.000000000               0.308647764              -0.187597883               0.000000000               0.332566794              -0.203210648               0.000000000               0.356485823              -0.218823412               0.000000000               0.380404853              -0.234436177               0.000000000               0.404323882              -0.250048941               0.000000000               0.428242912              -0.265661706               0.000000000               0.452161941              -0.281274471               0.000000000               0.476080971              -0.296887235               0.000000000               0.500000000              -0.312500000               0.000000000               0.110585458              -0.073890841               0.000000000               0.134923867              -0.092710163               0.000000000               0.159262276              -0.111529486               0.000000000               0.183600685              -0.130348808               0.000000000               0.207939094              -0.149168131               0.000000000               0.232277503              -0.167987453               0.000000000               0.256615912              -0.186806776               0.000000000               0.280954320              -0.205626098               0.000000000               0.305292729              -0.224445420               0.000000000               0.329631138              -0.243264743               0.000000000               0.353969547              -0.262084065               0.000000000               0.378307956              -0.280903388               0.000000000               0.402646365              -0.299722710               0.000000000               0.426984773              -0.318542033               0.000000000               0.451323182              -0.337361355               0.000000000               0.475661591              -0.356180678               0.000000000               0.500000000              -0.375000000               0.000000000               0.102810390              -0.084374307               0.000000000               0.127634741              -0.106444663               0.000000000               0.152459092              -0.128515018               0.000000000               0.177283442              -0.150585374               0.000000000               0.202107793              -0.172655730               0.000000000               0.226932143              -0.194726086               0.000000000               0.251756494              -0.216796442               0.000000000               0.276580845              -0.238866798               0.000000000               0.301405195              -0.260937153               0.000000000               0.326229546              -0.283007509               0.000000000               0.351053896              -0.305077865               0.000000000               0.375878247              -0.327148221               0.000000000               0.400702598              -0.349218577               0.000000000               0.425526948              -0.371288933               0.000000000               0.450351299              -0.393359288               0.000000000               0.475175649              -0.415429644               0.000000000               0.500000000              -0.437500000               0.000000000               0.094045202              -0.094045202               0.000000000               0.119417377              -0.119417377               0.000000000               0.144789552              -0.144789552               0.000000000               0.170161727              -0.170161727               0.000000000               0.195533901              -0.195533901               0.000000000               0.220906076              -0.220906076               0.000000000               0.246278251              -0.246278251               0.000000000               0.271650426              -0.271650426               0.000000000               0.297022601              -0.297022601               0.000000000               0.322394776              -0.322394776               0.000000000               0.347766951              -0.347766951               0.000000000               0.373139126              -0.373139126               0.000000000               0.398511300              -0.398511300               0.000000000               0.423883475              -0.423883475               0.000000000               0.449255650              -0.449255650               0.000000000               0.474627825              -0.474627825               0.000000000               0.500000000              -0.500000000               0.000000000               0.084374307              -0.102810390               0.000000000               0.106444663              -0.127634741               0.000000000               0.128515018              -0.152459092               0.000000000               0.150585374              -0.177283442               0.000000000               0.172655730              -0.202107793               0.000000000               0.194726086              -0.226932143               0.000000000               0.216796442              -0.251756494               0.000000000               0.238866798              -0.276580845               0.000000000               0.260937153              -0.301405195               0.000000000               0.283007509              -0.326229546               0.000000000               0.305077865              -0.351053896               0.000000000               0.327148221              -0.375878247               0.000000000               0.349218577              -0.400702598               0.000000000               0.371288933              -0.425526948               0.000000000               0.393359288              -0.450351299               0.000000000               0.415429644              -0.475175649               0.000000000               0.437500000              -0.500000000               0.000000000               0.073890841              -0.110585458               0.000000000               0.092710163              -0.134923867               0.000000000               0.111529486              -0.159262276               0.000000000               0.130348808              -0.183600685               0.000000000               0.149168131              -0.207939094               0.000000000               0.167987453              -0.232277503               0.000000000               0.186806776              -0.256615912               0.000000000               0.205626098              -0.280954320               0.000000000               0.224445420              -0.305292729               0.000000000               0.243264743              -0.329631138               0.000000000               0.262084065              -0.353969547               0.000000000               0.280903388              -0.378307956               0.000000000               0.299722710              -0.402646365               0.000000000               0.318542033              -0.426984773               0.000000000               0.337361355              -0.451323182               0.000000000               0.356180678              -0.475661591               0.000000000               0.375000000              -0.500000000               0.000000000               0.062695766              -0.117295528               0.000000000               0.078308531              -0.141214558               0.000000000               0.093921295              -0.165133587               0.000000000               0.109534060              -0.189052617               0.000000000               0.125146824              -0.212971646               0.000000000               0.140759589              -0.236890676               0.000000000               0.156372354              -0.260809705               0.000000000               0.171985118              -0.284728735               0.000000000               0.187597883              -0.308647764               0.000000000               0.203210648              -0.332566794               0.000000000               0.218823412              -0.356485823               0.000000000               0.234436177              -0.380404853               0.000000000               0.250048941              -0.404323882               0.000000000               0.265661706              -0.428242912               0.000000000               0.281274471              -0.452161941               0.000000000               0.296887235              -0.476080971               0.000000000               0.312500000              -0.500000000               0.000000000               0.050896897              -0.122875978               0.000000000               0.063340840              -0.146446229               0.000000000               0.075784784              -0.170016481               0.000000000               0.088228728              -0.193586732               0.000000000               0.100672672              -0.217156983               0.000000000               0.113116616              -0.240727235               0.000000000               0.125560560              -0.264297486               0.000000000               0.138004504              -0.287867738               0.000000000               0.150448448              -0.311437989               0.000000000               0.162892392              -0.335008240               0.000000000               0.175336336              -0.358578492               0.000000000               0.187780280              -0.382148743               0.000000000               0.200224224              -0.405718994               0.000000000               0.212668168              -0.429289246               0.000000000               0.225112112              -0.452859497               0.000000000               0.237556056              -0.476429749               0.000000000               0.250000000              -0.500000000               0.000000000               0.038607862              -0.127273065               0.000000000               0.047913621              -0.150568498               0.000000000               0.057219379              -0.173863932               0.000000000               0.066525138              -0.197159365               0.000000000               0.075830897              -0.220454798               0.000000000               0.085136655              -0.243750232               0.000000000               0.094442414              -0.267045665               0.000000000               0.103748172              -0.290341099               0.000000000               0.113053931              -0.313636532               0.000000000               0.122359690              -0.336931966               0.000000000               0.131665448              -0.360227399               0.000000000               0.140971207              -0.383522833               0.000000000               0.150276966              -0.406818266               0.000000000               0.159582724              -0.430113700               0.000000000               0.168888483              -0.453409133               0.000000000               0.178194241              -0.476704567               0.000000000               0.187500000              -0.500000000               0.000000000               0.025947013              -0.130444442               0.000000000               0.032137825              -0.153541665               0.000000000               0.038328636              -0.176638887               0.000000000               0.044519448              -0.199736109               0.000000000               0.050710260              -0.222833332               0.000000000               0.056901071              -0.245930554               0.000000000               0.063091883              -0.269027776               0.000000000               0.069282695              -0.292124999               0.000000000               0.075473506              -0.315222221               0.000000000               0.081664318              -0.338319444               0.000000000               0.087855130              -0.361416666               0.000000000               0.094045942              -0.384513888               0.000000000               0.100236753              -0.407611111               0.000000000               0.106427565              -0.430708333               0.000000000               0.112618377              -0.453805555               0.000000000               0.118809188              -0.476902778               0.000000000               0.125000000              -0.500000000               0.000000000               0.013036280              -0.132359569               0.000000000               0.016127762              -0.155337096               0.000000000               0.019219245              -0.178314623               0.000000000               0.022310727              -0.201292150               0.000000000               0.025402210              -0.224269676               0.000000000               0.028493692              -0.247247203               0.000000000               0.031585175              -0.270224730               0.000000000               0.034676657              -0.293202257               0.000000000               0.037768140              -0.316179784               0.000000000               0.040859622              -0.339157311               0.000000000               0.043951105              -0.362134838               0.000000000               0.047042587              -0.385112365               0.000000000               0.050134070              -0.408089892               0.000000000               0.053225552              -0.431067419               0.000000000               0.056317035              -0.454044946               0.000000000               0.059408517              -0.477022473               0.000000000               0.062500000              -0.500000000               0.000000000               0.000000000              -0.133000000               0.000000000               0.000000000              -0.155937500               0.000000000               0.000000000              -0.178875000               0.000000000               0.000000000              -0.201812500               0.000000000               0.000000000              -0.224750000               0.000000000               0.000000000              -0.247687500               0.000000000               0.000000000              -0.270625000               0.000000000               0.000000000              -0.293562500               0.000000000               0.000000000              -0.316500000               0.000000000               0.000000000              -0.339437500               0.000000000               0.000000000              -0.362375000               0.000000000               0.000000000              -0.385312500               0.000000000               0.000000000              -0.408250000               0.000000000               0.000000000              -0.431187500               0.000000000               0.000000000              -0.454125000               0.000000000               0.000000000              -0.477062500               0.000000000               0.000000000              -0.500000000               0.000000000              -0.133000000               0.000000000               0.000000000              -0.155937500               0.000000000               0.000000000              -0.178875000               0.000000000               0.000000000              -0.201812500               0.000000000               0.000000000              -0.224750000               0.000000000               0.000000000              -0.247687500               0.000000000               0.000000000              -0.270625000               0.000000000               0.000000000              -0.293562500               0.000000000               0.000000000              -0.316500000               0.000000000               0.000000000              -0.339437500               0.000000000               0.000000000              -0.362375000               0.000000000               0.000000000              -0.385312500               0.000000000               0.000000000              -0.408250000               0.000000000               0.000000000              -0.431187500               0.000000000               0.000000000              -0.454125000               0.000000000               0.000000000              -0.477062500               0.000000000               0.000000000              -0.500000000               0.000000000               0.000000000              -0.132359569              -0.013036280               0.000000000              -0.155337096              -0.016127762               0.000000000              -0.178314623              -0.019219245               0.000000000              -0.201292150              -0.022310727               0.000000000              -0.224269676              -0.025402210               0.000000000              -0.247247203              -0.028493692               0.000000000              -0.270224730              -0.031585175               0.000000000              -0.293202257              -0.034676657               0.000000000              -0.316179784              -0.037768140               0.000000000              -0.339157311              -0.040859622               0.000000000              -0.362134838              -0.043951105               0.000000000              -0.385112365              -0.047042587               0.000000000              -0.408089892              -0.050134070               0.000000000              -0.431067419              -0.053225552               0.000000000              -0.454044946              -0.056317035               0.000000000              -0.477022473              -0.059408517               0.000000000              -0.500000000              -0.062500000               0.000000000              -0.130444442              -0.025947013               0.000000000              -0.153541665              -0.032137825               0.000000000              -0.176638887              -0.038328636               0.000000000              -0.199736109              -0.044519448               0.000000000              -0.222833332              -0.050710260               0.000000000              -0.245930554              -0.056901071               0.000000000              -0.269027776              -0.063091883               0.000000000              -0.292124999              -0.069282695               0.000000000              -0.315222221              -0.075473506               0.000000000              -0.338319444              -0.081664318               0.000000000              -0.361416666              -0.087855130               0.000000000              -0.384513888              -0.094045942               0.000000000              -0.407611111              -0.100236753               0.000000000              -0.430708333              -0.106427565               0.000000000              -0.453805555              -0.112618377               0.000000000              -0.476902778              -0.118809188               0.000000000              -0.500000000              -0.125000000               0.000000000              -0.127273065              -0.038607862               0.000000000              -0.150568498              -0.047913621               0.000000000              -0.173863932              -0.057219379               0.000000000              -0.197159365              -0.066525138               0.000000000              -0.220454798              -0.075830897               0.000000000              -0.243750232              -0.085136655               0.000000000              -0.267045665              -0.094442414               0.000000000              -0.290341099              -0.103748172               0.000000000              -0.313636532              -0.113053931               0.000000000              -0.336931966              -0.122359690               0.000000000              -0.360227399              -0.131665448               0.000000000              -0.383522833              -0.140971207               0.000000000              -0.406818266              -0.150276966               0.000000000              -0.430113700              -0.159582724               0.000000000              -0.453409133              -0.168888483               0.000000000              -0.476704567              -0.178194241               0.000000000              -0.500000000              -0.187500000               0.000000000              -0.122875978              -0.050896897               0.000000000              -0.146446229              -0.063340840               0.000000000              -0.170016481              -0.075784784               0.000000000              -0.193586732              -0.088228728               0.000000000              -0.217156983              -0.100672672               0.000000000              -0.240727235              -0.113116616               0.000000000              -0.264297486              -0.125560560               0.000000000              -0.287867738              -0.138004504               0.000000000              -0.311437989              -0.150448448               0.000000000              -0.335008240              -0.162892392               0.000000000              -0.358578492              -0.175336336               0.000000000              -0.382148743              -0.187780280               0.000000000              -0.405718994              -0.200224224               0.000000000              -0.429289246              -0.212668168               0.000000000              -0.452859497              -0.225112112               0.000000000              -0.476429749              -0.237556056               0.000000000              -0.500000000              -0.250000000               0.000000000              -0.117295528              -0.062695766               0.000000000              -0.141214558              -0.078308531               0.000000000              -0.165133587              -0.093921295               0.000000000              -0.189052617              -0.109534060               0.000000000              -0.212971646              -0.125146824               0.000000000              -0.236890676              -0.140759589               0.000000000              -0.260809705              -0.156372354               0.000000000              -0.284728735              -0.171985118               0.000000000              -0.308647764              -0.187597883               0.000000000              -0.332566794              -0.203210648               0.000000000              -0.356485823              -0.218823412               0.000000000              -0.380404853              -0.234436177               0.000000000              -0.404323882              -0.250048941               0.000000000              -0.428242912              -0.265661706               0.000000000              -0.452161941              -0.281274471               0.000000000              -0.476080971              -0.296887235               0.000000000              -0.500000000              -0.312500000               0.000000000              -0.110585458              -0.073890841               0.000000000              -0.134923867              -0.092710163               0.000000000              -0.159262276              -0.111529486               0.000000000              -0.183600685              -0.130348808               0.000000000              -0.207939094              -0.149168131               0.000000000              -0.232277503              -0.167987453               0.000000000              -0.256615912              -0.186806776               0.000000000              -0.280954320              -0.205626098               0.000000000              -0.305292729              -0.224445420               0.000000000              -0.329631138              -0.243264743               0.000000000              -0.353969547              -0.262084065               0.000000000              -0.378307956              -0.280903388               0.000000000              -0.402646365              -0.299722710               0.000000000              -0.426984773              -0.318542033               0.000000000              -0.451323182              -0.337361355               0.000000000              -0.475661591              -0.356180678               0.000000000              -0.500000000              -0.375000000               0.000000000              -0.102810390              -0.084374307               0.000000000              -0.127634741              -0.106444663               0.000000000              -0.152459092              -0.128515018               0.000000000              -0.177283442              -0.150585374               0.000000000              -0.202107793              -0.172655730               0.000000000              -0.226932143              -0.194726086               0.000000000              -0.251756494              -0.216796442               0.000000000              -0.276580845              -0.238866798               0.000000000              -0.301405195              -0.260937153               0.000000000              -0.326229546              -0.283007509               0.000000000              -0.351053896              -0.305077865               0.000000000              -0.375878247              -0.327148221               0.000000000              -0.400702598              -0.349218577               0.000000000              -0.425526948              -0.371288933               0.000000000              -0.450351299              -0.393359288               0.000000000              -0.475175649              -0.415429644               0.000000000              -0.500000000              -0.437500000               0.000000000              -0.094045202              -0.094045202               0.000000000              -0.119417377              -0.119417377               0.000000000              -0.144789552              -0.144789552               0.000000000              -0.170161727              -0.170161727               0.000000000              -0.195533901              -0.195533901               0.000000000              -0.220906076              -0.220906076               0.000000000              -0.246278251              -0.246278251               0.000000000              -0.271650426              -0.271650426               0.000000000              -0.297022601              -0.297022601               0.000000000              -0.322394776              -0.322394776               0.000000000              -0.347766951              -0.347766951               0.000000000              -0.373139126              -0.373139126               0.000000000              -0.398511300              -0.398511300               0.000000000              -0.423883475              -0.423883475               0.000000000              -0.449255650              -0.449255650               0.000000000              -0.474627825              -0.474627825               0.000000000              -0.500000000              -0.500000000               0.000000000              -0.084374307              -0.102810390               0.000000000              -0.106444663              -0.127634741               0.000000000              -0.128515018              -0.152459092               0.000000000              -0.150585374              -0.177283442               0.000000000              -0.172655730              -0.202107793               0.000000000              -0.194726086              -0.226932143               0.000000000              -0.216796442              -0.251756494               0.000000000              -0.238866798              -0.276580845               0.000000000              -0.260937153              -0.301405195               0.000000000              -0.283007509              -0.326229546               0.000000000              -0.305077865              -0.351053896               0.000000000              -0.327148221              -0.375878247               0.000000000              -0.349218577              -0.400702598               0.000000000              -0.371288933              -0.425526948               0.000000000              -0.393359288              -0.450351299               0.000000000              -0.415429644              -0.475175649               0.000000000              -0.437500000              -0.500000000               0.000000000              -0.073890841              -0.110585458               0.000000000              -0.092710163              -0.134923867               0.000000000              -0.111529486              -0.159262276               0.000000000              -0.130348808              -0.183600685               0.000000000              -0.149168131              -0.207939094               0.000000000              -0.167987453              -0.232277503               0.000000000              -0.186806776              -0.256615912               0.000000000              -0.205626098              -0.280954320               0.000000000              -0.224445420              -0.305292729               0.000000000              -0.243264743              -0.329631138               0.000000000              -0.262084065              -0.353969547               0.000000000              -0.280903388              -0.378307956               0.000000000              -0.299722710              -0.402646365               0.000000000              -0.318542033              -0.426984773               0.000000000              -0.337361355              -0.451323182               0.000000000              -0.356180678              -0.475661591               0.000000000              -0.375000000              -0.500000000               0.000000000              -0.062695766              -0.117295528               0.000000000              -0.078308531              -0.141214558               0.000000000              -0.093921295              -0.165133587               0.000000000              -0.109534060              -0.189052617               0.000000000              -0.125146824              -0.212971646               0.000000000              -0.140759589              -0.236890676               0.000000000              -0.156372354              -0.260809705               0.000000000              -0.171985118              -0.284728735               0.000000000              -0.187597883              -0.308647764               0.000000000              -0.203210648              -0.332566794               0.000000000              -0.218823412              -0.356485823               0.000000000              -0.234436177              -0.380404853               0.000000000              -0.250048941              -0.404323882               0.000000000              -0.265661706              -0.428242912               0.000000000              -0.281274471              -0.452161941               0.000000000              -0.296887235              -0.476080971               0.000000000              -0.312500000              -0.500000000               0.000000000              -0.050896897              -0.122875978               0.000000000              -0.063340840              -0.146446229               0.000000000              -0.075784784              -0.170016481               0.000000000              -0.088228728              -0.193586732               0.000000000              -0.100672672              -0.217156983               0.000000000              -0.113116616              -0.240727235               0.000000000              -0.125560560              -0.264297486               0.000000000              -0.138004504              -0.287867738               0.000000000              -0.150448448              -0.311437989               0.000000000              -0.162892392              -0.335008240               0.000000000              -0.175336336              -0.358578492               0.000000000              -0.187780280              -0.382148743               0.000000000              -0.200224224              -0.405718994               0.000000000              -0.212668168              -0.429289246               0.000000000              -0.225112112              -0.452859497               0.000000000              -0.237556056              -0.476429749               0.000000000              -0.250000000              -0.500000000               0.000000000              -0.038607862              -0.127273065               0.000000000              -0.047913621              -0.150568498               0.000000000              -0.057219379              -0.173863932               0.000000000              -0.066525138              -0.197159365               0.000000000              -0.075830897              -0.220454798               0.000000000              -0.085136655              -0.243750232               0.000000000              -0.094442414              -0.267045665               0.000000000              -0.103748172              -0.290341099               0.000000000              -0.113053931              -0.313636532               0.000000000              -0.122359690              -0.336931966               0.000000000              -0.131665448              -0.360227399               0.000000000              -0.140971207              -0.383522833               0.000000000              -0.150276966              -0.406818266               0.000000000              -0.159582724              -0.430113700               0.000000000              -0.168888483              -0.453409133               0.000000000              -0.178194241              -0.476704567               0.000000000              -0.187500000              -0.500000000               0.000000000              -0.025947013              -0.130444442               0.000000000              -0.032137825              -0.153541665               0.000000000              -0.038328636              -0.176638887               0.000000000              -0.044519448              -0.199736109               0.000000000              -0.050710260              -0.222833332               0.000000000              -0.056901071              -0.245930554               0.000000000              -0.063091883              -0.269027776               0.000000000              -0.069282695              -0.292124999               0.000000000              -0.075473506              -0.315222221               0.000000000              -0.081664318              -0.338319444               0.000000000              -0.087855130              -0.361416666               0.000000000              -0.094045942              -0.384513888               0.000000000              -0.100236753              -0.407611111               0.000000000              -0.106427565              -0.430708333               0.000000000              -0.112618377              -0.453805555               0.000000000              -0.118809188              -0.476902778               0.000000000              -0.125000000              -0.500000000               0.000000000              -0.013036280              -0.132359569               0.000000000              -0.016127762              -0.155337096               0.000000000              -0.019219245              -0.178314623               0.000000000              -0.022310727              -0.201292150               0.000000000              -0.025402210              -0.224269676               0.000000000              -0.028493692              -0.247247203               0.000000000              -0.031585175              -0.270224730               0.000000000              -0.034676657              -0.293202257               0.000000000              -0.037768140              -0.316179784               0.000000000              -0.040859622              -0.339157311               0.000000000              -0.043951105              -0.362134838               0.000000000              -0.047042587              -0.385112365               0.000000000              -0.050134070              -0.408089892               0.000000000              -0.053225552              -0.431067419               0.000000000              -0.056317035              -0.454044946               0.000000000              -0.059408517              -0.477022473               0.000000000              -0.062500000              -0.500000000               0.000000000               0.000000000              -0.133000000               0.000000000               0.000000000              -0.155937500               0.000000000               0.000000000              -0.178875000               0.000000000               0.000000000              -0.201812500               0.000000000               0.000000000              -0.224750000               0.000000000               0.000000000              -0.247687500               0.000000000               0.000000000              -0.270625000               0.000000000               0.000000000              -0.293562500               0.000000000               0.000000000              -0.316500000               0.000000000               0.000000000              -0.339437500               0.000000000               0.000000000              -0.362375000               0.000000000               0.000000000              -0.385312500               0.000000000               0.000000000              -0.408250000               0.000000000               0.000000000              -0.431187500               0.000000000               0.000000000              -0.454125000               0.000000000               0.000000000              -0.477062500               0.000000000               0.000000000              -0.500000000               0.000000000              -0.133000000               0.000000000               0.000000000              -0.155937500               0.000000000               0.000000000              -0.178875000               0.000000000               0.000000000              -0.201812500               0.000000000               0.000000000              -0.224750000               0.000000000               0.000000000              -0.247687500               0.000000000               0.000000000              -0.270625000               0.000000000               0.000000000              -0.293562500               0.000000000               0.000000000              -0.316500000               0.000000000               0.000000000              -0.339437500               0.000000000               0.000000000              -0.362375000               0.000000000               0.000000000              -0.385312500               0.000000000               0.000000000              -0.408250000               0.000000000               0.000000000              -0.431187500               0.000000000               0.000000000              -0.454125000               0.000000000               0.000000000              -0.477062500               0.000000000               0.000000000              -0.500000000               0.000000000               0.000000000              -0.132359569               0.013036280               0.000000000              -0.155337096               0.016127762               0.000000000              -0.178314623               0.019219245               0.000000000              -0.201292150               0.022310727               0.000000000              -0.224269676               0.025402210               0.000000000              -0.247247203               0.028493692               0.000000000              -0.270224730               0.031585175               0.000000000              -0.293202257               0.034676657               0.000000000              -0.316179784               0.037768140               0.000000000              -0.339157311               0.040859622               0.000000000              -0.362134838               0.043951105               0.000000000              -0.385112365               0.047042587               0.000000000              -0.408089892               0.050134070               0.000000000              -0.431067419               0.053225552               0.000000000              -0.454044946               0.056317035               0.000000000              -0.477022473               0.059408517               0.000000000              -0.500000000               0.062500000               0.000000000              -0.130444442               0.025947013               0.000000000              -0.153541665               0.032137825               0.000000000              -0.176638887               0.038328636               0.000000000              -0.199736109               0.044519448               0.000000000              -0.222833332               0.050710260               0.000000000              -0.245930554               0.056901071               0.000000000              -0.269027776               0.063091883               0.000000000              -0.292124999               0.069282695               0.000000000              -0.315222221               0.075473506               0.000000000              -0.338319444               0.081664318               0.000000000              -0.361416666               0.087855130               0.000000000              -0.384513888               0.094045942               0.000000000              -0.407611111               0.100236753               0.000000000              -0.430708333               0.106427565               0.000000000              -0.453805555               0.112618377               0.000000000              -0.476902778               0.118809188               0.000000000              -0.500000000               0.125000000               0.000000000              -0.127273065               0.038607862               0.000000000              -0.150568498               0.047913621               0.000000000              -0.173863932               0.057219379               0.000000000              -0.197159365               0.066525138               0.000000000              -0.220454798               0.075830897               0.000000000              -0.243750232               0.085136655               0.000000000              -0.267045665               0.094442414               0.000000000              -0.290341099               0.103748172               0.000000000              -0.313636532               0.113053931               0.000000000              -0.336931966               0.122359690               0.000000000              -0.360227399               0.131665448               0.000000000              -0.383522833               0.140971207               0.000000000              -0.406818266               0.150276966               0.000000000              -0.430113700               0.159582724               0.000000000              -0.453409133               0.168888483               0.000000000              -0.476704567               0.178194241               0.000000000              -0.500000000               0.187500000               0.000000000              -0.122875978               0.050896897               0.000000000              -0.146446229               0.063340840               0.000000000              -0.170016481               0.075784784               0.000000000              -0.193586732               0.088228728               0.000000000              -0.217156983               0.100672672               0.000000000              -0.240727235               0.113116616               0.000000000              -0.264297486               0.125560560               0.000000000              -0.287867738               0.138004504               0.000000000              -0.311437989               0.150448448               0.000000000              -0.335008240               0.162892392               0.000000000              -0.358578492               0.175336336               0.000000000              -0.382148743               0.187780280               0.000000000              -0.405718994               0.200224224               0.000000000              -0.429289246               0.212668168               0.000000000              -0.452859497               0.225112112               0.000000000              -0.476429749               0.237556056               0.000000000              -0.500000000               0.250000000               0.000000000              -0.117295528               0.062695766               0.000000000              -0.141214558               0.078308531               0.000000000              -0.165133587               0.093921295               0.000000000              -0.189052617               0.109534060               0.000000000              -0.212971646               0.125146824               0.000000000              -0.236890676               0.140759589               0.000000000              -0.260809705               0.156372354               0.000000000              -0.284728735               0.171985118               0.000000000              -0.308647764               0.187597883               0.000000000              -0.332566794               0.203210648               0.000000000              -0.356485823               0.218823412               0.000000000              -0.380404853               0.234436177               0.000000000              -0.404323882               0.250048941               0.000000000              -0.428242912               0.265661706               0.000000000              -0.452161941               0.281274471               0.000000000              -0.476080971               0.296887235               0.000000000              -0.500000000               0.312500000               0.000000000              -0.110585458               0.073890841               0.000000000              -0.134923867               0.092710163               0.000000000              -0.159262276               0.111529486               0.000000000              -0.183600685               0.130348808               0.000000000              -0.207939094               0.149168131               0.000000000              -0.232277503               0.167987453               0.000000000              -0.256615912               0.186806776               0.000000000              -0.280954320               0.205626098               0.000000000              -0.305292729               0.224445420               0.000000000              -0.329631138               0.243264743               0.000000000              -0.353969547               0.262084065               0.000000000              -0.378307956               0.280903388               0.000000000              -0.402646365               0.299722710               0.000000000              -0.426984773               0.318542033               0.000000000              -0.451323182               0.337361355               0.000000000              -0.475661591               0.356180678               0.000000000              -0.500000000               0.375000000               0.000000000              -0.102810390               0.084374307               0.000000000              -0.127634741               0.106444663               0.000000000              -0.152459092               0.128515018               0.000000000              -0.177283442               0.150585374               0.000000000              -0.202107793               0.172655730               0.000000000              -0.226932143               0.194726086               0.000000000              -0.251756494               0.216796442               0.000000000              -0.276580845               0.238866798               0.000000000              -0.301405195               0.260937153               0.000000000              -0.326229546               0.283007509               0.000000000              -0.351053896               0.305077865               0.000000000              -0.375878247               0.327148221               0.000000000              -0.400702598               0.349218577               0.000000000              -0.425526948               0.371288933               0.000000000              -0.450351299               0.393359288               0.000000000              -0.475175649               0.415429644               0.000000000              -0.500000000               0.437500000               0.000000000              -0.094045202               0.094045202               0.000000000              -0.119417377               0.119417377               0.000000000              -0.144789552               0.144789552               0.000000000              -0.170161727               0.170161727               0.000000000              -0.195533901               0.195533901               0.000000000              -0.220906076               0.220906076               0.000000000              -0.246278251               0.246278251               0.000000000              -0.271650426               0.271650426               0.000000000              -0.297022601               0.297022601               0.000000000              -0.322394776               0.322394776               0.000000000              -0.347766951               0.347766951               0.000000000              -0.373139126               0.373139126               0.000000000              -0.398511300               0.398511300               0.000000000              -0.423883475               0.423883475               0.000000000              -0.449255650               0.449255650               0.000000000              -0.474627825               0.474627825               0.000000000              -0.500000000               0.500000000               0.000000000              -0.084374307               0.102810390               0.000000000              -0.106444663               0.127634741               0.000000000              -0.128515018               0.152459092               0.000000000              -0.150585374               0.177283442               0.000000000              -0.172655730               0.202107793               0.000000000              -0.194726086               0.226932143               0.000000000              -0.216796442               0.251756494               0.000000000              -0.238866798               0.276580845               0.000000000              -0.260937153               0.301405195               0.000000000              -0.283007509               0.326229546               0.000000000              -0.305077865               0.351053896               0.000000000              -0.327148221               0.375878247               0.000000000              -0.349218577               0.400702598               0.000000000              -0.371288933               0.425526948               0.000000000              -0.393359288               0.450351299               0.000000000              -0.415429644               0.475175649               0.000000000              -0.437500000               0.500000000               0.000000000              -0.073890841               0.110585458               0.000000000              -0.092710163               0.134923867               0.000000000              -0.111529486               0.159262276               0.000000000              -0.130348808               0.183600685               0.000000000              -0.149168131               0.207939094               0.000000000              -0.167987453               0.232277503               0.000000000              -0.186806776               0.256615912               0.000000000              -0.205626098               0.280954320               0.000000000              -0.224445420               0.305292729               0.000000000              -0.243264743               0.329631138               0.000000000              -0.262084065               0.353969547               0.000000000              -0.280903388               0.378307956               0.000000000              -0.299722710               0.402646365               0.000000000              -0.318542033               0.426984773               0.000000000              -0.337361355               0.451323182               0.000000000              -0.356180678               0.475661591               0.000000000              -0.375000000               0.500000000               0.000000000              -0.062695766               0.117295528               0.000000000              -0.078308531               0.141214558               0.000000000              -0.093921295               0.165133587               0.000000000              -0.109534060               0.189052617               0.000000000              -0.125146824               0.212971646               0.000000000              -0.140759589               0.236890676               0.000000000              -0.156372354               0.260809705               0.000000000              -0.171985118               0.284728735               0.000000000              -0.187597883               0.308647764               0.000000000              -0.203210648               0.332566794               0.000000000              -0.218823412               0.356485823               0.000000000              -0.234436177               0.380404853               0.000000000              -0.250048941               0.404323882               0.000000000              -0.265661706               0.428242912               0.000000000              -0.281274471               0.452161941               0.000000000              -0.296887235               0.476080971               0.000000000              -0.312500000               0.500000000               0.000000000              -0.050896897               0.122875978               0.000000000              -0.063340840               0.146446229               0.000000000              -0.075784784               0.170016481               0.000000000              -0.088228728               0.193586732               0.000000000              -0.100672672               0.217156983               0.000000000              -0.113116616               0.240727235               0.000000000              -0.125560560               0.264297486               0.000000000              -0.138004504               0.287867738               0.000000000              -0.150448448               0.311437989               0.000000000              -0.162892392               0.335008240               0.000000000              -0.175336336               0.358578492               0.000000000              -0.187780280               0.382148743               0.000000000              -0.200224224               0.405718994               0.000000000              -0.212668168               0.429289246               0.000000000              -0.225112112               0.452859497               0.000000000              -0.237556056               0.476429749               0.000000000              -0.250000000               0.500000000               0.000000000              -0.038607862               0.127273065               0.000000000              -0.047913621               0.150568498               0.000000000              -0.057219379               0.173863932               0.000000000              -0.066525138               0.197159365               0.000000000              -0.075830897               0.220454798               0.000000000              -0.085136655               0.243750232               0.000000000              -0.094442414               0.267045665               0.000000000              -0.103748172               0.290341099               0.000000000              -0.113053931               0.313636532               0.000000000              -0.122359690               0.336931966               0.000000000              -0.131665448               0.360227399               0.000000000              -0.140971207               0.383522833               0.000000000              -0.150276966               0.406818266               0.000000000              -0.159582724               0.430113700               0.000000000              -0.168888483               0.453409133               0.000000000              -0.178194241               0.476704567               0.000000000              -0.187500000               0.500000000               0.000000000              -0.025947013               0.130444442               0.000000000              -0.032137825               0.153541665               0.000000000              -0.038328636               0.176638887               0.000000000              -0.044519448               0.199736109               0.000000000              -0.050710260               0.222833332               0.000000000              -0.056901071               0.245930554               0.000000000              -0.063091883               0.269027776               0.000000000              -0.069282695               0.292124999               0.000000000              -0.075473506               0.315222221               0.000000000              -0.081664318               0.338319444               0.000000000              -0.087855130               0.361416666               0.000000000              -0.094045942               0.384513888               0.000000000              -0.100236753               0.407611111               0.000000000              -0.106427565               0.430708333               0.000000000              -0.112618377               0.453805555               0.000000000              -0.118809188               0.476902778               0.000000000              -0.125000000               0.500000000               0.000000000              -0.013036280               0.132359569               0.000000000              -0.016127762               0.155337096               0.000000000              -0.019219245               0.178314623               0.000000000              -0.022310727               0.201292150               0.000000000              -0.025402210               0.224269676               0.000000000              -0.028493692               0.247247203               0.000000000              -0.031585175               0.270224730               0.000000000              -0.034676657               0.293202257               0.000000000              -0.037768140               0.316179784               0.000000000              -0.040859622               0.339157311               0.000000000              -0.043951105               0.362134838               0.000000000              -0.047042587               0.385112365               0.000000000              -0.050134070               0.408089892               0.000000000              -0.053225552               0.431067419               0.000000000              -0.056317035               0.454044946               0.000000000              -0.059408517               0.477022473               0.000000000              -0.062500000               0.500000000               0.000000000               0.000000000               0.133000000               0.000000000               0.000000000               0.155937500               0.000000000               0.000000000               0.178875000               0.000000000               0.000000000               0.201812500               0.000000000               0.000000000               0.224750000               0.000000000               0.000000000               0.247687500               0.000000000               0.000000000               0.270625000               0.000000000               0.000000000               0.293562500               0.000000000               0.000000000               0.316500000               0.000000000               0.000000000               0.339437500               0.000000000               0.000000000               0.362375000               0.000000000               0.000000000               0.385312500               0.000000000               0.000000000               0.408250000               0.000000000               0.000000000               0.431187500               0.000000000               0.000000000               0.454125000               0.000000000               0.000000000               0.477062500               0.000000000               0.000000000               0.500000000               0.000000000 </DataArray>
</Points>
<Cells>
<DataArray type="Int32"                                    Name="connectivity"                                                      NumberOfComponents=" 1" format="ascii">
         0          1         18         17          1          2         19         18          2          3         20         19          3          4         21         20          4          5         22         21          5          6         23         22          6          7         24         23          7          8         25         24          8          9         26         25          9         10         27         26         10         11         28         27         11         12         29         28         12         13         30         29         13         14         31         30         14         15         32         31         15         16         33         32         17         18         35         34         18         19         36         35         19         20         37         36         20         21         38         37         21         22         39         38         22         23         40         39         23         24         41         40         24         25         42         41         25         26         43         42         26         27         44         43         27         28         45         44         28         29         46         45         29         30         47         46         30         31         48         47         31         32         49         48         32         33         50         49         34         35         52         51         35         36         53         52         36         37         54         53         37         38         55         54         38         39         56         55         39         40         57         56         40         41         58         57         41         42         59         58         42         43         60         59         43         44         61         60         44         45         62         61         45         46         63         62         46         47         64         63         47         48         65         64         48         49         66         65         49         50         67         66         51         52         69         68         52         53         70         69         53         54         71         70         54         55         72         71         55         56         73         72         56         57         74         73         57         58         75         74         58         59         76         75         59         60         77         76         60         61         78         77         61         62         79         78         62         63         80         79         63         64         81         80         64         65         82         81         65         66         83         82         66         67         84         83         68         69         86         85         69         70         87         86         70         71         88         87         71         72         89         88         72         73         90         89         73         74         91         90         74         75         92         91         75         76         93         92         76         77         94         93         77         78         95         94         78         79         96         95         79         80         97         96         80         81         98         97         81         82         99         98         82         83        100         99         83         84        101        100         85         86        103        102         86         87        104        103         87         88        105        104         88         89        106        105         89         90        107        106         90         91        108        107         91         92        109        108         92         93        110        109         93         94        111        110         94         95        112        111         95         96        113        112         96         97        114        113         97         98        115        114         98         99        116        115         99        100        117        116        100        101        118        117        102        103        120        119        103        104        121        120        104        105        122        121        105        106        123        122        106        107        124        123        107        108        125        124        108        109        126        125        109        110        127        126        110        111        128        127        111        112        129        128        112        113        130        129        113        114        131        130        114        115        132        131        115        116        133        132        116        117        134        133        117        118        135        134        119        120        137        136        120        121        138        137        121        122        139        138        122        123        140        139        123        124        141        140        124        125        142        141        125        126        143        142        126        127        144        143        127        128        145        144        128        129        146        145        129        130        147        146        130        131        148        147        131        132        149        148        132        133        150        149        133        134        151        150        134        135        152        151        136        137        154        153        137        138        155        154        138        139        156        155        139        140        157        156        140        141        158        157        141        142        159        158        142        143        160        159        143        144        161        160        144        145        162        161        145        146        163        162        146        147        164        163        147        148        165        164        148        149        166        165        149        150        167        166        150        151        168        167        151        152        169        168        153        154        171        170        154        155        172        171        155        156        173        172        156        157        174        173        157        158        175        174        158        159        176        175        159        160        177        176        160        161        178        177        161        162        179        178        162        163        180        179        163        164        181        180        164        165        182        181        165        166        183        182        166        167        184        183        167        168        185        184        168        169        186        185        170        171        188        187        171        172        189        188        172        173        190        189        173        174        191        190        174        175        192        191        175        176        193        192        176        177        194        193        177        178        195        194        178        179        196        195        179        180        197        196        180        181        198        197        181        182        199        198        182        183        200        199        183        184        201        200        184        185        202        201        185        186        203        202        187        188        205        204        188        189        206        205        189        190        207        206        190        191        208        207        191        192        209        208        192        193        210        209        193        194        211        210        194        195        212        211        195        196        213        212        196        197        214        213        197        198        215        214        198        199        216        215        199        200        217        216        200        201        218        217        201        202        219        218        202        203        220        219        204        205        222        221        205        206        223        222        206        207        224        223        207        208        225        224        208        209        226        225        209        210        227        226        210        211        228        227        211        212        229        228        212        213        230        229        213        214        231        230        214        215        232        231        215        216        233        232        216        217        234        233        217        218        235        234        218        219        236        235        219        220        237        236        221        222        239        238        222        223        240        239        223        224        241        240        224        225        242        241        225        226        243        242        226        227        244        243        227        228        245        244        228        229        246        245        229        230        247        246        230        231        248        247        231        232        249        248        232        233        250        249        233        234        251        250        234        235        252        251        235        236        253        252        236        237        254        253        238        239        256        255        239        240        257        256        240        241        258        257        241        242        259        258        242        243        260        259        243        244        261        260        244        245        262        261        245        246        263        262        246        247        264        263        247        248        265        264        248        249        266        265        249        250        267        266        250        251        268        267        251        252        269        268        252        253        270        269        253        254        271        270        255        256        273        272        256        257        274        273        257        258        275        274        258        259        276        275        259        260        277        276        260        261        278        277        261        262        279        278        262        263        280        279        263        264        281        280        264        265        282        281        265        266        283        282        266        267        284        283        267        268        285        284        268        269        286        285        269        270        287        286        270        271        288        287        306        307          1          0        307        308          2          1        308        309          3          2        309        310          4          3        310        311          5          4        311        312          6          5        312        313          7          6        313        314          8          7        314        315          9          8        315        316         10          9        316        317         11         10        317        318         12         11        318        319         13         12        319        320         14         13        320        321         15         14        321        322         16         15        323        324        307        306        324        325        308        307        325        326        309        308        326        327        310        309        327        328        311        310        328        329        312        311        329        330        313        312        330        331        314        313        331        332        315        314        332        333        316        315        333        334        317        316        334        335        318        317        335        336        319        318        336        337        320        319        337        338        321        320        338        339        322        321        340        341        324        323        341        342        325        324        342        343        326        325        343        344        327        326        344        345        328        327        345        346        329        328        346        347        330        329        347        348        331        330        348        349        332        331        349        350        333        332        350        351        334        333        351        352        335        334        352        353        336        335        353        354        337        336        354        355        338        337        355        356        339        338        357        358        341        340        358        359        342        341        359        360        343        342        360        361        344        343        361        362        345        344        362        363        346        345        363        364        347        346        364        365        348        347        365        366        349        348        366        367        350        349        367        368        351        350        368        369        352        351        369        370        353        352        370        371        354        353        371        372        355        354        372        373        356        355        374        375        358        357        375        376        359        358        376        377        360        359        377        378        361        360        378        379        362        361        379        380        363        362        380        381        364        363        381        382        365        364        382        383        366        365        383        384        367        366        384        385        368        367        385        386        369        368        386        387        370        369        387        388        371        370        388        389        372        371        389        390        373        372        391        392        375        374        392        393        376        375        393        394        377        376        394        395        378        377        395        396        379        378        396        397        380        379        397        398        381        380        398        399        382        381        399        400        383        382        400        401        384        383        401        402        385        384        402        403        386        385        403        404        387        386        404        405        388        387        405        406        389        388        406        407        390        389        408        409        392        391        409        410        393        392        410        411        394        393        411        412        395        394        412        413        396        395        413        414        397        396        414        415        398        397        415        416        399        398        416        417        400        399        417        418        401        400        418        419        402        401        419        420        403        402        420        421        404        403        421        422        405        404        422        423        406        405        423        424        407        406        425        426        409        408        426        427        410        409        427        428        411        410        428        429        412        411        429        430        413        412        430        431        414        413        431        432        415        414        432        433        416        415        433        434        417        416        434        435        418        417        435        436        419        418        436        437        420        419        437        438        421        420        438        439        422        421        439        440        423        422        440        441        424        423        442        443        426        425        443        444        427        426        444        445        428        427        445        446        429        428        446        447        430        429        447        448        431        430        448        449        432        431        449        450        433        432        450        451        434        433        451        452        435        434        452        453        436        435        453        454        437        436        454        455        438        437        455        456        439        438        456        457        440        439        457        458        441        440        459        460        443        442        460        461        444        443        461        462        445        444        462        463        446        445        463        464        447        446        464        465        448        447        465        466        449        448        466        467        450        449        467        468        451        450        468        469        452        451        469        470        453        452        470        471        454        453        471        472        455        454        472        473        456        455        473        474        457        456        474        475        458        457        476        477        460        459        477        478        461        460        478        479        462        461        479        480        463        462        480        481        464        463        481        482        465        464        482        483        466        465        483        484        467        466        484        485        468        467        485        486        469        468        486        487        470        469        487        488        471        470        488        489        472        471        489        490        473        472        490        491        474        473        491        492        475        474        493        494        477        476        494        495        478        477        495        496        479        478        496        497        480        479        497        498        481        480        498        499        482        481        499        500        483        482        500        501        484        483        501        502        485        484        502        503        486        485        503        504        487        486        504        505        488        487        505        506        489        488        506        507        490        489        507        508        491        490        508        509        492        491        510        511        494        493        511        512        495        494        512        513        496        495        513        514        497        496        514        515        498        497        515        516        499        498        516        517        500        499        517        518        501        500        518        519        502        501        519        520        503        502        520        521        504        503        521        522        505        504        522        523        506        505        523        524        507        506        524        525        508        507        525        526        509        508        527        528        511        510        528        529        512        511        529        530        513        512        530        531        514        513        531        532        515        514        532        533        516        515        533        534        517        516        534        535        518        517        535        536        519        518        536        537        520        519        537        538        521        520        538        539        522        521        539        540        523        522        540        541        524        523        541        542        525        524        542        543        526        525        544        545        528        527        545        546        529        528        546        547        530        529        547        548        531        530        548        549        532        531        549        550        533        532        550        551        534        533        551        552        535        534        552        553        536        535        553        554        537        536        554        555        538        537        555        556        539        538        556        557        540        539        557        558        541        540        558        559        542        541        559        560        543        542        561        562        545        544        562        563        546        545        563        564        547        546        564        565        548        547        565        566        549        548        566        567        550        549        567        568        551        550        568        569        552        551        569        570        553        552        570        571        554        553        571        572        555        554        572        573        556        555        573        574        557        556        574        575        558        557        575        576        559        558        576        577        560        559        578        579        596        595        579        580        597        596        580        581        598        597        581        582        599        598        582        583        600        599        583        584        601        600        584        585        602        601        585        586        603        602        586        587        604        603        587        588        605        604        588        589        606        605        589        590        607        606        590        591        608        607        591        592        609        608        592        593        610        609        593        594        611        610        595        596        613        612        596        597        614        613        597        598        615        614        598        599        616        615        599        600        617        616        600        601        618        617        601        602        619        618        602        603        620        619        603        604        621        620        604        605        622        621        605        606        623        622        606        607        624        623        607        608        625        624        608        609        626        625        609        610        627        626        610        611        628        627        612        613        630        629        613        614        631        630        614        615        632        631        615        616        633        632        616        617        634        633        617        618        635        634        618        619        636        635        619        620        637        636        620        621        638        637        621        622        639        638        622        623        640        639        623        624        641        640        624        625        642        641        625        626        643        642        626        627        644        643        627        628        645        644        629        630        647        646        630        631        648        647        631        632        649        648        632        633        650        649        633        634        651        650        634        635        652        651        635        636        653        652        636        637        654        653        637        638        655        654        638        639        656        655        639        640        657        656        640        641        658        657        641        642        659        658        642        643        660        659        643        644        661        660        644        645        662        661        646        647        664        663        647        648        665        664        648        649        666        665        649        650        667        666        650        651        668        667        651        652        669        668        652        653        670        669        653        654        671        670        654        655        672        671        655        656        673        672        656        657        674        673        657        658        675        674        658        659        676        675        659        660        677        676        660        661        678        677        661        662        679        678        663        664        681        680        664        665        682        681        665        666        683        682        666        667        684        683        667        668        685        684        668        669        686        685        669        670        687        686        670        671        688        687        671        672        689        688        672        673        690        689        673        674        691        690        674        675        692        691        675        676        693        692        676        677        694        693        677        678        695        694        678        679        696        695        680        681        698        697        681        682        699        698        682        683        700        699        683        684        701        700        684        685        702        701        685        686        703        702        686        687        704        703        687        688        705        704        688        689        706        705        689        690        707        706        690        691        708        707        691        692        709        708        692        693        710        709        693        694        711        710        694        695        712        711        695        696        713        712        697        698        715        714        698        699        716        715        699        700        717        716        700        701        718        717        701        702        719        718        702        703        720        719        703        704        721        720        704        705        722        721        705        706        723        722        706        707        724        723        707        708        725        724        708        709        726        725        709        710        727        726        710        711        728        727        711        712        729        728        712        713        730        729        714        715        732        731        715        716        733        732        716        717        734        733        717        718        735        734        718        719        736        735        719        720        737        736        720        721        738        737        721        722        739        738        722        723        740        739        723        724        741        740        724        725        742        741        725        726        743        742        726        727        744        743        727        728        745        744        728        729        746        745        729        730        747        746        731        732        749        748        732        733        750        749        733        734        751        750        734        735        752        751        735        736        753        752        736        737        754        753        737        738        755        754        738        739        756        755        739        740        757        756        740        741        758        757        741        742        759        758        742        743        760        759        743        744        761        760        744        745        762        761        745        746        763        762        746        747        764        763        748        749        766        765        749        750        767        766        750        751        768        767        751        752        769        768        752        753        770        769        753        754        771        770        754        755        772        771        755        756        773        772        756        757        774        773        757        758        775        774        758        759        776        775        759        760        777        776        760        761        778        777        761        762        779        778        762        763        780        779        763        764        781        780        765        766        783        782        766        767        784        783        767        768        785        784        768        769        786        785        769        770        787        786        770        771        788        787        771        772        789        788        772        773        790        789        773        774        791        790        774        775        792        791        775        776        793        792        776        777        794        793        777        778        795        794        778        779        796        795        779        780        797        796        780        781        798        797        782        783        800        799        783        784        801        800        784        785        802        801        785        786        803        802        786        787        804        803        787        788        805        804        788        789        806        805        789        790        807        806        790        791        808        807        791        792        809        808        792        793        810        809        793        794        811        810        794        795        812        811        795        796        813        812        796        797        814        813        797        798        815        814        799        800        817        816        800        801        818        817        801        802        819        818        802        803        820        819        803        804        821        820        804        805        822        821        805        806        823        822        806        807        824        823        807        808        825        824        808        809        826        825        809        810        827        826        810        811        828        827        811        812        829        828        812        813        830        829        813        814        831        830        814        815        832        831        816        817        834        833        817        818        835        834        818        819        836        835        819        820        837        836        820        821        838        837        821        822        839        838        822        823        840        839        823        824        841        840        824        825        842        841        825        826        843        842        826        827        844        843        827        828        845        844        828        829        846        845        829        830        847        846        830        831        848        847        831        832        849        848        833        834        562        561        834        835        563        562        835        836        564        563        836        837        565        564        837        838        566        565        838        839        567        566        839        840        568        567        840        841        569        568        841        842        570        569        842        843        571        570        843        844        572        571        844        845        573        572        845        846        574        573        846        847        575        574        847        848        576        575        848        849        577        576        884        885        579        578        885        886        580        579        886        887        581        580        887        888        582        581        888        889        583        582        889        890        584        583        890        891        585        584        891        892        586        585        892        893        587        586        893        894        588        587        894        895        589        588        895        896        590        589        896        897        591        590        897        898        592        591        898        899        593        592        899        900        594        593        901        902        885        884        902        903        886        885        903        904        887        886        904        905        888        887        905        906        889        888        906        907        890        889        907        908        891        890        908        909        892        891        909        910        893        892        910        911        894        893        911        912        895        894        912        913        896        895        913        914        897        896        914        915        898        897        915        916        899        898        916        917        900        899        918        919        902        901        919        920        903        902        920        921        904        903        921        922        905        904        922        923        906        905        923        924        907        906        924        925        908        907        925        926        909        908        926        927        910        909        927        928        911        910        928        929        912        911        929        930        913        912        930        931        914        913        931        932        915        914        932        933        916        915        933        934        917        916        935        936        919        918        936        937        920        919        937        938        921        920        938        939        922        921        939        940        923        922        940        941        924        923        941        942        925        924        942        943        926        925        943        944        927        926        944        945        928        927        945        946        929        928        946        947        930        929        947        948        931        930        948        949        932        931        949        950        933        932        950        951        934        933        952        953        936        935        953        954        937        936        954        955        938        937        955        956        939        938        956        957        940        939        957        958        941        940        958        959        942        941        959        960        943        942        960        961        944        943        961        962        945        944        962        963        946        945        963        964        947        946        964        965        948        947        965        966        949        948        966        967        950        949        967        968        951        950        969        970        953        952        970        971        954        953        971        972        955        954        972        973        956        955        973        974        957        956        974        975        958        957        975        976        959        958        976        977        960        959        977        978        961        960        978        979        962        961        979        980        963        962        980        981        964        963        981        982        965        964        982        983        966        965        983        984        967        966        984        985        968        967        986        987        970        969        987        988        971        970        988        989        972        971        989        990        973        972        990        991        974        973        991        992        975        974        992        993        976        975        993        994        977        976        994        995        978        977        995        996        979        978        996        997        980        979        997        998        981        980        998        999        982        981        999       1000        983        982       1000       1001        984        983       1001       1002        985        984       1003       1004        987        986       1004       1005        988        987       1005       1006        989        988       1006       1007        990        989       1007       1008        991        990       1008       1009        992        991       1009       1010        993        992       1010       1011        994        993       1011       1012        995        994       1012       1013        996        995       1013       1014        997        996       1014       1015        998        997       1015       1016        999        998       1016       1017       1000        999       1017       1018       1001       1000       1018       1019       1002       1001       1020       1021       1004       1003       1021       1022       1005       1004       1022       1023       1006       1005       1023       1024       1007       1006       1024       1025       1008       1007       1025       1026       1009       1008       1026       1027       1010       1009       1027       1028       1011       1010       1028       1029       1012       1011       1029       1030       1013       1012       1030       1031       1014       1013       1031       1032       1015       1014       1032       1033       1016       1015       1033       1034       1017       1016       1034       1035       1018       1017       1035       1036       1019       1018       1037       1038       1021       1020       1038       1039       1022       1021       1039       1040       1023       1022       1040       1041       1024       1023       1041       1042       1025       1024       1042       1043       1026       1025       1043       1044       1027       1026       1044       1045       1028       1027       1045       1046       1029       1028       1046       1047       1030       1029       1047       1048       1031       1030       1048       1049       1032       1031       1049       1050       1033       1032       1050       1051       1034       1033       1051       1052       1035       1034       1052       1053       1036       1035       1054       1055       1038       1037       1055       1056       1039       1038       1056       1057       1040       1039       1057       1058       1041       1040       1058       1059       1042       1041       1059       1060       1043       1042       1060       1061       1044       1043       1061       1062       1045       1044       1062       1063       1046       1045       1063       1064       1047       1046       1064       1065       1048       1047       1065       1066       1049       1048       1066       1067       1050       1049       1067       1068       1051       1050       1068       1069       1052       1051       1069       1070       1053       1052       1071       1072       1055       1054       1072       1073       1056       1055       1073       1074       1057       1056       1074       1075       1058       1057       1075       1076       1059       1058       1076       1077       1060       1059       1077       1078       1061       1060       1078       1079       1062       1061       1079       1080       1063       1062       1080       1081       1064       1063       1081       1082       1065       1064       1082       1083       1066       1065       1083       1084       1067       1066       1084       1085       1068       1067       1085       1086       1069       1068       1086       1087       1070       1069       1088       1089       1072       1071       1089       1090       1073       1072       1090       1091       1074       1073       1091       1092       1075       1074       1092       1093       1076       1075       1093       1094       1077       1076       1094       1095       1078       1077       1095       1096       1079       1078       1096       1097       1080       1079       1097       1098       1081       1080       1098       1099       1082       1081       1099       1100       1083       1082       1100       1101       1084       1083       1101       1102       1085       1084       1102       1103       1086       1085       1103       1104       1087       1086       1105       1106       1089       1088       1106       1107       1090       1089       1107       1108       1091       1090       1108       1109       1092       1091       1109       1110       1093       1092       1110       1111       1094       1093       1111       1112       1095       1094       1112       1113       1096       1095       1113       1114       1097       1096       1114       1115       1098       1097       1115       1116       1099       1098       1116       1117       1100       1099       1117       1118       1101       1100       1118       1119       1102       1101       1119       1120       1103       1102       1120       1121       1104       1103       1122       1123       1106       1105       1123       1124       1107       1106       1124       1125       1108       1107       1125       1126       1109       1108       1126       1127       1110       1109       1127       1128       1111       1110       1128       1129       1112       1111       1129       1130       1113       1112       1130       1131       1114       1113       1131       1132       1115       1114       1132       1133       1116       1115       1133       1134       1117       1116       1134       1135       1118       1117       1135       1136       1119       1118       1136       1137       1120       1119       1137       1138       1121       1120        272        273       1123       1122        273        274       1124       1123        274        275       1125       1124        275        276       1126       1125        276        277       1127       1126        277        278       1128       1127        278        279       1129       1128        279        280       1130       1129        280        281       1131       1130        281        282       1132       1131        282        283       1133       1132        283        284       1134       1133        284        285       1135       1134        285        286       1136       1135        286        287       1137       1136        287        288       1138       1137 </DataArray>
<DataArray type="Int32"                                    Name="offsets"                                                      NumberOfComponents=" 1" format="ascii">
         4          8         12         16         20         24         28         32         36         40         44         48         52         56         60         64         68         72         76         80         84         88         92         96        100        104        108        112        116        120        124        128        132        136        140        144        148        152        156        160        164        168        172        176        180        184        188        192        196        200        204        208        212        216        220        224        228        232        236        240        244        248        252        256        260        264        268        272        276        280        284        288        292        296        300        304        308        312        316        320        324        328        332        336        340        344        348        352        356        360        364        368        372        376        380        384        388        392        396        400        404        408        412        416        420        424        428        432        436        440        444        448        452        456        460        464        468        472        476        480        484        488        492        496        500        504        508        512        516        520        524        528        532        536        540        544        548        552        556        560        564        568        572        576        580        584        588        592        596        600        604        608        612        616        620        624        628        632        636        640        644        648        652        656        660        664        668        672        676        680        684        688        692        696        700        704        708        712        716        720        724        728        732        736        740        744        748        752        756        760        764        768        772        776        780        784        788        792        796        800        804        808        812        816        820        824        828        832        836        840        844        848        852        856        860        864        868        872        876        880        884        888        892        896        900        904        908        912        916        920        924        928        932        936        940        944        948        952        956        960        964        968        972        976        980        984        988        992        996       1000       1004       1008       1012       1016       1020       1024       1028       1032       1036       1040       1044       1048       1052       1056       1060       1064       1068       1072       1076       1080       1084       1088       1092       1096       1100       1104       1108       1112       1116       1120       1124       1128       1132       1136       1140       1144       1148       1152       1156       1160       1164       1168       1172       1176       1180       1184       1188       1192       1196       1200       1204       1208       1212       1216       1220       1224       1228       1232       1236       1240       1244       1248       1252       1256       1260       1264       1268       1272       1276       1280       1284       1288       1292       1296       1300       1304       1308       1312       1316       1320       1324       1328       1332       1336       1340       1344       1348       1352       1356       1360       1364       1368       1372       1376       1380       1384       1388       1392       1396       1400       1404       1408       1412       1416       1420       1424       1428       1432       1436       1440       1444       1448       1452       1456       1460       1464       1468       1472       1476       1480       1484       1488       1492       1496       1500       1504       1508       1512       1516       1520       1524       1528       1532       1536       1540       1544       1548       1552       1556       1560       1564       1568       1572       1576       1580       1584       1588       1592       1596       1600       1604       1608       1612       1616       1620       1624       1628       1632       1636       1640       1644       1648       1652       1656       1660       1664       1668       1672       1676       1680       1684       1688       1692       1696       1700       1704       1708       1712       1716       1720       1724       1728       1732       1736       1740       1744       1748       1752       1756       1760       1764       1768       1772       1776       1780       1784       1788       1792       1796       1800       1804       1808       1812       1816       1820       1824       1828       1832       1836       1840       1844       1848       1852       1856       1860       1864       1868       1872       1876       1880       1884       1888       1892       1896       1900       1904       1908       1912       1916       1920       1924       1928       1932       1936       1940       1944       1948       1952       1956       1960       1964       1968       1972       1976       1980       1984       1988       1992       1996       2000       2004       2008       2012       2016       2020       2024       2028       2032       2036       2040       2044       2048       2052       2056       2060       2064       2068       2072       2076       2080       2084       2088       2092       2096       2100       2104       2108       2112       2116       2120       2124       2128       2132       2136       2140       2144       2148       2152       2156       2160       2164       2168       2172       2176       2180       2184       2188       2192       2196       2200       2204       2208       2212       2216       2220       2224       2228       2232       2236       2240       2244       2248       2252       2256       2260       2264       2268       2272       2276       2280       2284       2288       2292       2296       2300       2304       2308       2312       2316       2320       2324       2328       2332       2336       2340       2344       2348       2352       2356       2360       2364       2368       2372       2376       2380       2384       2388       2392       2396       2400       2404       2408       2412       2416       2420       2424       2428       2432       2436       2440       2444       2448       2452       2456       2460       2464       2468       2472       2476       2480       2484       2488       2492       2496       2500       2504       2508       2512       2516       2520       2524       2528       2532       2536       2540       2544       2548       2552       2556       2560       2564       2568       2572       2576       2580       2584       2588       2592       2596       2600       2604       2608       2612       2616       2620       2624       2628       2632       2636       2640       2644       2648       2652       2656       2660       2664       2668       2672       2676       2680       2684       2688       2692       2696       2700       2704       2708       2712       2716       2720       2724       2728       2732       2736       2740       2744       2748       2752       2756       2760       2764       2768       2772       2776       2780       2784       2788       2792       2796       2800       2804       2808       2812       2816       2820       2824       2828       2832       2836       2840       2844       2848       2852       2856       2860       2864       2868       2872       2876       2880       2884       2888       2892       2896       2900       2904       2908       2912       2916       2920       2924       2928       2932       2936       2940       2944       2948       2952       2956       2960       2964       2968       2972       2976       2980       2984       2988       2992       2996       3000       3004       3008       3012       3016       3020       3024       3028       3032       3036       3040       3044       3048       3052       3056       3060       3064       3068       3072       3076       3080       3084       3088       3092       3096       3100       3104       3108       3112       3116       3120       3124       3128       3132       3136       3140       3144       3148       3152       3156       3160       3164       3168       3172       3176       3180       3184       3188       3192       3196       3200       3204       3208       3212       3216       3220       3224       3228       3232       3236       3240       3244       3248       3252       3256       3260       3264       3268       3272       3276       3280       3284       3288       3292       3296       3300       3304       3308       3312       3316       3320       3324       3328       3332       3336       3340       3344       3348       3352       3356       3360       3364       3368       3372       3376       3380       3384       3388       3392       3396       3400       3404       3408       3412       3416       3420       3424       3428       3432       3436       3440       3444       3448       3452       3456       3460       3464       3468       3472       3476       3480       3484       3488       3492       3496       3500       3504       3508       3512       3516       3520       3524       3528       3532       3536       3540       3544       3548       3552       3556       3560       3564       3568       3572       3576       3580       3584       3588       3592       3596       3600       3604       3608       3612       3616       3620       3624       3628       3632       3636       3640       3644       3648       3652       3656       3660       3664       3668       3672       3676       3680       3684       3688       3692       3696       3700       3704       3708       3712       3716       3720       3724       3728       3732       3736       3740       3744       3748       3752       3756       3760       3764       3768       3772       3776       3780       3784       3788       3792       3796       3800       3804       3808       3812       3816       3820       3824       3828       3832       3836       3840       3844       3848       3852       3856       3860       3864       3868       3872       3876       3880       3884       3888       3892       3896       3900       3904       3908       3912       3916       3920       3924       3928       3932       3936       3940       3944       3948       3952       3956       3960       3964       3968       3972       3976       3980       3984       3988       3992       3996       4000       4004       4008       4012       4016       4020       4024       4028       4032       4036       4040       4044       4048       4052       4056       4060       4064       4068       4072       4076       4080       4084       4088       4092       4096 </DataArray>
<DataArray type="UInt8"                                    Name="types"                                                      NumberOfComponents=" 1" format="ascii">
         9          9          9          9          9          9          9          9          9          9          9          9          9          9          9          9          9          9          9          9          9          9          9          9          9          9          9          9          9          9          9          9          9          9          9          9          9          9          9          9          9          9          9          9          9          9          9          9          9          9          9          9          9          9          9          9          9          9          9          9          9          9          9          9          9          9          9          9          9          9          9          9          9          9          9          9          9          9          9          9          9          9          9          9          9          9          9          9          9          9          9          9          9          9          9          9          9          9          9          9          9          9          9          9          9          9          9          9          9          9          9          9          9          9          9          9          9          9          9          9          9          9          9          9          9          9          9          9          9          9          9          9          9          9          9          9          9          9          9          9          9          9          9          9          9          9          9          9          9          9          9          9          9          9          9          9          9          9          9          9          9          9          9          9          9          9          9          9          9          9          9          9          9          9          9          9          9          9          9          9          9          9          9          9          9          9          9          9          9          9          9          9          9          9          9          9          9          9          9          9          9          9          9          9          9          9          9          9          9          9          9          9          9          9          9          9          9          9          9          9          9          9          9          9          9          9          9          9          9          9          9          9          9          9          9          9          9          9          9          9          9          9          9          9          9          9          9          9          9          9          9          9          9          9          9          9          9          9          9          9          9          9          9          9          9          9          9          9          9          9          9          9          9          9          9          9          9          9          9          9          9          9          9          9          9          9          9          9          9          9          9          9          9          9          9          9          9          9          9          9          9          9          9          9          9          9          9          9          9          9          9          9          9          9          9          9          9          9          9          9          9          9          9          9          9          9          9          9          9          9          9          9          9          9          9          9          9          9          9          9          9          9          9          9          9          9          9          9          9          9          9          9          9          9          9          9          9          9          9          9          9          9          9          9          9          9          9          9          9          9          9          9          9          9          9          9          9          9          9          9          9          9          9          9          9          9          9          9          9          9          9          9          9          9          9          9          9          9          9          9          9          9          9          9          9          9          9          9          9          9          9          9          9          9          9          9          9          9          9          9          9          9          9          9          9          9          9          9          9          9          9          9          9          9          9          9          9          9          9          9          9          9          9          9          9          9          9          9          9          9          9          9          9          9          9          9          9          9          9          9          9          9          9          9          9          9          9          9          9          9          9          9          9          9          9          9          9          9          9          9          9          9          9          9          9          9          9          9          9          9          9          9          9          9          9          9          9          9          9          9          9          9          9          9          9          9          9          9          9          9          9          9          9          9          9          9          9          9          9          9          9          9          9          9          9          9          9          9          9          9          9          9          9          9          9          9          9          9          9          9          9          9          9          9          9          9          9          9          9          9          9          9          9          9          9          9          9          9          9          9          9          9          9          9          9          9          9          9          9          9          9          9          9          9          9          9          9          9          9          9          9          9          9          9          9          9          9          9          9          9          9          9          9          9          9          9          9          9          9          9          9          9          9          9          9          9          9          9          9          9          9          9          9          9          9          9          9          9          9          9          9          9          9          9          9          9          9          9          9          9          9          9          9          9          9          9          9          9          9          9          9          9          9          9          9          9          9          9          9          9          9          9          9          9          9          9          9          9          9          9          9          9          9          9          9          9          9          9          9          9          9          9          9          9          9          9          9          9          9          9          9          9          9          9          9          9          9          9          9          9          9          9          9          9          9          9          9          9          9          9          9          9          9          9          9          9          9          9          9          9          9          9          9          9          9          9          9          9          9          9          9          9          9          9          9          9          9          9          9          9          9          9          9          9          9          9          9          9          9          9          9          9          9          9          9          9          9          9          9          9          9          9          9          9          9          9          9          9          9          9          9          9          9          9          9          9          9          9          9          9          9          9          9          9          9          9          9          9          9          9          9          9          9          9          9          9          9          9          9          9          9          9          9          9          9          9          9          9          9          9          9          9          9          9          9          9          9          9          9          9          9          9          9          9          9          9          9          9          9          9          9          9          9          9          9          9          9          9          9          9          9          9          9          9          9          9          9          9          9          9          9          9          9          9          9          9          9          9          9          9          9          9          9          9          9          9          9          9          9          9          9          9          9          9          9          9          9          9          9          9          9          9          9          9          9          9          9          9          9          9          9          9          9          9          9          9          9          9          9          9          9          9          9          9          9          9          9          9          9          9          9          9          9          9          9          9          9          9          9          9          9          9          9          9          9          9          9          9          9          9          9          9          9          9          9          9          9          9          9          9          9          9          9          9          9          9          9          9          9          9          9          9          9          9          9          9          9          9          9          9          9          9          9          9          9          9          9          9          9          9          9          9          9          9          9          9          9          9          9          9          9          9          9          9          9          9          9          9          9          9          9          9          9          9          9          9          9          9          9          9          9          9          9          9          9          9          9          9          9          9          9          9          9          9          9          9          9          9          9          9          9          9          9          9          9          9          9          9          9          9          9          9          9          9 </DataArray>
</Cells>
<CellData>
<DataArray type="Int32"                                    Name="material"                                                      NumberOfComponents=" 1" format="ascii">
         1          1          1          1          1          1          1          1          1          1          1          1          1          1          1          1          1          1          1          1          1          1          1          1          1          1          1          1          1          1          1          1          1          1          1          1          1          1          1          1          1          1          1          1          1          1          1          1          1          1          1          1          1          1          1          1          1          1          1          1          1          1          1          1          1          1          1          1          1          1          1          1          1          1          1          1          1          1          1          1          1          1          1          1          1          1          1          1          1          1          1          1          1          1          1          1          1          1          1          1          1          1          1          1          1          1          1          1          1          1          1          1          1          1          1          1          1          1          1          1          1          1          1          1          1          1          1          1          1          1          1          1          1          1          1          1          1          1          1          1          1          1          1          1          1          1          1          1          1          1          1          1          1          1          1          1          1          1          1          1          1          1          1          1          1          1          1          1          1          1          1          1          1          1          1          1          1          1          1          1          1          1          1          1          1          1          1          1          1          1          1          1          1          1          1          1          1          1          1          1          1          1          1          1          1          1          1          1          1          1          1          1          1          1          1          1          1          1          1          1          1          1          1          1          1          1          1          1          1          1          1          1          1          1          1          1          1          1          1          1          1          1          1          1          1          1          1          1          1          1          1          1          1          1          1          1          1          1          1          1          1          1          1          1          1          1          1          1          1          1          1          1          1          1          1          1          1          1          1          1          1          1          1          1          1          1          1          1          1          1          1          1          1          1          1          1          1          1          1          1          1          1          1          1          1          1          1          1          1          1          1          1          1          1          1          1          1          1          1          1          1          1          1          1          1          1          1          1          1          1          1          1          1          1          1          1          1          1          1          1          1          1          1          1          1          1          1          1          1          1          1          1          1          1          1          1          1          1          1          1          1          1          1          1          1          1          1          1          1          1          1          1          1          1          1          1          1          1          1          1          1          1          1          1          1          1          1          1          1          1          1          1          1          1          1          1          1          1          1          1          1          1          1          1          1          1          1          1          1          1          1          1          1          1          1          1          1          1          1          1          1          1          1          1          1          1          1          1          1          1          1          1          1          1          1          1          1          1          1          1          1          1          1          1          1          1          1          1          1          1          1          1          1          1          1          1          1          1          1          1          1          1          1          1          1          1          1          1          1          1          1          1          1          1          1          1          1          1          1          1          1          1          1          1          1          1          1          1          1          1          1          1          1          1          1          1          1          1          1          1          1          1          1          1          1          1          1          1          1          1          1          1          1          1          1          1          1          1          1          1          1          1          1          1          1          1          1          1          1          1          1          1          1          1          1          1          1          1          1          1          1          1          1          1          1          1          1          1          1          1          1          1          1          1          1          1          1          1          1          1          1          1          1          1          1          1          1          1          1          1          1          1          1          1          1          1          1          1          1          1          1          1          1          1          1          1          1          1          1          1          1          1          1          1          1          1          1          1          1          1          1          1          1          1          1          1          1          1          1          1          1          1          1          1          1          1          1          1          1          1          1          1          1          1          1          1          1          1          1          1          1          1          1          1          1          1          1          1          1          1          1          1          1          1          1          1          1          1          1          1          1          1          1          1          1          1          1          1          1          1          1          1          1          1          1          1          1          1          1          1          1          1          1          1          1          1          1          1          1          1          1          1          1          1          1          1          1          1          1          1          1          1          1          1          1          1          1          1          1          1          1          1          1          1          1          1          1          1          1          1          1          1          1          1          1          1          1          1          1          1          1          1          1          1          1          1          1          1          1          1          1          1          1          1          1          1          1          1          1          1          1          1          1          1          1          1          1          1          1          1          1          1          1          1          1          1          1          1          1          1          1          1          1          1          1          1          1          1          1          1          1          1          1          1          1          1          1          1          1          1          1          1          1          1          1          1          1          1          1          1          1          1          1          1          1          1          1          1          1          1          1          1          1          1          1          1          1          1          1          1          1          1          1          1          1          1          1          1          1          1          1          1          1          1          1          1          1          1          1          1          1          1          1          1          1          1          1          1          1          1          1          1          1          1          1          1          1          1          1          1          1          1          1          1          1          1          1          1          1          1          1          1          1          1          1          1          1          1          1          1          1          1          1          1          1          1          1          1          1          1          1          1          1          1          1          1          1          1          1          1          1          1          1          1          1          1          1          1          1          1          1          1          1          1          1          1          1          1          1          1          1          1          1          1          1          1          1          1          1          1          1          1          1          1          1          1          1          1          1          1          1          1          1          1          1          1          1          1          1          1          1          1          1          1          1          1          1          1          1          1          1          1          1          1          1          1          1          1          1          1          1          1          1          1          1          1          1          1          1          1          1          1          1          1          1          1          1          1          1          1          1          1          1          1          1          1          1          1          1          1          1          1          1          1          1          1          1          1          1          1          1          1          1          1          1          1          1          1          1          1          1          1          1          1          1          1          1          1          1          1          1          1          1          1 </DataArray>
</CellData>
<PointData>
<DataArray type="Float64"                                    Name="u"                                                      NumberOfComponents=" 3" format="ascii">
             -0.000615815              -0.000000000               0.999999984              -0.000662857               0.000000000               0.999999984              -0.000683463              -0.000000000               0.999999984              -0.000695001               0.000000000               0.999999984              -0.000703999               0.000000000               0.999999984              -0.000712982               0.000000000               0.999999984              -0.000722855              -0.000000000               0.999999984              -0.000733832               0.000000000               0.999999984              -0.000745932               0.000000000               0.999999984              -0.000759066               0.000000000               0.999999984              -0.000773045               0.000000000               0.999999984              -0.000787703               0.000000000               0.999999984              -0.000802551              -0.000000000               0.999999984              -0.000817308               0.000000000               0.999999984              -0.000831648              -0.000000000               0.999999984              -0.000845055               0.000000000               0.999999984              -0.000856962              -0.000000000               0.999999984              -0.000612466               0.000121313               0.999999984              -0.000656099               0.000099631               0.999999984              -0.000674465               0.000090514               0.999999984              -0.000684574               0.000087883               0.999999984              -0.000692663               0.000088655               0.999999984              -0.000701103               0.000091256               0.999999984              -0.000710611               0.000094595               0.999999984              -0.000721267               0.000098035               0.999999984              -0.000732894               0.000101367               0.999999984              -0.000745327               0.000104376               0.999999984              -0.000758380               0.000106819               0.999999984              -0.000771844               0.000108491               0.999999984              -0.000785436               0.000108950               0.999999984              -0.000798869               0.000107891               0.999999984              -0.000811792               0.000104802               0.999999984              -0.000823786               0.000098968               0.999999984              -0.000834337               0.000089378               0.999999984              -0.000602307               0.000241494               0.999999984              -0.000636021               0.000198625               0.999999984              -0.000648394               0.000181473               0.999999984              -0.000654961               0.000177083               0.999999984              -0.000660807               0.000179283               0.999999984              -0.000667647               0.000184942               0.999999984              -0.000675820               0.000191921               0.999999984              -0.000685162               0.000199170               0.999999984              -0.000695333               0.000206018               0.999999984              -0.000706021               0.000212149               0.999999984              -0.000716844               0.000217094               0.999999984              -0.000727619               0.000220544               0.999999984              -0.000738040               0.000221893               0.999999984              -0.000747779               0.000220540               0.999999984              -0.000756726               0.000215882               0.999999984              -0.000764660               0.000206853               0.999999984              -0.000771428               0.000192146               0.999999984              -0.000585539               0.000359378               0.999999984              -0.000603715               0.000296550               0.999999984              -0.000607507               0.000273220               0.999999984              -0.000609301               0.000268533               0.999999984              -0.000612390               0.000273210               0.999999984              -0.000617410               0.000282586               0.999999984              -0.000624013               0.000293742               0.999999984              -0.000631669               0.000305024               0.999999984              -0.000639878               0.000315588               0.999999984              -0.000648135               0.000324765               0.999999984              -0.000656046               0.000332103               0.999999984              -0.000663310               0.000337315               0.999999984              -0.000669595               0.000339717               0.999999984              -0.000674770               0.000338830               0.999999984              -0.000678795               0.000334132               0.999999984              -0.000681524               0.000324770               0.999999984              -0.000683053               0.000309947               0.999999984              -0.000562583               0.000473862               0.999999984              -0.000560862               0.000393133               0.999999984              -0.000555012               0.000365952               0.999999984              -0.000552300               0.000362654               0.999999984              -0.000553330               0.000370801               0.999999984              -0.000557030               0.000384424               0.999999984              -0.000562413               0.000399902               0.999999984              -0.000568444               0.000415200               0.999999984              -0.000574393               0.000429305               0.999999984              -0.000579659               0.000441310               0.999999984              -0.000583953               0.000451036               0.999999984              -0.000587057               0.000457967               0.999999984              -0.000588819               0.000461577               0.999999984              -0.000588996               0.000461634               0.999999984              -0.000587545               0.000457796               0.999999984              -0.000584487               0.000449634               0.999999984              -0.000579963               0.000436831               0.999999984              -0.000533760               0.000583880               0.999999984              -0.000509553               0.000488342               0.999999984              -0.000495020               0.000459682               0.999999984              -0.000489307               0.000459157               0.999999984              -0.000489361               0.000471457               0.999999984              -0.000492602               0.000489381               0.999999984              -0.000497114               0.000508874               0.999999984              -0.000501575               0.000527734               0.999999984              -0.000505190               0.000544722               0.999999984              -0.000507340               0.000559091               0.999999984              -0.000507803               0.000570691               0.999999984              -0.000506329               0.000579248               0.999999984              -0.000502833               0.000584266               0.999999984              -0.000497208               0.000585571               0.999999984              -0.000489490               0.000582992               0.999999984              -0.000479827               0.000576642               0.999999984              -0.000468610               0.000567047               0.999999984              -0.000499690               0.000688232               0.999999984              -0.000452536               0.000582112               0.999999984              -0.000431580               0.000554107               0.999999984              -0.000424875               0.000557100               0.999999984              -0.000425407               0.000573436               0.999999984              -0.000428909               0.000595256               0.999999984              -0.000432894               0.000618190               0.999999984              -0.000435859               0.000639949               0.999999984              -0.000436890               0.000659253               0.999999984              -0.000435524               0.000675357               0.999999984              -0.000431412               0.000688383               0.999999984              -0.000424528               0.000698222               0.999999984              -0.000414919               0.000704604               0.999999984              -0.000402626               0.000707201               0.999999984              -0.000387834               0.000706165               0.999999984              -0.000371131               0.000702267               0.999999984              -0.000353251               0.000696385               0.999999984              -0.000461054               0.000785831               0.999999984              -0.000392623               0.000674278               0.999999984              -0.000368304               0.000648324               0.999999984              -0.000362903               0.000654755               0.999999984              -0.000364923               0.000674812               0.999999984              -0.000369064               0.000699998               0.999999984              -0.000372691               0.000725691               0.999999984              -0.000373960               0.000749550               0.999999984              -0.000371850               0.000770440               0.999999984              -0.000365988               0.000787811               0.999999984              -0.000356468               0.000801911               0.999999984              -0.000343402               0.000812803               0.999999984              -0.000326896               0.000820206               0.999999984              -0.000307317               0.000823881               0.999999984              -0.000285367               0.000824613               0.999999984              -0.000262008               0.000823670               0.999999984              -0.000237894               0.000821852               0.999999984              -0.000419207               0.000874997               0.999999984              -0.000331946               0.000764684               0.999999984              -0.000308498               0.000740911               0.999999984              -0.000305891               0.000750295               0.999999984              -0.000310049               0.000773521               0.999999984              -0.000315148               0.000801391               0.999999984              -0.000317965               0.000829275               0.999999984              -0.000316591               0.000854691               0.999999984              -0.000310251               0.000876755               0.999999984              -0.000299023               0.000895172               0.999999984              -0.000283244               0.000910174               0.999999984              -0.000263087               0.000921696               0.999999984              -0.000238956               0.000929648               0.999999984              -0.000211843               0.000934583               0.999999984              -0.000183010               0.000937778               0.999999984              -0.000153493               0.000940203               0.999999984              -0.000123695               0.000942254               0.999999984              -0.000376209               0.000959124               0.999999984              -0.000281732               0.000863955               0.999999984              -0.000255150               0.000835434               0.999999984              -0.000251335               0.000838761               0.999999984              -0.000255082               0.000857029               0.999999984              -0.000260523               0.000881968               0.999999984              -0.000264400               0.000908642               0.999999984              -0.000264622               0.000934512               0.999999984              -0.000260282               0.000958230               0.999999984              -0.000251294               0.000979280               0.999999984              -0.000237809               0.000997461               0.999999984              -0.000220069               0.001012839               0.999999984              -0.000197984               0.001025503               0.999999984              -0.000171910               0.001035558               0.999999984              -0.000143135               0.001043567               0.999999984              -0.000112663               0.001050377               0.999999984              -0.000081843               0.001056690               0.999999984              -0.000329052               0.001035617               0.999999984              -0.000234361               0.000959579               0.999999984              -0.000204836               0.000931866               0.999999984              -0.000198960               0.000931299               0.999999984              -0.000201645               0.000945588               0.999999984              -0.000206674               0.000967818               0.999999984              -0.000210804               0.000993470               0.999999984              -0.000212107               0.001019842               0.999999984              -0.000209329               0.001045207               0.999999984              -0.000202470               0.001068786               0.999999984              -0.000191247               0.001090061               0.999999984              -0.000175719               0.001109016               0.999999984              -0.000155751               0.001125644               0.999999984              -0.000131172               0.001140096               0.999999984              -0.000102538               0.001152600               0.999999984              -0.000070972               0.001163745               0.999999984              -0.000037911               0.001174214               0.999999984              -0.000278915               0.001102513               0.999999984              -0.000189881               0.001048742               0.999999984              -0.000158996               0.001025900               0.999999984              -0.000150922               0.001024295               0.999999984              -0.000151957               0.001036276               0.999999984              -0.000155905               0.001056478               0.999999984              -0.000159597               0.001081260               0.999999984              -0.000161323               0.001108186               0.999999984              -0.000159888               0.001135301               0.999999984              -0.000154886               0.001161510               0.999999984              -0.000145787               0.001186139               0.999999984              -0.000132364               0.001208978               0.999999984              -0.000114453               0.001229806               0.999999984              -0.000091653               0.001248657               0.999999984              -0.000063857               0.001265572               0.999999984              -0.000031550               0.001280913               0.999999984               0.000004291               0.001295329               0.999999984              -0.000226249               0.001158697               0.999999984              -0.000148259               0.001127874               0.999999984              -0.000118382               0.001112867               0.999999984              -0.000108769               0.001112940               0.999999984              -0.000108066               0.001124404               0.999999984              -0.000110578               0.001143721               0.999999984              -0.000113316               0.001168149               0.999999984              -0.000114969               0.001195592               0.999999984              -0.000114435               0.001224443               0.999999984              -0.000110979               0.001253435               0.999999984              -0.000103941               0.001281663               0.999999984              -0.000092840               0.001308688               0.999999984              -0.000077262               0.001334165               0.999999984              -0.000056737               0.001357928               0.999999984              -0.000030817               0.001379810               0.999999984               0.000001094               0.001400032               0.999999984               0.000038971               0.001418973               0.999999984              -0.000171504               0.001203272               0.999999984              -0.000109135               0.001193451               0.999999984              -0.000083091               0.001187611               0.999999984              -0.000073337               0.001191410               0.999999984              -0.000071262               0.001204023               0.999999984              -0.000072427               0.001223584               0.999999984              -0.000074244               0.001248286               0.999999984              -0.000075425               0.001276422               0.999999984              -0.000075242               0.001306751               0.999999984              -0.000073043               0.001338230               0.999999984              -0.000067927               0.001369956               0.999999984              -0.000059369               0.001401254               0.999999984              -0.000046790               0.001431629               0.999999984              -0.000029657               0.001460656               0.999999984              -0.000007075               0.001488121               0.999999984               0.000022039               0.001513909               0.999999984               0.000058692               0.001538009               0.999999984              -0.000115221               0.001235523               0.999999984              -0.000071810               0.001242556               0.999999984              -0.000052465               0.001245349               0.999999984              -0.000044520               0.001253325               0.999999984              -0.000042096               0.001267951               0.999999984              -0.000042272               0.001288585               0.999999984              -0.000043266               0.001314132               0.999999984              -0.000043986               0.001343220               0.999999984              -0.000043871               0.001374919               0.999999984              -0.000042379               0.001408458               0.999999984              -0.000039030               0.001443082               0.999999984              -0.000033147               0.001478052               0.999999984              -0.000024318               0.001512806               0.999999984              -0.000011916               0.001546848               0.999999984               0.000005062               0.001579774               0.999999984               0.000027577               0.001611090               0.999999984               0.000057422               0.001640496               0.999999984              -0.000057886               0.001255151               0.999999984              -0.000035598               0.001272958               0.999999984              -0.000025316               0.001281859               0.999999984              -0.000020846               0.001293213               0.999999984              -0.000019240               0.001309676               0.999999984              -0.000019074               0.001331334               0.999999984              -0.000019454               0.001357713               0.999999984              -0.000019799               0.001387764               0.999999984              -0.000019723               0.001420601               0.999999984              -0.000018852               0.001455593               0.999999984              -0.000017105               0.001492107               0.999999984              -0.000014203               0.001529481               0.999999984              -0.000009619               0.001567219               0.999999984              -0.000003027               0.001604742               0.999999984               0.000005994               0.001641558               0.999999984               0.000018348               0.001677056               0.999999984               0.000035309               0.001710659               0.999999984               0.000000000               0.001261828               0.999999984              -0.000000000               0.001283262               0.999999984               0.000000000               0.001294236               0.999999984               0.000000000               0.001306911               0.999999984              -0.000000000               0.001324216               0.999999984              -0.000000000               0.001346350               0.999999984               0.000000000               0.001373007               0.999999984               0.000000000               0.001403431               0.999999984              -0.000000000               0.001436823               0.999999984              -0.000000000               0.001472299               0.999999984              -0.000000000               0.001509380               0.999999984               0.000000000               0.001547589               0.999999984              -0.000000000               0.001586398               0.999999984              -0.000000000               0.001625097               0.999999984               0.000000000               0.001663258               0.999999984              -0.000000000               0.001700354               0.999999984               0.000000000               0.001735530               0.999999984              -0.000615815              -0.000000000               0.999999984              -0.000662857               0.000000000               0.999999984              -0.000683463              -0.000000000               0.999999984              -0.000695001               0.000000000               0.999999984              -0.000703999               0.000000000               0.999999984              -0.000712982               0.000000000               0.999999984              -0.000722855              -0.000000000               0.999999984              -0.000733832               0.000000000               0.999999984              -0.000745932               0.000000000               0.999999984              -0.000759066               0.000000000               0.999999984              -0.000773045               0.000000000               0.999999984              -0.000787703               0.000000000               0.999999984              -0.000802551              -0.000000000               0.999999984              -0.000817308               0.000000000               0.999999984              -0.000831648              -0.000000000               0.999999984              -0.000845055               0.000000000               0.999999984              -0.000856962              -0.000000000               0.999999984              -0.000612466              -0.000121313               0.999999984              -0.000656099              -0.000099631               0.999999984              -0.000674465              -0.000090514               0.999999984              -0.000684574              -0.000087883               0.999999984              -0.000692663              -0.000088655               0.999999984              -0.000701103              -0.000091256               0.999999984              -0.000710611              -0.000094595               0.999999984              -0.000721267              -0.000098035               0.999999984              -0.000732894              -0.000101367               0.999999984              -0.000745327              -0.000104376               0.999999984              -0.000758380              -0.000106819               0.999999984              -0.000771844              -0.000108491               0.999999984              -0.000785436              -0.000108950               0.999999984              -0.000798869              -0.000107891               0.999999984              -0.000811792              -0.000104802               0.999999984              -0.000823786              -0.000098968               0.999999984              -0.000834337              -0.000089378               0.999999984              -0.000602307              -0.000241494               0.999999984              -0.000636021              -0.000198625               0.999999984              -0.000648394              -0.000181473               0.999999984              -0.000654961              -0.000177083               0.999999984              -0.000660807              -0.000179283               0.999999984              -0.000667647              -0.000184942               0.999999984              -0.000675820              -0.000191921               0.999999984              -0.000685162              -0.000199170               0.999999984              -0.000695333              -0.000206018               0.999999984              -0.000706021              -0.000212149               0.999999984              -0.000716844              -0.000217094               0.999999984              -0.000727619              -0.000220544               0.999999984              -0.000738040              -0.000221893               0.999999984              -0.000747779              -0.000220540               0.999999984              -0.000756726              -0.000215882               0.999999984              -0.000764660              -0.000206853               0.999999984              -0.000771428              -0.000192146               0.999999984              -0.000585539              -0.000359378               0.999999984              -0.000603715              -0.000296550               0.999999984              -0.000607507              -0.000273220               0.999999984              -0.000609301              -0.000268533               0.999999984              -0.000612390              -0.000273210               0.999999984              -0.000617410              -0.000282586               0.999999984              -0.000624013              -0.000293742               0.999999984              -0.000631669              -0.000305024               0.999999984              -0.000639878              -0.000315588               0.999999984              -0.000648135              -0.000324765               0.999999984              -0.000656046              -0.000332103               0.999999984              -0.000663310              -0.000337315               0.999999984              -0.000669595              -0.000339717               0.999999984              -0.000674770              -0.000338830               0.999999984              -0.000678795              -0.000334132               0.999999984              -0.000681524              -0.000324770               0.999999984              -0.000683053              -0.000309947               0.999999984              -0.000562583              -0.000473862               0.999999984              -0.000560862              -0.000393133               0.999999984              -0.000555012              -0.000365952               0.999999984              -0.000552300              -0.000362654               0.999999984              -0.000553330              -0.000370801               0.999999984              -0.000557030              -0.000384424               0.999999984              -0.000562413              -0.000399902               0.999999984              -0.000568444              -0.000415200               0.999999984              -0.000574393              -0.000429305               0.999999984              -0.000579659              -0.000441310               0.999999984              -0.000583953              -0.000451036               0.999999984              -0.000587057              -0.000457967               0.999999984              -0.000588819              -0.000461577               0.999999984              -0.000588996              -0.000461634               0.999999984              -0.000587545              -0.000457796               0.999999984              -0.000584487              -0.000449634               0.999999984              -0.000579963              -0.000436831               0.999999984              -0.000533760              -0.000583880               0.999999984              -0.000509553              -0.000488342               0.999999984              -0.000495020              -0.000459682               0.999999984              -0.000489307              -0.000459157               0.999999984              -0.000489361              -0.000471457               0.999999984              -0.000492602              -0.000489381               0.999999984              -0.000497114              -0.000508874               0.999999984              -0.000501575              -0.000527734               0.999999984              -0.000505190              -0.000544722               0.999999984              -0.000507340              -0.000559091               0.999999984              -0.000507803              -0.000570691               0.999999984              -0.000506329              -0.000579248               0.999999984              -0.000502833              -0.000584266               0.999999984              -0.000497208              -0.000585571               0.999999984              -0.000489490              -0.000582992               0.999999984              -0.000479827              -0.000576642               0.999999984              -0.000468610              -0.000567047               0.999999984              -0.000499690              -0.000688232               0.999999984              -0.000452536              -0.000582112               0.999999984              -0.000431580              -0.000554107               0.999999984              -0.000424875              -0.000557100               0.999999984              -0.000425407              -0.000573436               0.999999984              -0.000428909              -0.000595256               0.999999984              -0.000432894              -0.000618190               0.999999984              -0.000435859              -0.000639949               0.999999984              -0.000436890              -0.000659253               0.999999984              -0.000435524              -0.000675357               0.999999984              -0.000431412              -0.000688383               0.999999984              -0.000424528              -0.000698222               0.999999984              -0.000414919              -0.000704604               0.999999984              -0.000402626              -0.000707201               0.999999984              -0.000387834              -0.000706165               0.999999984              -0.000371131              -0.000702267               0.999999984              -0.000353251              -0.000696385               0.999999984              -0.000461054              -0.000785831               0.999999984              -0.000392623              -0.000674278               0.999999984              -0.000368304              -0.000648324               0.999999984              -0.000362903              -0.000654755               0.999999984              -0.000364923              -0.000674812               0.999999984              -0.000369064              -0.000699998               0.999999984              -0.000372691              -0.000725691               0.999999984              -0.000373960              -0.000749550               0.999999984              -0.000371850              -0.000770440               0.999999984              -0.000365988              -0.000787811               0.999999984              -0.000356468              -0.000801911               0.999999984              -0.000343402              -0.000812803               0.999999984              -0.000326896              -0.000820206               0.999999984              -0.000307317              -0.000823881               0.999999984              -0.000285367              -0.000824613               0.999999984              -0.000262008              -0.000823670               0.999999984              -0.000237894              -0.000821852               0.999999984              -0.000419207              -0.000874997               0.999999984              -0.000331946              -0.000764684               0.999999984              -0.000308498              -0.000740911               0.999999984              -0.000305891              -0.000750295               0.999999984              -0.000310049              -0.000773521               0.999999984              -0.000315148              -0.000801391               0.999999984              -0.000317965              -0.000829275               0.999999984              -0.000316591              -0.000854691               0.999999984              -0.000310251              -0.000876755               0.999999984              -0.000299023              -0.000895172               0.999999984              -0.000283244              -0.000910174               0.999999984              -0.000263087              -0.000921696               0.999999984              -0.000238956              -0.000929648               0.999999984              -0.000211843              -0.000934583               0.999999984              -0.000183010              -0.000937778               0.999999984              -0.000153493              -0.000940203               0.999999984              -0.000123695              -0.000942254               0.999999984              -0.000376209              -0.000959124               0.999999984              -0.000281732              -0.000863955               0.999999984              -0.000255150              -0.000835434               0.999999984              -0.000251335              -0.000838761               0.999999984              -0.000255082              -0.000857029               0.999999984              -0.000260523              -0.000881968               0.999999984              -0.000264400              -0.000908642               0.999999984              -0.000264622              -0.000934512               0.999999984              -0.000260282              -0.000958230               0.999999984              -0.000251294              -0.000979280               0.999999984              -0.000237809              -0.000997461               0.999999984              -0.000220069              -0.001012839               0.999999984              -0.000197984              -0.001025503               0.999999984              -0.000171910              -0.001035558               0.999999984              -0.000143135              -0.001043567               0.999999984              -0.000112663              -0.001050377               0.999999984              -0.000081843              -0.001056690               0.999999984              -0.000329052              -0.001035617               0.999999984              -0.000234361              -0.000959579               0.999999984              -0.000204836              -0.000931866               0.999999984              -0.000198960              -0.000931299               0.999999984              -0.000201645              -0.000945588               0.999999984              -0.000206674              -0.000967818               0.999999984              -0.000210804              -0.000993470               0.999999984              -0.000212107              -0.001019842               0.999999984              -0.000209329              -0.001045207               0.999999984              -0.000202470              -0.001068786               0.999999984              -0.000191247              -0.001090061               0.999999984              -0.000175719              -0.001109016               0.999999984              -0.000155751              -0.001125644               0.999999984              -0.000131172              -0.001140096               0.999999984              -0.000102538              -0.001152600               0.999999984              -0.000070972              -0.001163745               0.999999984              -0.000037911              -0.001174214               0.999999984              -0.000278915              -0.001102513               0.999999984              -0.000189881              -0.001048742               0.999999984              -0.000158996              -0.001025900               0.999999984              -0.000150922              -0.001024295               0.999999984              -0.000151957              -0.001036276               0.999999984              -0.000155905              -0.001056478               0.999999984              -0.000159597              -0.001081260               0.999999984              -0.000161323              -0.001108186               0.999999984              -0.000159888              -0.001135301               0.999999984              -0.000154886              -0.001161510               0.999999984              -0.000145787              -0.001186139               0.999999984              -0.000132364              -0.001208978               0.999999984              -0.000114453              -0.001229806               0.999999984              -0.000091653              -0.001248657               0.999999984              -0.000063857              -0.001265572               0.999999984              -0.000031550              -0.001280913               0.999999984               0.000004291              -0.001295329               0.999999984              -0.000226249              -0.001158697               0.999999984              -0.000148259              -0.001127874               0.999999984              -0.000118382              -0.001112867               0.999999984              -0.000108769              -0.001112940               0.999999984              -0.000108066              -0.001124404               0.999999984              -0.000110578              -0.001143721               0.999999984              -0.000113316              -0.001168149               0.999999984              -0.000114969              -0.001195592               0.999999984              -0.000114435              -0.001224443               0.999999984              -0.000110979              -0.001253435               0.999999984              -0.000103941              -0.001281663               0.999999984              -0.000092840              -0.001308688               0.999999984              -0.000077262              -0.001334165               0.999999984              -0.000056737              -0.001357928               0.999999984              -0.000030817              -0.001379810               0.999999984               0.000001094              -0.001400032               0.999999984               0.000038971              -0.001418973               0.999999984              -0.000171504              -0.001203272               0.999999984              -0.000109135              -0.001193451               0.999999984              -0.000083091              -0.001187611               0.999999984              -0.000073337              -0.001191410               0.999999984              -0.000071262              -0.001204023               0.999999984              -0.000072427              -0.001223584               0.999999984              -0.000074244              -0.001248286               0.999999984              -0.000075425              -0.001276422               0.999999984              -0.000075242              -0.001306751               0.999999984              -0.000073043              -0.001338230               0.999999984              -0.000067927              -0.001369956               0.999999984              -0.000059369              -0.001401254               0.999999984              -0.000046790              -0.001431629               0.999999984              -0.000029657              -0.001460656               0.999999984              -0.000007075              -0.001488121               0.999999984               0.000022039              -0.001513909               0.999999984               0.000058692              -0.001538009               0.999999984              -0.000115221              -0.001235523               0.999999984              -0.000071810              -0.001242556               0.999999984              -0.000052465              -0.001245349               0.999999984              -0.000044520              -0.001253325               0.999999984              -0.000042096              -0.001267951               0.999999984              -0.000042272              -0.001288585               0.999999984              -0.000043266              -0.001314132               0.999999984              -0.000043986              -0.001343220               0.999999984              -0.000043871              -0.001374919               0.999999984              -0.000042379              -0.001408458               0.999999984              -0.000039030              -0.001443082               0.999999984              -0.000033147              -0.001478052               0.999999984              -0.000024318              -0.001512806               0.999999984              -0.000011916              -0.001546848               0.999999984               0.000005062              -0.001579774               0.999999984               0.000027577              -0.001611090               0.999999984               0.000057422              -0.001640496               0.999999984              -0.000057886              -0.001255151               0.999999984              -0.000035598              -0.001272958               0.999999984              -0.000025316              -0.001281859               0.999999984              -0.000020846              -0.001293213               0.999999984              -0.000019240              -0.001309676               0.999999984              -0.000019074              -0.001331334               0.999999984              -0.000019454              -0.001357713               0.999999984              -0.000019799              -0.001387764               0.999999984              -0.000019723              -0.001420601               0.999999984              -0.000018852              -0.001455593               0.999999984              -0.000017105              -0.001492107               0.999999984              -0.000014203              -0.001529481               0.999999984              -0.000009619              -0.001567219               0.999999984              -0.000003027              -0.001604742               0.999999984               0.000005994              -0.001641558               0.999999984               0.000018348              -0.001677056               0.999999984               0.000035309              -0.001710659               0.999999984              -0.000000000              -0.001261828               0.999999984              -0.000000000              -0.001283262               0.999999984               0.000000000              -0.001294236               0.999999984              -0.000000000              -0.001306911               0.999999984               0.000000000              -0.001324216               0.999999984               0.000000000              -0.001346350               0.999999984               0.000000000              -0.001373007               0.999999984              -0.000000000              -0.001403431               0.999999984               0.000000000              -0.001436823               0.999999984               0.000000000              -0.001472299               0.999999984               0.000000000              -0.001509380               0.999999984               0.000000000              -0.001547589               0.999999984               0.000000000              -0.001586398               0.999999984               0.000000000              -0.001625097               0.999999984               0.000000000              -0.001663258               0.999999984              -0.000000000              -0.001700354               0.999999984              -0.000000000              -0.001735530               0.999999984               0.000615815              -0.000000000               0.999999984               0.000662857               0.000000000               0.999999984               0.000683463               0.000000000               0.999999984               0.000695001               0.000000000               0.999999984               0.000703999               0.000000000               0.999999984               0.000712982              -0.000000000               0.999999984               0.000722855              -0.000000000               0.999999984               0.000733832              -0.000000000               0.999999984               0.000745932              -0.000000000               0.999999984               0.000759066               0.000000000               0.999999984               0.000773045              -0.000000000               0.999999984               0.000787703              -0.000000000               0.999999984               0.000802551              -0.000000000               0.999999984               0.000817308              -0.000000000               0.999999984               0.000831648               0.000000000               0.999999984               0.000845055              -0.000000000               0.999999984               0.000856962               0.000000000               0.999999984               0.000612466              -0.000121313               0.999999984               0.000656099              -0.000099631               0.999999984               0.000674465              -0.000090514               0.999999984               0.000684574              -0.000087883               0.999999984               0.000692663              -0.000088655               0.999999984               0.000701103              -0.000091256               0.999999984               0.000710611              -0.000094595               0.999999984               0.000721267              -0.000098035               0.999999984               0.000732894              -0.000101367               0.999999984               0.000745327              -0.000104376               0.999999984               0.000758380              -0.000106819               0.999999984               0.000771844              -0.000108491               0.999999984               0.000785436              -0.000108950               0.999999984               0.000798869              -0.000107891               0.999999984               0.000811792              -0.000104802               0.999999984               0.000823786              -0.000098968               0.999999984               0.000834337              -0.000089378               0.999999984               0.000602307              -0.000241494               0.999999984               0.000636021              -0.000198625               0.999999984               0.000648394              -0.000181473               0.999999984               0.000654961              -0.000177083               0.999999984               0.000660807              -0.000179283               0.999999984               0.000667647              -0.000184942               0.999999984               0.000675820              -0.000191921               0.999999984               0.000685162              -0.000199170               0.999999984               0.000695333              -0.000206018               0.999999984               0.000706021              -0.000212149               0.999999984               0.000716844              -0.000217094               0.999999984               0.000727619              -0.000220544               0.999999984               0.000738040              -0.000221893               0.999999984               0.000747779              -0.000220540               0.999999984               0.000756726              -0.000215882               0.999999984               0.000764660              -0.000206853               0.999999984               0.000771428              -0.000192146               0.999999984               0.000585539              -0.000359378               0.999999984               0.000603715              -0.000296550               0.999999984               0.000607507              -0.000273220               0.999999984               0.000609301              -0.000268533               0.999999984               0.000612390              -0.000273210               0.999999984               0.000617410              -0.000282586               0.999999984               0.000624013              -0.000293742               0.999999984               0.000631669              -0.000305024               0.999999984               0.000639878              -0.000315588               0.999999984               0.000648135              -0.000324765               0.999999984               0.000656046              -0.000332103               0.999999984               0.000663310              -0.000337315               0.999999984               0.000669595              -0.000339717               0.999999984               0.000674770              -0.000338830               0.999999984               0.000678795              -0.000334132               0.999999984               0.000681524              -0.000324770               0.999999984               0.000683053              -0.000309947               0.999999984               0.000562583              -0.000473862               0.999999984               0.000560862              -0.000393133               0.999999984               0.000555012              -0.000365952               0.999999984               0.000552300              -0.000362654               0.999999984               0.000553330              -0.000370801               0.999999984               0.000557030              -0.000384424               0.999999984               0.000562413              -0.000399902               0.999999984               0.000568444              -0.000415200               0.999999984               0.000574393              -0.000429305               0.999999984               0.000579659              -0.000441310               0.999999984               0.000583953              -0.000451036               0.999999984               0.000587057              -0.000457967               0.999999984               0.000588819              -0.000461577               0.999999984               0.000588996              -0.000461634               0.999999984               0.000587545              -0.000457796               0.999999984               0.000584487              -0.000449634               0.999999984               0.000579963              -0.000436831               0.999999984               0.000533760              -0.000583880               0.999999984               0.000509553              -0.000488342               0.999999984               0.000495020              -0.000459682               0.999999984               0.000489307              -0.000459157               0.999999984               0.000489361              -0.000471457               0.999999984               0.000492602              -0.000489381               0.999999984               0.000497114              -0.000508874               0.999999984               0.000501575              -0.000527734               0.999999984               0.000505190              -0.000544722               0.999999984               0.000507340              -0.000559091               0.999999984               0.000507803              -0.000570691               0.999999984               0.000506329              -0.000579248               0.999999984               0.000502833              -0.000584266               0.999999984               0.000497208              -0.000585571               0.999999984               0.000489490              -0.000582992               0.999999984               0.000479827              -0.000576642               0.999999984               0.000468610              -0.000567047               0.999999984               0.000499690              -0.000688232               0.999999984               0.000452536              -0.000582112               0.999999984               0.000431580              -0.000554107               0.999999984               0.000424875              -0.000557100               0.999999984               0.000425407              -0.000573436               0.999999984               0.000428909              -0.000595256               0.999999984               0.000432894              -0.000618190               0.999999984               0.000435859              -0.000639949               0.999999984               0.000436890              -0.000659253               0.999999984               0.000435524              -0.000675357               0.999999984               0.000431412              -0.000688383               0.999999984               0.000424528              -0.000698222               0.999999984               0.000414919              -0.000704604               0.999999984               0.000402626              -0.000707201               0.999999984               0.000387834              -0.000706165               0.999999984               0.000371131              -0.000702267               0.999999984               0.000353251              -0.000696385               0.999999984               0.000461054              -0.000785831               0.999999984               0.000392623              -0.000674278               0.999999984               0.000368304              -0.000648324               0.999999984               0.000362903              -0.000654755               0.999999984               0.000364923              -0.000674812               0.999999984               0.000369064              -0.000699998               0.999999984               0.000372691              -0.000725691               0.999999984               0.000373960              -0.000749550               0.999999984               0.000371850              -0.000770440               0.999999984               0.000365988              -0.000787811               0.999999984               0.000356468              -0.000801911               0.999999984               0.000343402              -0.000812803               0.999999984               0.000326896              -0.000820206               0.999999984               0.000307317              -0.000823881               0.999999984               0.000285367              -0.000824613               0.999999984               0.000262008              -0.000823670               0.999999984               0.000237894              -0.000821852               0.999999984               0.000419207              -0.000874997               0.999999984               0.000331946              -0.000764684               0.999999984               0.000308498              -0.000740911               0.999999984               0.000305891              -0.000750295               0.999999984               0.000310049              -0.000773521               0.999999984               0.000315148              -0.000801391               0.999999984               0.000317965              -0.000829275               0.999999984               0.000316591              -0.000854691               0.999999984               0.000310251              -0.000876755               0.999999984               0.000299023              -0.000895172               0.999999984               0.000283244              -0.000910174               0.999999984               0.000263087              -0.000921696               0.999999984               0.000238956              -0.000929648               0.999999984               0.000211843              -0.000934583               0.999999984               0.000183010              -0.000937778               0.999999984               0.000153493              -0.000940203               0.999999984               0.000123695              -0.000942254               0.999999984               0.000376209              -0.000959124               0.999999984               0.000281732              -0.000863955               0.999999984               0.000255150              -0.000835434               0.999999984               0.000251335              -0.000838761               0.999999984               0.000255082              -0.000857029               0.999999984               0.000260523              -0.000881968               0.999999984               0.000264400              -0.000908642               0.999999984               0.000264622              -0.000934512               0.999999984               0.000260282              -0.000958230               0.999999984               0.000251294              -0.000979280               0.999999984               0.000237809              -0.000997461               0.999999984               0.000220069              -0.001012839               0.999999984               0.000197984              -0.001025503               0.999999984               0.000171910              -0.001035558               0.999999984               0.000143135              -0.001043567               0.999999984               0.000112663              -0.001050377               0.999999984               0.000081843              -0.001056690               0.999999984               0.000329052              -0.001035617               0.999999984               0.000234361              -0.000959579               0.999999984               0.000204836              -0.000931866               0.999999984               0.000198960              -0.000931299               0.999999984               0.000201645              -0.000945588               0.999999984               0.000206674              -0.000967818               0.999999984               0.000210804              -0.000993470               0.999999984               0.000212107              -0.001019842               0.999999984               0.000209329              -0.001045207               0.999999984               0.000202470              -0.001068786               0.999999984               0.000191247              -0.001090061               0.999999984               0.000175719              -0.001109016               0.999999984               0.000155751              -0.001125644               0.999999984               0.000131172              -0.001140096               0.999999984               0.000102538              -0.001152600               0.999999984               0.000070972              -0.001163745               0.999999984               0.000037911              -0.001174214               0.999999984               0.000278915              -0.001102513               0.999999984               0.000189881              -0.001048742               0.999999984               0.000158996              -0.001025900               0.999999984               0.000150922              -0.001024295               0.999999984               0.000151957              -0.001036276               0.999999984               0.000155905              -0.001056478               0.999999984               0.000159597              -0.001081260               0.999999984               0.000161323              -0.001108186               0.999999984               0.000159888              -0.001135301               0.999999984               0.000154886              -0.001161510               0.999999984               0.000145787              -0.001186139               0.999999984               0.000132364              -0.001208978               0.999999984               0.000114453              -0.001229806               0.999999984               0.000091653              -0.001248657               0.999999984               0.000063857              -0.001265572               0.999999984               0.000031550              -0.001280913               0.999999984              -0.000004291              -0.001295329               0.999999984               0.000226249              -0.001158697               0.999999984               0.000148259              -0.001127874               0.999999984               0.000118382              -0.001112867               0.999999984               0.000108769              -0.001112940               0.999999984               0.000108066              -0.001124404               0.999999984               0.000110578              -0.001143721               0.999999984               0.000113316              -0.001168149               0.999999984               0.000114969              -0.001195592               0.999999984               0.000114435              -0.001224443               0.999999984               0.000110979              -0.001253435               0.999999984               0.000103941              -0.001281663               0.999999984               0.000092840              -0.001308688               0.999999984               0.000077262              -0.001334165               0.999999984               0.000056737              -0.001357928               0.999999984               0.000030817              -0.001379810               0.999999984              -0.000001094              -0.001400032               0.999999984              -0.000038971              -0.001418973               0.999999984               0.000171504              -0.001203272               0.999999984               0.000109135              -0.001193451               0.999999984               0.000083091              -0.001187611               0.999999984               0.000073337              -0.001191410               0.999999984               0.000071262              -0.001204023               0.999999984               0.000072427              -0.001223584               0.999999984               0.000074244              -0.001248286               0.999999984               0.000075425              -0.001276422               0.999999984               0.000075242              -0.001306751               0.999999984               0.000073043              -0.001338230               0.999999984               0.000067927              -0.001369956               0.999999984               0.000059369              -0.001401254               0.999999984               0.000046790              -0.001431629               0.999999984               0.000029657              -0.001460656               0.999999984               0.000007075              -0.001488121               0.999999984              -0.000022039              -0.001513909               0.999999984              -0.000058692              -0.001538009               0.999999984               0.000115221              -0.001235523               0.999999984               0.000071810              -0.001242556               0.999999984               0.000052465              -0.001245349               0.999999984               0.000044520              -0.001253325               0.999999984               0.000042096              -0.001267951               0.999999984               0.000042272              -0.001288585               0.999999984               0.000043266              -0.001314132               0.999999984               0.000043986              -0.001343220               0.999999984               0.000043871              -0.001374919               0.999999984               0.000042379              -0.001408458               0.999999984               0.000039030              -0.001443082               0.999999984               0.000033147              -0.001478052               0.999999984               0.000024318              -0.001512806               0.999999984               0.000011916              -0.001546848               0.999999984              -0.000005062              -0.001579774               0.999999984              -0.000027577              -0.001611090               0.999999984              -0.000057422              -0.001640496               0.999999984               0.000057886              -0.001255151               0.999999984               0.000035598              -0.001272958               0.999999984               0.000025316              -0.001281859               0.999999984               0.000020846              -0.001293213               0.999999984               0.000019240              -0.001309676               0.999999984               0.000019074              -0.001331334               0.999999984               0.000019454              -0.001357713               0.999999984               0.000019799              -0.001387764               0.999999984               0.000019723              -0.001420601               0.999999984               0.000018852              -0.001455593               0.999999984               0.000017105              -0.001492107               0.999999984               0.000014203              -0.001529481               0.999999984               0.000009619              -0.001567219               0.999999984               0.000003027              -0.001604742               0.999999984              -0.000005994              -0.001641558               0.999999984              -0.000018348              -0.001677056               0.999999984              -0.000035309              -0.001710659               0.999999984              -0.000000000              -0.001261828               0.999999984              -0.000000000              -0.001283262               0.999999984               0.000000000              -0.001294236               0.999999984              -0.000000000              -0.001306911               0.999999984               0.000000000              -0.001324216               0.999999984               0.000000000              -0.001346350               0.999999984               0.000000000              -0.001373007               0.999999984              -0.000000000              -0.001403431               0.999999984               0.000000000              -0.001436823               0.999999984               0.000000000              -0.001472299               0.999999984               0.000000000              -0.001509380               0.999999984               0.000000000              -0.001547589               0.999999984               0.000000000              -0.001586398               0.999999984               0.000000000              -0.001625097               0.999999984               0.000000000              -0.001663258               0.999999984              -0.000000000              -0.001700354               0.999999984              -0.000000000              -0.001735530               0.999999984               0.000615815              -0.000000000               0.999999984               0.000662857               0.000000000               0.999999984               0.000683463               0.000000000               0.999999984               0.000695001               0.000000000               0.999999984               0.000703999               0.000000000               0.999999984               0.000712982              -0.000000000               0.999999984               0.000722855              -0.000000000               0.999999984               0.000733832              -0.000000000               0.999999984               0.000745932              -0.000000000               0.999999984               0.000759066               0.000000000               0.999999984               0.000773045              -0.000000000               0.999999984               0.000787703              -0.000000000               0.999999984               0.000802551              -0.000000000               0.999999984               0.000817308              -0.000000000               0.999999984               0.000831648               0.000000000               0.999999984               0.000845055              -0.000000000               0.999999984               0.000856962               0.000000000               0.999999984               0.000612466               0.000121313               0.999999984               0.000656099               0.000099631               0.999999984               0.000674465               0.000090514               0.999999984               0.000684574               0.000087883               0.999999984               0.000692663               0.000088655               0.999999984               0.000701103               0.000091256               0.999999984               0.000710611               0.000094595               0.999999984               0.000721267               0.000098035               0.999999984               0.000732894               0.000101367               0.999999984               0.000745327               0.000104376               0.999999984               0.000758380               0.000106819               0.999999984               0.000771844               0.000108491               0.999999984               0.000785436               0.000108950               0.999999984               0.000798869               0.000107891               0.999999984               0.000811792               0.000104802               0.999999984               0.000823786               0.000098968               0.999999984               0.000834337               0.000089378               0.999999984               0.000602307               0.000241494               0.999999984               0.000636021               0.000198625               0.999999984               0.000648394               0.000181473               0.999999984               0.000654961               0.000177083               0.999999984               0.000660807               0.000179283               0.999999984               0.000667647               0.000184942               0.999999984               0.000675820               0.000191921               0.999999984               0.000685162               0.000199170               0.999999984               0.000695333               0.000206018               0.999999984               0.000706021               0.000212149               0.999999984               0.000716844               0.000217094               0.999999984               0.000727619               0.000220544               0.999999984               0.000738040               0.000221893               0.999999984               0.000747779               0.000220540               0.999999984               0.000756726               0.000215882               0.999999984               0.000764660               0.000206853               0.999999984               0.000771428               0.000192146               0.999999984               0.000585539               0.000359378               0.999999984               0.000603715               0.000296550               0.999999984               0.000607507               0.000273220               0.999999984               0.000609301               0.000268533               0.999999984               0.000612390               0.000273210               0.999999984               0.000617410               0.000282586               0.999999984               0.000624013               0.000293742               0.999999984               0.000631669               0.000305024               0.999999984               0.000639878               0.000315588               0.999999984               0.000648135               0.000324765               0.999999984               0.000656046               0.000332103               0.999999984               0.000663310               0.000337315               0.999999984               0.000669595               0.000339717               0.999999984               0.000674770               0.000338830               0.999999984               0.000678795               0.000334132               0.999999984               0.000681524               0.000324770               0.999999984               0.000683053               0.000309947               0.999999984               0.000562583               0.000473862               0.999999984               0.000560862               0.000393133               0.999999984               0.000555012               0.000365952               0.999999984               0.000552300               0.000362654               0.999999984               0.000553330               0.000370801               0.999999984               0.000557030               0.000384424               0.999999984               0.000562413               0.000399902               0.999999984               0.000568444               0.000415200               0.999999984               0.000574393               0.000429305               0.999999984               0.000579659               0.000441310               0.999999984               0.000583953               0.000451036               0.999999984               0.000587057               0.000457967               0.999999984               0.000588819               0.000461577               0.999999984               0.000588996               0.000461634               0.999999984               0.000587545               0.000457796               0.999999984               0.000584487               0.000449634               0.999999984               0.000579963               0.000436831               0.999999984               0.000533760               0.000583880               0.999999984               0.000509553               0.000488342               0.999999984               0.000495020               0.000459682               0.999999984               0.000489307               0.000459157               0.999999984               0.000489361               0.000471457               0.999999984               0.000492602               0.000489381               0.999999984               0.000497114               0.000508874               0.999999984               0.000501575               0.000527734               0.999999984               0.000505190               0.000544722               0.999999984               0.000507340               0.000559091               0.999999984               0.000507803               0.000570691               0.999999984               0.000506329               0.000579248               0.999999984               0.000502833               0.000584266               0.999999984               0.000497208               0.000585571               0.999999984               0.000489490               0.000582992               0.999999984               0.000479827               0.000576642               0.999999984               0.000468610               0.000567047               0.999999984               0.000499690               0.000688232               0.999999984               0.000452536               0.000582112               0.999999984               0.000431580               0.000554107               0.999999984               0.000424875               0.000557100               0.999999984               0.000425407               0.000573436               0.999999984               0.000428909               0.000595256               0.999999984               0.000432894               0.000618190               0.999999984               0.000435859               0.000639949               0.999999984               0.000436890               0.000659253               0.999999984               0.000435524               0.000675357               0.999999984               0.000431412               0.000688383               0.999999984               0.000424528               0.000698222               0.999999984               0.000414919               0.000704604               0.999999984               0.000402626               0.000707201               0.999999984               0.000387834               0.000706165               0.999999984               0.000371131               0.000702267               0.999999984               0.000353251               0.000696385               0.999999984               0.000461054               0.000785831               0.999999984               0.000392623               0.000674278               0.999999984               0.000368304               0.000648324               0.999999984               0.000362903               0.000654755               0.999999984               0.000364923               0.000674812               0.999999984               0.000369064               0.000699998               0.999999984               0.000372691               0.000725691               0.999999984               0.000373960               0.000749550               0.999999984               0.000371850               0.000770440               0.999999984               0.000365988               0.000787811               0.999999984               0.000356468               0.000801911               0.999999984               0.000343402               0.000812803               0.999999984               0.000326896               0.000820206               0.999999984               0.000307317               0.000823881               0.999999984               0.000285367               0.000824613               0.999999984               0.000262008               0.000823670               0.999999984               0.000237894               0.000821852               0.999999984               0.000419207               0.000874997               0.999999984               0.000331946               0.000764684               0.999999984               0.000308498               0.000740911               0.999999984               0.000305891               0.000750295               0.999999984               0.000310049               0.000773521               0.999999984               0.000315148               0.000801391               0.999999984               0.000317965               0.000829275               0.999999984               0.000316591               0.000854691               0.999999984               0.000310251               0.000876755               0.999999984               0.000299023               0.000895172               0.999999984               0.000283244               0.000910174               0.999999984               0.000263087               0.000921696               0.999999984               0.000238956               0.000929648               0.999999984               0.000211843               0.000934583               0.999999984               0.000183010               0.000937778               0.999999984               0.000153493               0.000940203               0.999999984               0.000123695               0.000942254               0.999999984               0.000376209               0.000959124               0.999999984               0.000281732               0.000863955               0.999999984               0.000255150               0.000835434               0.999999984               0.000251335               0.000838761               0.999999984               0.000255082               0.000857029               0.999999984               0.000260523               0.000881968               0.999999984               0.000264400               0.000908642               0.999999984               0.000264622               0.000934512               0.999999984               0.000260282               0.000958230               0.999999984               0.000251294               0.000979280               0.999999984               0.000237809               0.000997461               0.999999984               0.000220069               0.001012839               0.999999984               0.000197984               0.001025503               0.999999984               0.000171910               0.001035558               0.999999984               0.000143135               0.001043567               0.999999984               0.000112663               0.001050377               0.999999984               0.000081843               0.001056690               0.999999984               0.000329052               0.001035617               0.999999984               0.000234361               0.000959579               0.999999984               0.000204836               0.000931866               0.999999984               0.000198960               0.000931299               0.999999984               0.000201645               0.000945588               0.999999984               0.000206674               0.000967818               0.999999984               0.000210804               0.000993470               0.999999984               0.000212107               0.001019842               0.999999984               0.000209329               0.001045207               0.999999984               0.000202470               0.001068786               0.999999984               0.000191247               0.001090061               0.999999984               0.000175719               0.001109016               0.999999984               0.000155751               0.001125644               0.999999984               0.000131172               0.001140096               0.999999984               0.000102538               0.001152600               0.999999984               0.000070972               0.001163745               0.999999984               0.000037911               0.001174214               0.999999984               0.000278915               0.001102513               0.999999984               0.000189881               0.001048742               0.999999984               0.000158996               0.001025900               0.999999984               0.000150922               0.001024295               0.999999984               0.000151957               0.001036276               0.999999984               0.000155905               0.001056478               0.999999984               0.000159597               0.001081260               0.999999984               0.000161323               0.001108186               0.999999984               0.000159888               0.001135301               0.999999984               0.000154886               0.001161510               0.999999984               0.000145787               0.001186139               0.999999984               0.000132364               0.001208978               0.999999984               0.000114453               0.001229806               0.999999984               0.000091653               0.001248657               0.999999984               0.000063857               0.001265572               0.999999984               0.000031550               0.001280913               0.999999984              -0.000004291               0.001295329               0.999999984               0.000226249               0.001158697               0.999999984               0.000148259               0.001127874               0.999999984               0.000118382               0.001112867               0.999999984               0.000108769               0.001112940               0.999999984               0.000108066               0.001124404               0.999999984               0.000110578               0.001143721               0.999999984               0.000113316               0.001168149               0.999999984               0.000114969               0.001195592               0.999999984               0.000114435               0.001224443               0.999999984               0.000110979               0.001253435               0.999999984               0.000103941               0.001281663               0.999999984               0.000092840               0.001308688               0.999999984               0.000077262               0.001334165               0.999999984               0.000056737               0.001357928               0.999999984               0.000030817               0.001379810               0.999999984              -0.000001094               0.001400032               0.999999984              -0.000038971               0.001418973               0.999999984               0.000171504               0.001203272               0.999999984               0.000109135               0.001193451               0.999999984               0.000083091               0.001187611               0.999999984               0.000073337               0.001191410               0.999999984               0.000071262               0.001204023               0.999999984               0.000072427               0.001223584               0.999999984               0.000074244               0.001248286               0.999999984               0.000075425               0.001276422               0.999999984               0.000075242               0.001306751               0.999999984               0.000073043               0.001338230               0.999999984               0.000067927               0.001369956               0.999999984               0.000059369               0.001401254               0.999999984               0.000046790               0.001431629               0.999999984               0.000029657               0.001460656               0.999999984               0.000007075               0.001488121               0.999999984              -0.000022039               0.001513909               0.999999984              -0.000058692               0.001538009               0.999999984               0.000115221               0.001235523               0.999999984               0.000071810               0.001242556               0.999999984               0.000052465               0.001245349               0.999999984               0.000044520               0.001253325               0.999999984               0.000042096               0.001267951               0.999999984               0.000042272               0.001288585               0.999999984               0.000043266               0.001314132               0.999999984               0.000043986               0.001343220               0.999999984               0.000043871               0.001374919               0.999999984               0.000042379               0.001408458               0.999999984               0.000039030               0.001443082               0.999999984               0.000033147               0.001478052               0.999999984               0.000024318               0.001512806               0.999999984               0.000011916               0.001546848               0.999999984              -0.000005062               0.001579774               0.999999984              -0.000027577               0.001611090               0.999999984              -0.000057422               0.001640496               0.999999984               0.000057886               0.001255151               0.999999984               0.000035598               0.001272958               0.999999984               0.000025316               0.001281859               0.999999984               0.000020846               0.001293213               0.999999984               0.000019240               0.001309676               0.999999984               0.000019074               0.001331334               0.999999984               0.000019454               0.001357713               0.999999984               0.000019799               0.001387764               0.999999984               0.000019723               0.001420601               0.999999984               0.000018852               0.001455593               0.999999984               0.000017105               0.001492107               0.999999984               0.000014203               0.001529481               0.999999984               0.000009619               0.001567219               0.999999984               0.000003027               0.001604742               0.999999984              -0.000005994               0.001641558               0.999999984              -0.000018348               0.001677056               0.999999984              -0.000035309               0.001710659               0.999999984               0.000000000               0.001261828               0.999999984              -0.000000000               0.001283262               0.999999984               0.000000000               0.001294236               0.999999984               0.000000000               0.001306911               0.999999984              -0.000000000               0.001324216               0.999999984              -0.000000000               0.001346350               0.999999984               0.000000000               0.001373007               0.999999984               0.000000000               0.001403431               0.999999984              -0.000000000               0.001436823               0.999999984              -0.000000000               0.001472299               0.999999984              -0.000000000               0.001509380               0.999999984               0.000000000               0.001547589               0.999999984              -0.000000000               0.001586398               0.999999984              -0.000000000               0.001625097               0.999999984               0.000000000               0.001663258               0.999999984              -0.000000000               0.001700354               0.999999984               0.000000000               0.001735530               0.999999984 </DataArray>
<DataArray type="Float64"                                    Name="defo"                                                      NumberOfComponents=" 3" format="ascii">
             -0.000615815              -0.000000000               0.999999984              -0.000662857               0.000000000               0.999999984              -0.000683463              -0.000000000               0.999999984              -0.000695001               0.000000000               0.999999984              -0.000703999               0.000000000               0.999999984              -0.000712982               0.000000000               0.999999984              -0.000722855              -0.000000000               0.999999984              -0.000733832               0.000000000               0.999999984              -0.000745932               0.000000000               0.999999984              -0.000759066               0.000000000               0.999999984              -0.000773045               0.000000000               0.999999984              -0.000787703               0.000000000               0.999999984              -0.000802551              -0.000000000               0.999999984              -0.000817308               0.000000000               0.999999984              -0.000831648              -0.000000000               0.999999984              -0.000845055               0.000000000               0.999999984              -0.000856962              -0.000000000               0.999999984              -0.000612466               0.000121313               0.999999984              -0.000656099               0.000099631               0.999999984              -0.000674465               0.000090514               0.999999984              -0.000684574               0.000087883               0.999999984              -0.000692663               0.000088655               0.999999984              -0.000701103               0.000091256               0.999999984              -0.000710611               0.000094595               0.999999984              -0.000721267               0.000098035               0.999999984              -0.000732894               0.000101367               0.999999984              -0.000745327               0.000104376               0.999999984              -0.000758380               0.000106819               0.999999984              -0.000771844               0.000108491               0.999999984              -0.000785436               0.000108950               0.999999984              -0.000798869               0.000107891               0.999999984              -0.000811792               0.000104802               0.999999984              -0.000823786               0.000098968               0.999999984              -0.000834337               0.000089378               0.999999984              -0.000602307               0.000241494               0.999999984              -0.000636021               0.000198625               0.999999984              -0.000648394               0.000181473               0.999999984              -0.000654961               0.000177083               0.999999984              -0.000660807               0.000179283               0.999999984              -0.000667647               0.000184942               0.999999984              -0.000675820               0.000191921               0.999999984              -0.000685162               0.000199170               0.999999984              -0.000695333               0.000206018               0.999999984              -0.000706021               0.000212149               0.999999984              -0.000716844               0.000217094               0.999999984              -0.000727619               0.000220544               0.999999984              -0.000738040               0.000221893               0.999999984              -0.000747779               0.000220540               0.999999984              -0.000756726               0.000215882               0.999999984              -0.000764660               0.000206853               0.999999984              -0.000771428               0.000192146               0.999999984              -0.000585539               0.000359378               0.999999984              -0.000603715               0.000296550               0.999999984              -0.000607507               0.000273220               0.999999984              -0.000609301               0.000268533               0.999999984              -0.000612390               0.000273210               0.999999984              -0.000617410               0.000282586               0.999999984              -0.000624013               0.000293742               0.999999984              -0.000631669               0.000305024               0.999999984              -0.000639878               0.000315588               0.999999984              -0.000648135               0.000324765               0.999999984              -0.000656046               0.000332103               0.999999984              -0.000663310               0.000337315               0.999999984              -0.000669595               0.000339717               0.999999984              -0.000674770               0.000338830               0.999999984              -0.000678795               0.000334132               0.999999984              -0.000681524               0.000324770               0.999999984              -0.000683053               0.000309947               0.999999984              -0.000562583               0.000473862               0.999999984              -0.000560862               0.000393133               0.999999984              -0.000555012               0.000365952               0.999999984              -0.000552300               0.000362654               0.999999984              -0.000553330               0.000370801               0.999999984              -0.000557030               0.000384424               0.999999984              -0.000562413               0.000399902               0.999999984              -0.000568444               0.000415200               0.999999984              -0.000574393               0.000429305               0.999999984              -0.000579659               0.000441310               0.999999984              -0.000583953               0.000451036               0.999999984              -0.000587057               0.000457967               0.999999984              -0.000588819               0.000461577               0.999999984              -0.000588996               0.000461634               0.999999984              -0.000587545               0.000457796               0.999999984              -0.000584487               0.000449634               0.999999984              -0.000579963               0.000436831               0.999999984              -0.000533760               0.000583880               0.999999984              -0.000509553               0.000488342               0.999999984              -0.000495020               0.000459682               0.999999984              -0.000489307               0.000459157               0.999999984              -0.000489361               0.000471457               0.999999984              -0.000492602               0.000489381               0.999999984              -0.000497114               0.000508874               0.999999984              -0.000501575               0.000527734               0.999999984              -0.000505190               0.000544722               0.999999984              -0.000507340               0.000559091               0.999999984              -0.000507803               0.000570691               0.999999984              -0.000506329               0.000579248               0.999999984              -0.000502833               0.000584266               0.999999984              -0.000497208               0.000585571               0.999999984              -0.000489490               0.000582992               0.999999984              -0.000479827               0.000576642               0.999999984              -0.000468610               0.000567047               0.999999984              -0.000499690               0.000688232               0.999999984              -0.000452536               0.000582112               0.999999984              -0.000431580               0.000554107               0.999999984              -0.000424875               0.000557100               0.999999984              -0.000425407               0.000573436               0.999999984              -0.000428909               0.000595256               0.999999984              -0.000432894               0.000618190               0.999999984              -0.000435859               0.000639949               0.999999984              -0.000436890               0.000659253               0.999999984              -0.000435524               0.000675357               0.999999984              -0.000431412               0.000688383               0.999999984              -0.000424528               0.000698222               0.999999984              -0.000414919               0.000704604               0.999999984              -0.000402626               0.000707201               0.999999984              -0.000387834               0.000706165               0.999999984              -0.000371131               0.000702267               0.999999984              -0.000353251               0.000696385               0.999999984              -0.000461054               0.000785831               0.999999984              -0.000392623               0.000674278               0.999999984              -0.000368304               0.000648324               0.999999984              -0.000362903               0.000654755               0.999999984              -0.000364923               0.000674812               0.999999984              -0.000369064               0.000699998               0.999999984              -0.000372691               0.000725691               0.999999984              -0.000373960               0.000749550               0.999999984              -0.000371850               0.000770440               0.999999984              -0.000365988               0.000787811               0.999999984              -0.000356468               0.000801911               0.999999984              -0.000343402               0.000812803               0.999999984              -0.000326896               0.000820206               0.999999984              -0.000307317               0.000823881               0.999999984              -0.000285367               0.000824613               0.999999984              -0.000262008               0.000823670               0.999999984              -0.000237894               0.000821852               0.999999984              -0.000419207               0.000874997               0.999999984              -0.000331946               0.000764684               0.999999984              -0.000308498               0.000740911               0.999999984              -0.000305891               0.000750295               0.999999984              -0.000310049               0.000773521               0.999999984              -0.000315148               0.000801391               0.999999984              -0.000317965               0.000829275               0.999999984              -0.000316591               0.000854691               0.999999984              -0.000310251               0.000876755               0.999999984              -0.000299023               0.000895172               0.999999984              -0.000283244               0.000910174               0.999999984              -0.000263087               0.000921696               0.999999984              -0.000238956               0.000929648               0.999999984              -0.000211843               0.000934583               0.999999984              -0.000183010               0.000937778               0.999999984              -0.000153493               0.000940203               0.999999984              -0.000123695               0.000942254               0.999999984              -0.000376209               0.000959124               0.999999984              -0.000281732               0.000863955               0.999999984              -0.000255150               0.000835434               0.999999984              -0.000251335               0.000838761               0.999999984              -0.000255082               0.000857029               0.999999984              -0.000260523               0.000881968               0.999999984              -0.000264400               0.000908642               0.999999984              -0.000264622               0.000934512               0.999999984              -0.000260282               0.000958230               0.999999984              -0.000251294               0.000979280               0.999999984              -0.000237809               0.000997461               0.999999984              -0.000220069               0.001012839               0.999999984              -0.000197984               0.001025503               0.999999984              -0.000171910               0.001035558               0.999999984              -0.000143135               0.001043567               0.999999984              -0.000112663               0.001050377               0.999999984              -0.000081843               0.001056690               0.999999984              -0.000329052               0.001035617               0.999999984              -0.000234361               0.000959579               0.999999984              -0.000204836               0.000931866               0.999999984              -0.000198960               0.000931299               0.999999984              -0.000201645               0.000945588               0.999999984              -0.000206674               0.000967818               0.999999984              -0.000210804               0.000993470               0.999999984              -0.000212107               0.001019842               0.999999984              -0.000209329               0.001045207               0.999999984              -0.000202470               0.001068786               0.999999984              -0.000191247               0.001090061               0.999999984              -0.000175719               0.001109016               0.999999984              -0.000155751               0.001125644               0.999999984              -0.000131172               0.001140096               0.999999984              -0.000102538               0.001152600               0.999999984              -0.000070972               0.001163745               0.999999984              -0.000037911               0.001174214               0.999999984              -0.000278915               0.001102513               0.999999984              -0.000189881               0.001048742               0.999999984              -0.000158996               0.001025900               0.999999984              -0.000150922               0.001024295               0.999999984              -0.000151957               0.001036276               0.999999984              -0.000155905               0.001056478               0.999999984              -0.000159597               0.001081260               0.999999984              -0.000161323               0.001108186               0.999999984              -0.000159888               0.001135301               0.999999984              -0.000154886               0.001161510               0.999999984              -0.000145787               0.001186139               0.999999984              -0.000132364               0.001208978               0.999999984              -0.000114453               0.001229806               0.999999984              -0.000091653               0.001248657               0.999999984              -0.000063857               0.001265572               0.999999984              -0.000031550               0.001280913               0.999999984               0.000004291               0.001295329               0.999999984              -0.000226249               0.001158697               0.999999984              -0.000148259               0.001127874               0.999999984              -0.000118382               0.001112867               0.999999984              -0.000108769               0.001112940               0.999999984              -0.000108066               0.001124404               0.999999984              -0.000110578               0.001143721               0.999999984              -0.000113316               0.001168149               0.999999984              -0.000114969               0.001195592               0.999999984              -0.000114435               0.001224443               0.999999984              -0.000110979               0.001253435               0.999999984              -0.000103941               0.001281663               0.999999984              -0.000092840               0.001308688               0.999999984              -0.000077262               0.001334165               0.999999984              -0.000056737               0.001357928               0.999999984              -0.000030817               0.001379810               0.999999984               0.000001094               0.001400032               0.999999984               0.000038971               0.001418973               0.999999984              -0.000171504               0.001203272               0.999999984              -0.000109135               0.001193451               0.999999984              -0.000083091               0.001187611               0.999999984              -0.000073337               0.001191410               0.999999984              -0.000071262               0.001204023               0.999999984              -0.000072427               0.001223584               0.999999984              -0.000074244               0.001248286               0.999999984              -0.000075425               0.001276422               0.999999984              -0.000075242               0.001306751               0.999999984              -0.000073043               0.001338230               0.999999984              -0.000067927               0.001369956               0.999999984              -0.000059369               0.001401254               0.999999984              -0.000046790               0.001431629               0.999999984              -0.000029657               0.001460656               0.999999984              -0.000007075               0.001488121               0.999999984               0.000022039               0.001513909               0.999999984               0.000058692               0.001538009               0.999999984              -0.000115221               0.001235523               0.999999984              -0.000071810               0.001242556               0.999999984              -0.000052465               0.001245349               0.999999984              -0.000044520               0.001253325               0.999999984              -0.000042096               0.001267951               0.999999984              -0.000042272               0.001288585               0.999999984              -0.000043266               0.001314132               0.999999984              -0.000043986               0.001343220               0.999999984              -0.000043871               0.001374919               0.999999984              -0.000042379               0.001408458               0.999999984              -0.000039030               0.001443082               0.999999984              -0.000033147               0.001478052               0.999999984              -0.000024318               0.001512806               0.999999984              -0.000011916               0.001546848               0.999999984               0.000005062               0.001579774               0.999999984               0.000027577               0.001611090               0.999999984               0.000057422               0.001640496               0.999999984              -0.000057886               0.001255151               0.999999984              -0.000035598               0.001272958               0.999999984              -0.000025316               0.001281859               0.999999984              -0.000020846               0.001293213               0.999999984              -0.000019240               0.001309676               0.999999984              -0.000019074               0.001331334               0.999999984              -0.000019454               0.001357713               0.999999984              -0.000019799               0.001387764               0.999999984              -0.000019723               0.001420601               0.999999984              -0.000018852               0.001455593               0.999999984              -0.000017105               0.001492107               0.999999984              -0.000014203               0.001529481               0.999999984              -0.000009619               0.001567219               0.999999984              -0.000003027               0.001604742               0.999999984               0.000005994               0.001641558               0.999999984               0.000018348               0.001677056               0.999999984               0.000035309               0.001710659               0.999999984               0.000000000               0.001261828               0.999999984              -0.000000000               0.001283262               0.999999984               0.000000000               0.001294236               0.999999984               0.000000000               0.001306911               0.999999984              -0.000000000               0.001324216               0.999999984              -0.000000000               0.001346350               0.999999984               0.000000000               0.001373007               0.999999984               0.000000000               0.001403431               0.999999984              -0.000000000               0.001436823               0.999999984              -0.000000000               0.001472299               0.999999984              -0.000000000               0.001509380               0.999999984               0.000000000               0.001547589               0.999999984              -0.000000000               0.001586398               0.999999984              -0.000000000               0.001625097               0.999999984               0.000000000               0.001663258               0.999999984              -0.000000000               0.001700354               0.999999984               0.000000000               0.001735530               0.999999984              -0.000615815              -0.000000000               0.999999984              -0.000662857               0.000000000               0.999999984              -0.000683463              -0.000000000               0.999999984              -0.000695001               0.000000000               0.999999984              -0.000703999               0.000000000               0.999999984              -0.000712982               0.000000000               0.999999984              -0.000722855              -0.000000000               0.999999984              -0.000733832               0.000000000               0.999999984              -0.000745932               0.000000000               0.999999984              -0.000759066               0.000000000               0.999999984              -0.000773045               0.000000000               0.999999984              -0.000787703               0.000000000               0.999999984              -0.000802551              -0.000000000               0.999999984              -0.000817308               0.000000000               0.999999984              -0.000831648              -0.000000000               0.999999984              -0.000845055               0.000000000               0.999999984              -0.000856962              -0.000000000               0.999999984              -0.000612466              -0.000121313               0.999999984              -0.000656099              -0.000099631               0.999999984              -0.000674465              -0.000090514               0.999999984              -0.000684574              -0.000087883               0.999999984              -0.000692663              -0.000088655               0.999999984              -0.000701103              -0.000091256               0.999999984              -0.000710611              -0.000094595               0.999999984              -0.000721267              -0.000098035               0.999999984              -0.000732894              -0.000101367               0.999999984              -0.000745327              -0.000104376               0.999999984              -0.000758380              -0.000106819               0.999999984              -0.000771844              -0.000108491               0.999999984              -0.000785436              -0.000108950               0.999999984              -0.000798869              -0.000107891               0.999999984              -0.000811792              -0.000104802               0.999999984              -0.000823786              -0.000098968               0.999999984              -0.000834337              -0.000089378               0.999999984              -0.000602307              -0.000241494               0.999999984              -0.000636021              -0.000198625               0.999999984              -0.000648394              -0.000181473               0.999999984              -0.000654961              -0.000177083               0.999999984              -0.000660807              -0.000179283               0.999999984              -0.000667647              -0.000184942               0.999999984              -0.000675820              -0.000191921               0.999999984              -0.000685162              -0.000199170               0.999999984              -0.000695333              -0.000206018               0.999999984              -0.000706021              -0.000212149               0.999999984              -0.000716844              -0.000217094               0.999999984              -0.000727619              -0.000220544               0.999999984              -0.000738040              -0.000221893               0.999999984              -0.000747779              -0.000220540               0.999999984              -0.000756726              -0.000215882               0.999999984              -0.000764660              -0.000206853               0.999999984              -0.000771428              -0.000192146               0.999999984              -0.000585539              -0.000359378               0.999999984              -0.000603715              -0.000296550               0.999999984              -0.000607507              -0.000273220               0.999999984              -0.000609301              -0.000268533               0.999999984              -0.000612390              -0.000273210               0.999999984              -0.000617410              -0.000282586               0.999999984              -0.000624013              -0.000293742               0.999999984              -0.000631669              -0.000305024               0.999999984              -0.000639878              -0.000315588               0.999999984              -0.000648135              -0.000324765               0.999999984              -0.000656046              -0.000332103               0.999999984              -0.000663310              -0.000337315               0.999999984              -0.000669595              -0.000339717               0.999999984              -0.000674770              -0.000338830               0.999999984              -0.000678795              -0.000334132               0.999999984              -0.000681524              -0.000324770               0.999999984              -0.000683053              -0.000309947               0.999999984              -0.000562583              -0.000473862               0.999999984              -0.000560862              -0.000393133               0.999999984              -0.000555012              -0.000365952               0.999999984              -0.000552300              -0.000362654               0.999999984              -0.000553330              -0.000370801               0.999999984              -0.000557030              -0.000384424               0.999999984              -0.000562413              -0.000399902               0.999999984              -0.000568444              -0.000415200               0.999999984              -0.000574393              -0.000429305               0.999999984              -0.000579659              -0.000441310               0.999999984              -0.000583953              -0.000451036               0.999999984              -0.000587057              -0.000457967               0.999999984              -0.000588819              -0.000461577               0.999999984              -0.000588996              -0.000461634               0.999999984              -0.000587545              -0.000457796               0.999999984              -0.000584487              -0.000449634               0.999999984              -0.000579963              -0.000436831               0.999999984              -0.000533760              -0.000583880               0.999999984              -0.000509553              -0.000488342               0.999999984              -0.000495020              -0.000459682               0.999999984              -0.000489307              -0.000459157               0.999999984              -0.000489361              -0.000471457               0.999999984              -0.000492602              -0.000489381               0.999999984              -0.000497114              -0.000508874               0.999999984              -0.000501575              -0.000527734               0.999999984              -0.000505190              -0.000544722               0.999999984              -0.000507340              -0.000559091               0.999999984              -0.000507803              -0.000570691               0.999999984              -0.000506329              -0.000579248               0.999999984              -0.000502833              -0.000584266               0.999999984              -0.000497208              -0.000585571               0.999999984              -0.000489490              -0.000582992               0.999999984              -0.000479827              -0.000576642               0.999999984              -0.000468610              -0.000567047               0.999999984              -0.000499690              -0.000688232               0.999999984              -0.000452536              -0.000582112               0.999999984              -0.000431580              -0.000554107               0.999999984              -0.000424875              -0.000557100               0.999999984              -0.000425407              -0.000573436               0.999999984              -0.000428909              -0.000595256               0.999999984              -0.000432894              -0.000618190               0.999999984              -0.000435859              -0.000639949               0.999999984              -0.000436890              -0.000659253               0.999999984              -0.000435524              -0.000675357               0.999999984              -0.000431412              -0.000688383               0.999999984              -0.000424528              -0.000698222               0.999999984              -0.000414919              -0.000704604               0.999999984              -0.000402626              -0.000707201               0.999999984              -0.000387834              -0.000706165               0.999999984              -0.000371131              -0.000702267               0.999999984              -0.000353251              -0.000696385               0.999999984              -0.000461054              -0.000785831               0.999999984              -0.000392623              -0.000674278               0.999999984              -0.000368304              -0.000648324               0.999999984              -0.000362903              -0.000654755               0.999999984              -0.000364923              -0.000674812               0.999999984              -0.000369064              -0.000699998               0.999999984              -0.000372691              -0.000725691               0.999999984              -0.000373960              -0.000749550               0.999999984              -0.000371850              -0.000770440               0.999999984              -0.000365988              -0.000787811               0.999999984              -0.000356468              -0.000801911               0.999999984              -0.000343402              -0.000812803               0.999999984              -0.000326896              -0.000820206               0.999999984              -0.000307317              -0.000823881               0.999999984              -0.000285367              -0.000824613               0.999999984              -0.000262008              -0.000823670               0.999999984              -0.000237894              -0.000821852               0.999999984              -0.000419207              -0.000874997               0.999999984              -0.000331946              -0.000764684               0.999999984              -0.000308498              -0.000740911               0.999999984              -0.000305891              -0.000750295               0.999999984              -0.000310049              -0.000773521               0.999999984              -0.000315148              -0.000801391               0.999999984              -0.000317965              -0.000829275               0.999999984              -0.000316591              -0.000854691               0.999999984              -0.000310251              -0.000876755               0.999999984              -0.000299023              -0.000895172               0.999999984              -0.000283244              -0.000910174               0.999999984              -0.000263087              -0.000921696               0.999999984              -0.000238956              -0.000929648               0.999999984              -0.000211843              -0.000934583               0.999999984              -0.000183010              -0.000937778               0.999999984              -0.000153493              -0.000940203               0.999999984              -0.000123695              -0.000942254               0.999999984              -0.000376209              -0.000959124               0.999999984              -0.000281732              -0.000863955               0.999999984              -0.000255150              -0.000835434               0.999999984              -0.000251335              -0.000838761               0.999999984              -0.000255082              -0.000857029               0.999999984              -0.000260523              -0.000881968               0.999999984              -0.000264400              -0.000908642               0.999999984              -0.000264622              -0.000934512               0.999999984              -0.000260282              -0.000958230               0.999999984              -0.000251294              -0.000979280               0.999999984              -0.000237809              -0.000997461               0.999999984              -0.000220069              -0.001012839               0.999999984              -0.000197984              -0.001025503               0.999999984              -0.000171910              -0.001035558               0.999999984              -0.000143135              -0.001043567               0.999999984              -0.000112663              -0.001050377               0.999999984              -0.000081843              -0.001056690               0.999999984              -0.000329052              -0.001035617               0.999999984              -0.000234361              -0.000959579               0.999999984              -0.000204836              -0.000931866               0.999999984              -0.000198960              -0.000931299               0.999999984              -0.000201645              -0.000945588               0.999999984              -0.000206674              -0.000967818               0.999999984              -0.000210804              -0.000993470               0.999999984              -0.000212107              -0.001019842               0.999999984              -0.000209329              -0.001045207               0.999999984              -0.000202470              -0.001068786               0.999999984              -0.000191247              -0.001090061               0.999999984              -0.000175719              -0.001109016               0.999999984              -0.000155751              -0.001125644               0.999999984              -0.000131172              -0.001140096               0.999999984              -0.000102538              -0.001152600               0.999999984              -0.000070972              -0.001163745               0.999999984              -0.000037911              -0.001174214               0.999999984              -0.000278915              -0.001102513               0.999999984              -0.000189881              -0.001048742               0.999999984              -0.000158996              -0.001025900               0.999999984              -0.000150922              -0.001024295               0.999999984              -0.000151957              -0.001036276               0.999999984              -0.000155905              -0.001056478               0.999999984              -0.000159597              -0.001081260               0.999999984              -0.000161323              -0.001108186               0.999999984              -0.000159888              -0.001135301               0.999999984              -0.000154886              -0.001161510               0.999999984              -0.000145787              -0.001186139               0.999999984              -0.000132364              -0.001208978               0.999999984              -0.000114453              -0.001229806               0.999999984              -0.000091653              -0.001248657               0.999999984              -0.000063857              -0.001265572               0.999999984              -0.000031550              -0.001280913               0.999999984               0.000004291              -0.001295329               0.999999984              -0.000226249              -0.001158697               0.999999984              -0.000148259              -0.001127874               0.999999984              -0.000118382              -0.001112867               0.999999984              -0.000108769              -0.001112940               0.999999984              -0.000108066              -0.001124404               0.999999984              -0.000110578              -0.001143721               0.999999984              -0.000113316              -0.001168149               0.999999984              -0.000114969              -0.001195592               0.999999984              -0.000114435              -0.001224443               0.999999984              -0.000110979              -0.001253435               0.999999984              -0.000103941              -0.001281663               0.999999984              -0.000092840              -0.001308688               0.999999984              -0.000077262              -0.001334165               0.999999984              -0.000056737              -0.001357928               0.999999984              -0.000030817              -0.001379810               0.999999984               0.000001094              -0.001400032               0.999999984               0.000038971              -0.001418973               0.999999984              -0.000171504              -0.001203272               0.999999984              -0.000109135              -0.001193451               0.999999984              -0.000083091              -0.001187611               0.999999984              -0.000073337              -0.001191410               0.999999984              -0.000071262              -0.001204023               0.999999984              -0.000072427              -0.001223584               0.999999984              -0.000074244              -0.001248286               0.999999984              -0.000075425              -0.001276422               0.999999984              -0.000075242              -0.001306751               0.999999984              -0.000073043              -0.001338230               0.999999984              -0.000067927              -0.001369956               0.999999984              -0.000059369              -0.001401254               0.999999984              -0.000046790              -0.001431629               0.999999984              -0.000029657              -0.001460656               0.999999984              -0.000007075              -0.001488121               0.999999984               0.000022039              -0.001513909               0.999999984               0.000058692              -0.001538009               0.999999984              -0.000115221              -0.001235523               0.999999984              -0.000071810              -0.001242556               0.999999984              -0.000052465              -0.001245349               0.999999984              -0.000044520              -0.001253325               0.999999984              -0.000042096              -0.001267951               0.999999984              -0.000042272              -0.001288585               0.999999984              -0.000043266              -0.001314132               0.999999984              -0.000043986              -0.001343220               0.999999984              -0.000043871              -0.001374919               0.999999984              -0.000042379              -0.001408458               0.999999984              -0.000039030              -0.001443082               0.999999984              -0.000033147              -0.001478052               0.999999984              -0.000024318              -0.001512806               0.999999984              -0.000011916              -0.001546848               0.999999984               0.000005062              -0.001579774               0.999999984               0.000027577              -0.001611090               0.999999984               0.000057422              -0.001640496               0.999999984              -0.000057886              -0.001255151               0.999999984              -0.000035598              -0.001272958               0.999999984              -0.000025316              -0.001281859               0.999999984              -0.000020846              -0.001293213               0.999999984              -0.000019240              -0.001309676               0.999999984              -0.000019074              -0.001331334               0.999999984              -0.000019454              -0.001357713               0.999999984              -0.000019799              -0.001387764               0.999999984              -0.000019723              -0.001420601               0.999999984              -0.000018852              -0.001455593               0.999999984              -0.000017105              -0.001492107               0.999999984              -0.000014203              -0.001529481               0.999999984              -0.000009619              -0.001567219               0.999999984              -0.000003027              -0.001604742               0.999999984               0.000005994              -0.001641558               0.999999984               0.000018348              -0.001677056               0.999999984               0.000035309              -0.001710659               0.999999984              -0.000000000              -0.001261828               0.999999984              -0.000000000              -0.001283262               0.999999984               0.000000000              -0.001294236               0.999999984              -0.000000000              -0.001306911               0.999999984               0.000000000              -0.001324216               0.999999984               0.000000000              -0.001346350               0.999999984               0.000000000              -0.001373007               0.999999984              -0.000000000              -0.001403431               0.999999984               0.000000000              -0.001436823               0.999999984               0.000000000              -0.001472299               0.999999984               0.000000000              -0.001509380               0.999999984               0.000000000              -0.001547589               0.999999984               0.000000000              -0.001586398               0.999999984               0.000000000              -0.001625097               0.999999984               0.000000000              -0.001663258               0.999999984              -0.000000000              -0.001700354               0.999999984              -0.000000000              -0.001735530               0.999999984               0.000615815              -0.000000000               0.999999984               0.000662857               0.000000000               0.999999984               0.000683463               0.000000000               0.999999984               0.000695001               0.000000000               0.999999984               0.000703999               0.000000000               0.999999984               0.000712982              -0.000000000               0.999999984               0.000722855              -0.000000000               0.999999984               0.000733832              -0.000000000               0.999999984               0.000745932              -0.000000000               0.999999984               0.000759066               0.000000000               0.999999984               0.000773045              -0.000000000               0.999999984               0.000787703              -0.000000000               0.999999984               0.000802551              -0.000000000               0.999999984               0.000817308              -0.000000000               0.999999984               0.000831648               0.000000000               0.999999984               0.000845055              -0.000000000               0.999999984               0.000856962               0.000000000               0.999999984               0.000612466              -0.000121313               0.999999984               0.000656099              -0.000099631               0.999999984               0.000674465              -0.000090514               0.999999984               0.000684574              -0.000087883               0.999999984               0.000692663              -0.000088655               0.999999984               0.000701103              -0.000091256               0.999999984               0.000710611              -0.000094595               0.999999984               0.000721267              -0.000098035               0.999999984               0.000732894              -0.000101367               0.999999984               0.000745327              -0.000104376               0.999999984               0.000758380              -0.000106819               0.999999984               0.000771844              -0.000108491               0.999999984               0.000785436              -0.000108950               0.999999984               0.000798869              -0.000107891               0.999999984               0.000811792              -0.000104802               0.999999984               0.000823786              -0.000098968               0.999999984               0.000834337              -0.000089378               0.999999984               0.000602307              -0.000241494               0.999999984               0.000636021              -0.000198625               0.999999984               0.000648394              -0.000181473               0.999999984               0.000654961              -0.000177083               0.999999984               0.000660807              -0.000179283               0.999999984               0.000667647              -0.000184942               0.999999984               0.000675820              -0.000191921               0.999999984               0.000685162              -0.000199170               0.999999984               0.000695333              -0.000206018               0.999999984               0.000706021              -0.000212149               0.999999984               0.000716844              -0.000217094               0.999999984               0.000727619              -0.000220544               0.999999984               0.000738040              -0.000221893               0.999999984               0.000747779              -0.000220540               0.999999984               0.000756726              -0.000215882               0.999999984               0.000764660              -0.000206853               0.999999984               0.000771428              -0.000192146               0.999999984               0.000585539              -0.000359378               0.999999984               0.000603715              -0.000296550               0.999999984               0.000607507              -0.000273220               0.999999984               0.000609301              -0.000268533               0.999999984               0.000612390              -0.000273210               0.999999984               0.000617410              -0.000282586               0.999999984               0.000624013              -0.000293742               0.999999984               0.000631669              -0.000305024               0.999999984               0.000639878              -0.000315588               0.999999984               0.000648135              -0.000324765               0.999999984               0.000656046              -0.000332103               0.999999984               0.000663310              -0.000337315               0.999999984               0.000669595              -0.000339717               0.999999984               0.000674770              -0.000338830               0.999999984               0.000678795              -0.000334132               0.999999984               0.000681524              -0.000324770               0.999999984               0.000683053              -0.000309947               0.999999984               0.000562583              -0.000473862               0.999999984               0.000560862              -0.000393133               0.999999984               0.000555012              -0.000365952               0.999999984               0.000552300              -0.000362654               0.999999984               0.000553330              -0.000370801               0.999999984               0.000557030              -0.000384424               0.999999984               0.000562413              -0.000399902               0.999999984               0.000568444              -0.000415200               0.999999984               0.000574393              -0.000429305               0.999999984               0.000579659              -0.000441310               0.999999984               0.000583953              -0.000451036               0.999999984               0.000587057              -0.000457967               0.999999984               0.000588819              -0.000461577               0.999999984               0.000588996              -0.000461634               0.999999984               0.000587545              -0.000457796               0.999999984               0.000584487              -0.000449634               0.999999984               0.000579963              -0.000436831               0.999999984               0.000533760              -0.000583880               0.999999984               0.000509553              -0.000488342               0.999999984               0.000495020              -0.000459682               0.999999984               0.000489307              -0.000459157               0.999999984               0.000489361              -0.000471457               0.999999984               0.000492602              -0.000489381               0.999999984               0.000497114              -0.000508874               0.999999984               0.000501575              -0.000527734               0.999999984               0.000505190              -0.000544722               0.999999984               0.000507340              -0.000559091               0.999999984               0.000507803              -0.000570691               0.999999984               0.000506329              -0.000579248               0.999999984               0.000502833              -0.000584266               0.999999984               0.000497208              -0.000585571               0.999999984               0.000489490              -0.000582992               0.999999984               0.000479827              -0.000576642               0.999999984               0.000468610              -0.000567047               0.999999984               0.000499690              -0.000688232               0.999999984               0.000452536              -0.000582112               0.999999984               0.000431580              -0.000554107               0.999999984               0.000424875              -0.000557100               0.999999984               0.000425407              -0.000573436               0.999999984               0.000428909              -0.000595256               0.999999984               0.000432894              -0.000618190               0.999999984               0.000435859              -0.000639949               0.999999984               0.000436890              -0.000659253               0.999999984               0.000435524              -0.000675357               0.999999984               0.000431412              -0.000688383               0.999999984               0.000424528              -0.000698222               0.999999984               0.000414919              -0.000704604               0.999999984               0.000402626              -0.000707201               0.999999984               0.000387834              -0.000706165               0.999999984               0.000371131              -0.000702267               0.999999984               0.000353251              -0.000696385               0.999999984               0.000461054              -0.000785831               0.999999984               0.000392623              -0.000674278               0.999999984               0.000368304              -0.000648324               0.999999984               0.000362903              -0.000654755               0.999999984               0.000364923              -0.000674812               0.999999984               0.000369064              -0.000699998               0.999999984               0.000372691              -0.000725691               0.999999984               0.000373960              -0.000749550               0.999999984               0.000371850              -0.000770440               0.999999984               0.000365988              -0.000787811               0.999999984               0.000356468              -0.000801911               0.999999984               0.000343402              -0.000812803               0.999999984               0.000326896              -0.000820206               0.999999984               0.000307317              -0.000823881               0.999999984               0.000285367              -0.000824613               0.999999984               0.000262008              -0.000823670               0.999999984               0.000237894              -0.000821852               0.999999984               0.000419207              -0.000874997               0.999999984               0.000331946              -0.000764684               0.999999984               0.000308498              -0.000740911               0.999999984               0.000305891              -0.000750295               0.999999984               0.000310049              -0.000773521               0.999999984               0.000315148              -0.000801391               0.999999984               0.000317965              -0.000829275               0.999999984               0.000316591              -0.000854691               0.999999984               0.000310251              -0.000876755               0.999999984               0.000299023              -0.000895172               0.999999984               0.000283244              -0.000910174               0.999999984               0.000263087              -0.000921696               0.999999984               0.000238956              -0.000929648               0.999999984               0.000211843              -0.000934583               0.999999984               0.000183010              -0.000937778               0.999999984               0.000153493              -0.000940203               0.999999984               0.000123695              -0.000942254               0.999999984               0.000376209              -0.000959124               0.999999984               0.000281732              -0.000863955               0.999999984               0.000255150              -0.000835434               0.999999984               0.000251335              -0.000838761               0.999999984               0.000255082              -0.000857029               0.999999984               0.000260523              -0.000881968               0.999999984               0.000264400              -0.000908642               0.999999984               0.000264622              -0.000934512               0.999999984               0.000260282              -0.000958230               0.999999984               0.000251294              -0.000979280               0.999999984               0.000237809              -0.000997461               0.999999984               0.000220069              -0.001012839               0.999999984               0.000197984              -0.001025503               0.999999984               0.000171910              -0.001035558               0.999999984               0.000143135              -0.001043567               0.999999984               0.000112663              -0.001050377               0.999999984               0.000081843              -0.001056690               0.999999984               0.000329052              -0.001035617               0.999999984               0.000234361              -0.000959579               0.999999984               0.000204836              -0.000931866               0.999999984               0.000198960              -0.000931299               0.999999984               0.000201645              -0.000945588               0.999999984               0.000206674              -0.000967818               0.999999984               0.000210804              -0.000993470               0.999999984               0.000212107              -0.001019842               0.999999984               0.000209329              -0.001045207               0.999999984               0.000202470              -0.001068786               0.999999984               0.000191247              -0.001090061               0.999999984               0.000175719              -0.001109016               0.999999984               0.000155751              -0.001125644               0.999999984               0.000131172              -0.001140096               0.999999984               0.000102538              -0.001152600               0.999999984               0.000070972              -0.001163745               0.999999984               0.000037911              -0.001174214               0.999999984               0.000278915              -0.001102513               0.999999984               0.000189881              -0.001048742               0.999999984               0.000158996              -0.001025900               0.999999984               0.000150922              -0.001024295               0.999999984               0.000151957              -0.001036276               0.999999984               0.000155905              -0.001056478               0.999999984               0.000159597              -0.001081260               0.999999984               0.000161323              -0.001108186               0.999999984               0.000159888              -0.001135301               0.999999984               0.000154886              -0.001161510               0.999999984               0.000145787              -0.001186139               0.999999984               0.000132364              -0.001208978               0.999999984               0.000114453              -0.001229806               0.999999984               0.000091653              -0.001248657               0.999999984               0.000063857              -0.001265572               0.999999984               0.000031550              -0.001280913               0.999999984              -0.000004291              -0.001295329               0.999999984               0.000226249              -0.001158697               0.999999984               0.000148259              -0.001127874               0.999999984               0.000118382              -0.001112867               0.999999984               0.000108769              -0.001112940               0.999999984               0.000108066              -0.001124404               0.999999984               0.000110578              -0.001143721               0.999999984               0.000113316              -0.001168149               0.999999984               0.000114969              -0.001195592               0.999999984               0.000114435              -0.001224443               0.999999984               0.000110979              -0.001253435               0.999999984               0.000103941              -0.001281663               0.999999984               0.000092840              -0.001308688               0.999999984               0.000077262              -0.001334165               0.999999984               0.000056737              -0.001357928               0.999999984               0.000030817              -0.001379810               0.999999984              -0.000001094              -0.001400032               0.999999984              -0.000038971              -0.001418973               0.999999984               0.000171504              -0.001203272               0.999999984               0.000109135              -0.001193451               0.999999984               0.000083091              -0.001187611               0.999999984               0.000073337              -0.001191410               0.999999984               0.000071262              -0.001204023               0.999999984               0.000072427              -0.001223584               0.999999984               0.000074244              -0.001248286               0.999999984               0.000075425              -0.001276422               0.999999984               0.000075242              -0.001306751               0.999999984               0.000073043              -0.001338230               0.999999984               0.000067927              -0.001369956               0.999999984               0.000059369              -0.001401254               0.999999984               0.000046790              -0.001431629               0.999999984               0.000029657              -0.001460656               0.999999984               0.000007075              -0.001488121               0.999999984              -0.000022039              -0.001513909               0.999999984              -0.000058692              -0.001538009               0.999999984               0.000115221              -0.001235523               0.999999984               0.000071810              -0.001242556               0.999999984               0.000052465              -0.001245349               0.999999984               0.000044520              -0.001253325               0.999999984               0.000042096              -0.001267951               0.999999984               0.000042272              -0.001288585               0.999999984               0.000043266              -0.001314132               0.999999984               0.000043986              -0.001343220               0.999999984               0.000043871              -0.001374919               0.999999984               0.000042379              -0.001408458               0.999999984               0.000039030              -0.001443082               0.999999984               0.000033147              -0.001478052               0.999999984               0.000024318              -0.001512806               0.999999984               0.000011916              -0.001546848               0.999999984              -0.000005062              -0.001579774               0.999999984              -0.000027577              -0.001611090               0.999999984              -0.000057422              -0.001640496               0.999999984               0.000057886              -0.001255151               0.999999984               0.000035598              -0.001272958               0.999999984               0.000025316              -0.001281859               0.999999984               0.000020846              -0.001293213               0.999999984               0.000019240              -0.001309676               0.999999984               0.000019074              -0.001331334               0.999999984               0.000019454              -0.001357713               0.999999984               0.000019799              -0.001387764               0.999999984               0.000019723              -0.001420601               0.999999984               0.000018852              -0.001455593               0.999999984               0.000017105              -0.001492107               0.999999984               0.000014203              -0.001529481               0.999999984               0.000009619              -0.001567219               0.999999984               0.000003027              -0.001604742               0.999999984              -0.000005994              -0.001641558               0.999999984              -0.000018348              -0.001677056               0.999999984              -0.000035309              -0.001710659               0.999999984              -0.000000000              -0.001261828               0.999999984              -0.000000000              -0.001283262               0.999999984               0.000000000              -0.001294236               0.999999984              -0.000000000              -0.001306911               0.999999984               0.000000000              -0.001324216               0.999999984               0.000000000              -0.001346350               0.999999984               0.000000000              -0.001373007               0.999999984              -0.000000000              -0.001403431               0.999999984               0.000000000              -0.001436823               0.999999984               0.000000000              -0.001472299               0.999999984               0.000000000              -0.001509380               0.999999984               0.000000000              -0.001547589               0.999999984               0.000000000              -0.001586398               0.999999984               0.000000000              -0.001625097               0.999999984               0.000000000              -0.001663258               0.999999984              -0.000000000              -0.001700354               0.999999984              -0.000000000              -0.001735530               0.999999984               0.000615815              -0.000000000               0.999999984               0.000662857               0.000000000               0.999999984               0.000683463               0.000000000               0.999999984               0.000695001               0.000000000               0.999999984               0.000703999               0.000000000               0.999999984               0.000712982              -0.000000000               0.999999984               0.000722855              -0.000000000               0.999999984               0.000733832              -0.000000000               0.999999984               0.000745932              -0.000000000               0.999999984               0.000759066               0.000000000               0.999999984               0.000773045              -0.000000000               0.999999984               0.000787703              -0.000000000               0.999999984               0.000802551              -0.000000000               0.999999984               0.000817308              -0.000000000               0.999999984               0.000831648               0.000000000               0.999999984               0.000845055              -0.000000000               0.999999984               0.000856962               0.000000000               0.999999984               0.000612466               0.000121313               0.999999984               0.000656099               0.000099631               0.999999984               0.000674465               0.000090514               0.999999984               0.000684574               0.000087883               0.999999984               0.000692663               0.000088655               0.999999984               0.000701103               0.000091256               0.999999984               0.000710611               0.000094595               0.999999984               0.000721267               0.000098035               0.999999984               0.000732894               0.000101367               0.999999984               0.000745327               0.000104376               0.999999984               0.000758380               0.000106819               0.999999984               0.000771844               0.000108491               0.999999984               0.000785436               0.000108950               0.999999984               0.000798869               0.000107891               0.999999984               0.000811792               0.000104802               0.999999984               0.000823786               0.000098968               0.999999984               0.000834337               0.000089378               0.999999984               0.000602307               0.000241494               0.999999984               0.000636021               0.000198625               0.999999984               0.000648394               0.000181473               0.999999984               0.000654961               0.000177083               0.999999984               0.000660807               0.000179283               0.999999984               0.000667647               0.000184942               0.999999984               0.000675820               0.000191921               0.999999984               0.000685162               0.000199170               0.999999984               0.000695333               0.000206018               0.999999984               0.000706021               0.000212149               0.999999984               0.000716844               0.000217094               0.999999984               0.000727619               0.000220544               0.999999984               0.000738040               0.000221893               0.999999984               0.000747779               0.000220540               0.999999984               0.000756726               0.000215882               0.999999984               0.000764660               0.000206853               0.999999984               0.000771428               0.000192146               0.999999984               0.000585539               0.000359378               0.999999984               0.000603715               0.000296550               0.999999984               0.000607507               0.000273220               0.999999984               0.000609301               0.000268533               0.999999984               0.000612390               0.000273210               0.999999984               0.000617410               0.000282586               0.999999984               0.000624013               0.000293742               0.999999984               0.000631669               0.000305024               0.999999984               0.000639878               0.000315588               0.999999984               0.000648135               0.000324765               0.999999984               0.000656046               0.000332103               0.999999984               0.000663310               0.000337315               0.999999984               0.000669595               0.000339717               0.999999984               0.000674770               0.000338830               0.999999984               0.000678795               0.000334132               0.999999984               0.000681524               0.000324770               0.999999984               0.000683053               0.000309947               0.999999984               0.000562583               0.000473862               0.999999984               0.000560862               0.000393133               0.999999984               0.000555012               0.000365952               0.999999984               0.000552300               0.000362654               0.999999984               0.000553330               0.000370801               0.999999984               0.000557030               0.000384424               0.999999984               0.000562413               0.000399902               0.999999984               0.000568444               0.000415200               0.999999984               0.000574393               0.000429305               0.999999984               0.000579659               0.000441310               0.999999984               0.000583953               0.000451036               0.999999984               0.000587057               0.000457967               0.999999984               0.000588819               0.000461577               0.999999984               0.000588996               0.000461634               0.999999984               0.000587545               0.000457796               0.999999984               0.000584487               0.000449634               0.999999984               0.000579963               0.000436831               0.999999984               0.000533760               0.000583880               0.999999984               0.000509553               0.000488342               0.999999984               0.000495020               0.000459682               0.999999984               0.000489307               0.000459157               0.999999984               0.000489361               0.000471457               0.999999984               0.000492602               0.000489381               0.999999984               0.000497114               0.000508874               0.999999984               0.000501575               0.000527734               0.999999984               0.000505190               0.000544722               0.999999984               0.000507340               0.000559091               0.999999984               0.000507803               0.000570691               0.999999984               0.000506329               0.000579248               0.999999984               0.000502833               0.000584266               0.999999984               0.000497208               0.000585571               0.999999984               0.000489490               0.000582992               0.999999984               0.000479827               0.000576642               0.999999984               0.000468610               0.000567047               0.999999984               0.000499690               0.000688232               0.999999984               0.000452536               0.000582112               0.999999984               0.000431580               0.000554107               0.999999984               0.000424875               0.000557100               0.999999984               0.000425407               0.000573436               0.999999984               0.000428909               0.000595256               0.999999984               0.000432894               0.000618190               0.999999984               0.000435859               0.000639949               0.999999984               0.000436890               0.000659253               0.999999984               0.000435524               0.000675357               0.999999984               0.000431412               0.000688383               0.999999984               0.000424528               0.000698222               0.999999984               0.000414919               0.000704604               0.999999984               0.000402626               0.000707201               0.999999984               0.000387834               0.000706165               0.999999984               0.000371131               0.000702267               0.999999984               0.000353251               0.000696385               0.999999984               0.000461054               0.000785831               0.999999984               0.000392623               0.000674278               0.999999984               0.000368304               0.000648324               0.999999984               0.000362903               0.000654755               0.999999984               0.000364923               0.000674812               0.999999984               0.000369064               0.000699998               0.999999984               0.000372691               0.000725691               0.999999984               0.000373960               0.000749550               0.999999984               0.000371850               0.000770440               0.999999984               0.000365988               0.000787811               0.999999984               0.000356468               0.000801911               0.999999984               0.000343402               0.000812803               0.999999984               0.000326896               0.000820206               0.999999984               0.000307317               0.000823881               0.999999984               0.000285367               0.000824613               0.999999984               0.000262008               0.000823670               0.999999984               0.000237894               0.000821852               0.999999984               0.000419207               0.000874997               0.999999984               0.000331946               0.000764684               0.999999984               0.000308498               0.000740911               0.999999984               0.000305891               0.000750295               0.999999984               0.000310049               0.000773521               0.999999984               0.000315148               0.000801391               0.999999984               0.000317965               0.000829275               0.999999984               0.000316591               0.000854691               0.999999984               0.000310251               0.000876755               0.999999984               0.000299023               0.000895172               0.999999984               0.000283244               0.000910174               0.999999984               0.000263087               0.000921696               0.999999984               0.000238956               0.000929648               0.999999984               0.000211843               0.000934583               0.999999984               0.000183010               0.000937778               0.999999984               0.000153493               0.000940203               0.999999984               0.000123695               0.000942254               0.999999984               0.000376209               0.000959124               0.999999984               0.000281732               0.000863955               0.999999984               0.000255150               0.000835434               0.999999984               0.000251335               0.000838761               0.999999984               0.000255082               0.000857029               0.999999984               0.000260523               0.000881968               0.999999984               0.000264400               0.000908642               0.999999984               0.000264622               0.000934512               0.999999984               0.000260282               0.000958230               0.999999984               0.000251294               0.000979280               0.999999984               0.000237809               0.000997461               0.999999984               0.000220069               0.001012839               0.999999984               0.000197984               0.001025503               0.999999984               0.000171910               0.001035558               0.999999984               0.000143135               0.001043567               0.999999984               0.000112663               0.001050377               0.999999984               0.000081843               0.001056690               0.999999984               0.000329052               0.001035617               0.999999984               0.000234361               0.000959579               0.999999984               0.000204836               0.000931866               0.999999984               0.000198960               0.000931299               0.999999984               0.000201645               0.000945588               0.999999984               0.000206674               0.000967818               0.999999984               0.000210804               0.000993470               0.999999984               0.000212107               0.001019842               0.999999984               0.000209329               0.001045207               0.999999984               0.000202470               0.001068786               0.999999984               0.000191247               0.001090061               0.999999984               0.000175719               0.001109016               0.999999984               0.000155751               0.001125644               0.999999984               0.000131172               0.001140096               0.999999984               0.000102538               0.001152600               0.999999984               0.000070972               0.001163745               0.999999984               0.000037911               0.001174214               0.999999984               0.000278915               0.001102513               0.999999984               0.000189881               0.001048742               0.999999984               0.000158996               0.001025900               0.999999984               0.000150922               0.001024295               0.999999984               0.000151957               0.001036276               0.999999984               0.000155905               0.001056478               0.999999984               0.000159597               0.001081260               0.999999984               0.000161323               0.001108186               0.999999984               0.000159888               0.001135301               0.999999984               0.000154886               0.001161510               0.999999984               0.000145787               0.001186139               0.999999984               0.000132364               0.001208978               0.999999984               0.000114453               0.001229806               0.999999984               0.000091653               0.001248657               0.999999984               0.000063857               0.001265572               0.999999984               0.000031550               0.001280913               0.999999984              -0.000004291               0.001295329               0.999999984               0.000226249               0.001158697               0.999999984               0.000148259               0.001127874               0.999999984               0.000118382               0.001112867               0.999999984               0.000108769               0.001112940               0.999999984               0.000108066               0.001124404               0.999999984               0.000110578               0.001143721               0.999999984               0.000113316               0.001168149               0.999999984               0.000114969               0.001195592               0.999999984               0.000114435               0.001224443               0.999999984               0.000110979               0.001253435               0.999999984               0.000103941               0.001281663               0.999999984               0.000092840               0.001308688               0.999999984               0.000077262               0.001334165               0.999999984               0.000056737               0.001357928               0.999999984               0.000030817               0.001379810               0.999999984              -0.000001094               0.001400032               0.999999984              -0.000038971               0.001418973               0.999999984               0.000171504               0.001203272               0.999999984               0.000109135               0.001193451               0.999999984               0.000083091               0.001187611               0.999999984               0.000073337               0.001191410               0.999999984               0.000071262               0.001204023               0.999999984               0.000072427               0.001223584               0.999999984               0.000074244               0.001248286               0.999999984               0.000075425               0.001276422               0.999999984               0.000075242               0.001306751               0.999999984               0.000073043               0.001338230               0.999999984               0.000067927               0.001369956               0.999999984               0.000059369               0.001401254               0.999999984               0.000046790               0.001431629               0.999999984               0.000029657               0.001460656               0.999999984               0.000007075               0.001488121               0.999999984              -0.000022039               0.001513909               0.999999984              -0.000058692               0.001538009               0.999999984               0.000115221               0.001235523               0.999999984               0.000071810               0.001242556               0.999999984               0.000052465               0.001245349               0.999999984               0.000044520               0.001253325               0.999999984               0.000042096               0.001267951               0.999999984               0.000042272               0.001288585               0.999999984               0.000043266               0.001314132               0.999999984               0.000043986               0.001343220               0.999999984               0.000043871               0.001374919               0.999999984               0.000042379               0.001408458               0.999999984               0.000039030               0.001443082               0.999999984               0.000033147               0.001478052               0.999999984               0.000024318               0.001512806               0.999999984               0.000011916               0.001546848               0.999999984              -0.000005062               0.001579774               0.999999984              -0.000027577               0.001611090               0.999999984              -0.000057422               0.001640496               0.999999984               0.000057886               0.001255151               0.999999984               0.000035598               0.001272958               0.999999984               0.000025316               0.001281859               0.999999984               0.000020846               0.001293213               0.999999984               0.000019240               0.001309676               0.999999984               0.000019074               0.001331334               0.999999984               0.000019454               0.001357713               0.999999984               0.000019799               0.001387764               0.999999984               0.000019723               0.001420601               0.999999984               0.000018852               0.001455593               0.999999984               0.000017105               0.001492107               0.999999984               0.000014203               0.001529481               0.999999984               0.000009619               0.001567219               0.999999984               0.000003027               0.001604742               0.999999984              -0.000005994               0.001641558               0.999999984              -0.000018348               0.001677056               0.999999984              -0.000035309               0.001710659               0.999999984               0.000000000               0.001261828               0.999999984              -0.000000000               0.001283262               0.999999984               0.000000000               0.001294236               0.999999984               0.000000000               0.001306911               0.999999984              -0.000000000               0.001324216               0.999999984              -0.000000000               0.001346350               0.999999984               0.000000000               0.001373007               0.999999984               0.000000000               0.001403431               0.999999984              -0.000000000               0.001436823               0.999999984              -0.000000000               0.001472299               0.999999984              -0.000000000               0.001509380               0.999999984               0.000000000               0.001547589               0.999999984              -0.000000000               0.001586398               0.999999984              -0.000000000               0.001625097               0.999999984               0.000000000               0.001663258               0.999999984              -0.000000000               0.001700354               0.999999984               0.000000000               0.001735530               0.999999984 </DataArray>
<DataArray type="Float64"                                    Name="stress"                                                      NumberOfComponents="10" format="ascii">
              0.002048673               0.022229938              -0.000000000              -0.002010485               0.008080067               0.006069582               0.000000000               0.000000000               0.000000000               0.000000000               0.002051388               0.017453355              -0.000000000              -0.001412395               0.006288525               0.004876130               0.000000000               0.000000000               0.000000000               0.000000000               0.002707582               0.013588101               0.000000000              -0.000683168               0.004757044               0.004073877               0.000000000               0.000000000               0.000000000               0.000000000               0.002614906               0.011431752               0.000000000              -0.000448378               0.003960005               0.003511627               0.000000000               0.000000000               0.000000000               0.000000000               0.002296969               0.010097877              -0.000000000              -0.000400870               0.003499549               0.003098678               0.000000000               0.000000000               0.000000000               0.000000000               0.001935499               0.009193057              -0.000000000              -0.000423319               0.003205428               0.002782109               0.000000000               0.000000000               0.000000000               0.000000000               0.001592872               0.008516035               0.000000000              -0.000467176               0.002994375               0.002527199               0.000000000               0.000000000               0.000000000               0.000000000               0.001284589               0.007963725               0.000000000              -0.000513744               0.002825796               0.002312053               0.000000000               0.000000000               0.000000000               0.000000000               0.001010548               0.007488579               0.000000000              -0.000557115               0.002681873               0.002124758               0.000000000               0.000000000               0.000000000               0.000000000               0.000768977               0.007060872              -0.000000000              -0.000594241               0.002551681               0.001957440               0.000000000               0.000000000               0.000000000               0.000000000               0.000556082               0.006657542               0.000000000              -0.000623661               0.002427045               0.001803385               0.000000000               0.000000000               0.000000000               0.000000000               0.000381233               0.006264639              -0.000000000              -0.000640116               0.002301564               0.001661448               0.000000000               0.000000000               0.000000000               0.000000000               0.000243566               0.005862076              -0.000000000              -0.000641421               0.002167813               0.001526392               0.000000000               0.000000000               0.000000000               0.000000000               0.000132494               0.005432028               0.000000000              -0.000629317               0.002020430               0.001391114               0.000000000               0.000000000               0.000000000               0.000000000               0.000054549               0.004958486               0.000000000              -0.000599353               0.001852596               0.001253243               0.000000000               0.000000000               0.000000000               0.000000000               0.000014667               0.004418895              -0.000000000              -0.000546860               0.001655237               0.001108377               0.000000000               0.000000000               0.000000000               0.000000000              -0.000039925               0.004002689              -0.000000000              -0.000515307               0.001505985               0.000990678               0.000000000               0.000000000               0.000000000               0.000000000               0.002128741               0.021783975              -0.001526171              -0.001924714               0.007902824               0.005978109               0.000000000               0.000000000               0.000000000               0.000000000               0.002021447               0.017162869              -0.000771837              -0.001387313               0.006183337               0.004796024               0.000000000               0.000000000               0.000000000               0.000000000               0.002560858               0.013466800              -0.000017782              -0.000723026               0.004729897               0.004006871               0.000000000               0.000000000               0.000000000               0.000000000               0.002420624               0.011397374               0.000302450              -0.000516936               0.003971399               0.003454462               0.000000000               0.000000000               0.000000000               0.000000000               0.002087588               0.010107519               0.000433514              -0.000480593               0.003529337               0.003048744               0.000000000               0.000000000               0.000000000               0.000000000               0.001726991               0.009224290               0.000474765              -0.000505413               0.003243204               0.002737790               0.000000000               0.000000000               0.000000000               0.000000000               0.001395991               0.008558960               0.000471749              -0.000546372               0.003035082               0.002488710               0.000000000               0.000000000               0.000000000               0.000000000               0.001110076               0.008018434               0.000452919              -0.000586024               0.002868126               0.002282102               0.000000000               0.000000000               0.000000000               0.000000000               0.000864671               0.007551401               0.000432014              -0.000619672               0.002723666               0.002103994               0.000000000               0.000000000               0.000000000               0.000000000               0.000652787               0.007129118               0.000410998              -0.000646343               0.002591797               0.001945453               0.000000000               0.000000000               0.000000000               0.000000000               0.000468422               0.006730060               0.000390621              -0.000665598               0.002465197               0.001799599               0.000000000               0.000000000               0.000000000               0.000000000               0.000314282               0.006341546               0.000366003              -0.000674836               0.002338773               0.001663937               0.000000000               0.000000000               0.000000000               0.000000000               0.000191820               0.005949335               0.000332682              -0.000671733               0.002207003               0.001535270               0.000000000               0.000000000               0.000000000               0.000000000               0.000096085               0.005539370               0.000288756              -0.000656388               0.002065234               0.001408846               0.000000000               0.000000000               0.000000000               0.000000000               0.000031403               0.005101544               0.000224650              -0.000625916               0.001909136               0.001283221               0.000000000               0.000000000               0.000000000               0.000000000               0.000002881               0.004620672               0.000128354              -0.000576502               0.001732376               0.001155874               0.000000000               0.000000000               0.000000000               0.000000000              -0.000039612               0.004260601               0.000077344              -0.000547428               0.001602662               0.001055234               0.000000000               0.000000000               0.000000000               0.000000000               0.002322272               0.020502712              -0.002838436              -0.001691984               0.007398163               0.005706179               0.000000000               0.000000000               0.000000000               0.000000000               0.001907705               0.016335952              -0.001435705              -0.001326602               0.005887463               0.004560862               0.000000000               0.000000000               0.000000000               0.000000000               0.002120570               0.013116801              -0.000049655              -0.000844384               0.004653685               0.003809300               0.000000000               0.000000000               0.000000000               0.000000000               0.001863267               0.011288570               0.000518887              -0.000712345               0.004000267               0.003287923               0.000000000               0.000000000               0.000000000               0.000000000               0.001513145               0.010123470               0.000744553              -0.000698003               0.003607124               0.002909121               0.000000000               0.000000000               0.000000000               0.000000000               0.001179230               0.009303571               0.000812620              -0.000720733               0.003341404               0.002620670               0.000000000               0.000000000               0.000000000               0.000000000               0.000895118               0.008673285               0.000806781              -0.000748490               0.003140562               0.002392073               0.000000000               0.000000000               0.000000000               0.000000000               0.000664706               0.008153145               0.000773123              -0.000769877               0.002974313               0.002204437               0.000000000               0.000000000               0.000000000               0.000000000               0.000479974               0.007697458               0.000731873              -0.000782190               0.002826524               0.002044334               0.000000000               0.000000000               0.000000000               0.000000000               0.000333239               0.007279269               0.000689036              -0.000784942               0.002688046               0.001903104               0.000000000               0.000000000               0.000000000               0.000000000               0.000214045               0.006883622               0.000645783              -0.000780184               0.002554579               0.001774395               0.000000000               0.000000000               0.000000000               0.000000000               0.000119441               0.006503568               0.000596666              -0.000768154               0.002423886               0.001655732               0.000000000               0.000000000               0.000000000               0.000000000               0.000054118               0.006134214               0.000534717              -0.000746481               0.002293544               0.001547064               0.000000000               0.000000000               0.000000000               0.000000000               0.000008735               0.005768949               0.000456973              -0.000717841               0.002162244               0.001444403               0.000000000               0.000000000               0.000000000               0.000000000              -0.000016464               0.005407318               0.000349882              -0.000682087               0.002029784               0.001347697               0.000000000               0.000000000               0.000000000               0.000000000              -0.000017057               0.005050607               0.000196911              -0.000637721               0.001896092               0.001258372               0.000000000               0.000000000               0.000000000               0.000000000              -0.000036001               0.004808741               0.000116572              -0.000614591               0.001807761               0.001193170               0.000000000               0.000000000               0.000000000               0.000000000               0.002522015               0.018550731              -0.003784396              -0.001373085               0.006641209               0.005268125               0.000000000               0.000000000               0.000000000               0.000000000               0.001678014               0.015095186              -0.001922821              -0.001257641               0.005450891               0.004193251               0.000000000               0.000000000               0.000000000               0.000000000               0.001437481               0.012591230              -0.000108139              -0.001034846               0.004541983               0.003507138               0.000000000               0.000000000               0.000000000               0.000000000               0.001047211               0.011108397               0.000597376              -0.000995843               0.004034710               0.003038867               0.000000000               0.000000000               0.000000000               0.000000000               0.000703379               0.010113484               0.000860767              -0.001000416               0.003704600               0.002704183               0.000000000               0.000000000               0.000000000               0.000000000               0.000433857               0.009376382               0.000931994              -0.001009349               0.003461879               0.002452530               0.000000000               0.000000000               0.000000000               0.000000000               0.000235784               0.008785599               0.000915456              -0.001009779               0.003265097               0.002255318               0.000000000               0.000000000               0.000000000               0.000000000               0.000092586               0.008280292               0.000868206              -0.001000314               0.003093508               0.002093193               0.000000000               0.000000000               0.000000000               0.000000000              -0.000007615               0.007828896               0.000812518              -0.000981466               0.002936761               0.001955296               0.000000000               0.000000000               0.000000000               0.000000000              -0.000075736               0.007408614               0.000756430              -0.000954476               0.002787672               0.001833196               0.000000000               0.000000000               0.000000000               0.000000000              -0.000119037               0.007016234               0.000701068              -0.000921666               0.002645943               0.001724277               0.000000000               0.000000000               0.000000000               0.000000000              -0.000139046               0.006645673               0.000637897              -0.000882850               0.002509485               0.001626636               0.000000000               0.000000000               0.000000000               0.000000000              -0.000136239               0.006296969               0.000560167              -0.000838209               0.002378371               0.001540163               0.000000000               0.000000000               0.000000000               0.000000000              -0.000120865               0.005972828               0.000466847              -0.000791926               0.002254898               0.001462972               0.000000000               0.000000000               0.000000000               0.000000000              -0.000091293               0.005679126               0.000347014              -0.000744124               0.002141064               0.001396940               0.000000000               0.000000000               0.000000000               0.000000000              -0.000047597               0.005426905               0.000189913              -0.000696210               0.002041021               0.001344810               0.000000000               0.000000000               0.000000000               0.000000000              -0.000039943               0.005277172               0.000110590              -0.000674623               0.001983914               0.001309291               0.000000000               0.000000000               0.000000000               0.000000000               0.002597504               0.016161216              -0.004280709              -0.001046089               0.005735714               0.004689625               0.000000000               0.000000000               0.000000000               0.000000000               0.001307425               0.013606480              -0.002208334              -0.001210524               0.004938956               0.003728432               0.000000000               0.000000000               0.000000000               0.000000000               0.000595208               0.011960919              -0.000221009              -0.001271909               0.004410903               0.003138994               0.000000000               0.000000000               0.000000000               0.000000000               0.000112355               0.010860579               0.000501451              -0.001315436               0.004058636               0.002743199               0.000000000               0.000000000               0.000000000               0.000000000              -0.000177806               0.010042072               0.000756230              -0.001321933               0.003787968               0.002466035               0.000000000               0.000000000               0.000000000               0.000000000              -0.000342883               0.009379463               0.000819721              -0.001301011               0.003560127               0.002259116               0.000000000               0.000000000               0.000000000               0.000000000              -0.000428618               0.008811548               0.000799821              -0.001262172               0.003357877               0.002095705               0.000000000               0.000000000               0.000000000               0.000000000              -0.000460931               0.008309142               0.000752089              -0.001211489               0.003173516               0.001962027               0.000000000               0.000000000               0.000000000               0.000000000              -0.000459040               0.007850632               0.000696038              -0.001153466               0.003001340               0.001847874               0.000000000               0.000000000               0.000000000               0.000000000              -0.000437797               0.007426690               0.000641622              -0.001092508               0.002839708               0.001747200               0.000000000               0.000000000               0.000000000               0.000000000              -0.000405772               0.007036861               0.000588673              -0.001031770               0.002689520               0.001657750               0.000000000               0.000000000               0.000000000               0.000000000              -0.000363552               0.006677800               0.000525391              -0.000971055               0.002549596               0.001578541               0.000000000               0.000000000               0.000000000               0.000000000              -0.000305169               0.006352596               0.000450635              -0.000908511               0.002420348               0.001511837               0.000000000               0.000000000               0.000000000               0.000000000              -0.000233971               0.006063715               0.000365217              -0.000845701               0.002303119               0.001457417               0.000000000               0.000000000               0.000000000               0.000000000              -0.000157471               0.005814531               0.000262457              -0.000785866               0.002200113               0.001414247               0.000000000               0.000000000               0.000000000               0.000000000              -0.000077892               0.005619940               0.000138035              -0.000731700               0.002117195               0.001385494               0.000000000               0.000000000               0.000000000               0.000000000              -0.000051213               0.005516690               0.000078472              -0.000708789               0.002075141               0.001366352               0.000000000               0.000000000               0.000000000               0.000000000               0.002434597               0.013571573              -0.004331113              -0.000783475               0.004784969               0.004001495               0.000000000               0.000000000               0.000000000               0.000000000               0.000788214               0.012029161              -0.002319199              -0.001208063               0.004412368               0.003204304               0.000000000               0.000000000               0.000000000               0.000000000              -0.000309907               0.011282620              -0.000413668              -0.001526539               0.004269682               0.002743143               0.000000000               0.000000000               0.000000000               0.000000000              -0.000795032               0.010539929               0.000241900              -0.001615624               0.004051816               0.002436192               0.000000000               0.000000000               0.000000000               0.000000000              -0.000980012               0.009864788               0.000469931              -0.001600599               0.003821763               0.002221164               0.000000000               0.000000000               0.000000000               0.000000000              -0.001014341               0.009253995               0.000531630              -0.001537123               0.003597008               0.002059885               0.000000000               0.000000000               0.000000000               0.000000000              -0.000972129               0.008698510               0.000524082              -0.001451859               0.003383427               0.001931569               0.000000000               0.000000000               0.000000000               0.000000000              -0.000891816               0.008192127               0.000491440              -0.001358443               0.003183496               0.001825053               0.000000000               0.000000000               0.000000000               0.000000000              -0.000793961               0.007725141               0.000451026              -0.001263375               0.002996146               0.001732771               0.000000000               0.000000000               0.000000000               0.000000000              -0.000690333               0.007297147               0.000414143              -0.001171015               0.002822697               0.001651681               0.000000000               0.000000000               0.000000000               0.000000000              -0.000588843               0.006909834               0.000382280              -0.001084543               0.002664769               0.001580227               0.000000000               0.000000000               0.000000000               0.000000000              -0.000487445               0.006566108               0.000341218              -0.001003553               0.002523198               0.001519645               0.000000000               0.000000000               0.000000000               0.000000000              -0.000382071               0.006266641               0.000287631              -0.000926605               0.002397728               0.001471123               0.000000000               0.000000000               0.000000000               0.000000000              -0.000273383               0.006006876               0.000224616              -0.000853376               0.002286730               0.001433355               0.000000000               0.000000000               0.000000000               0.000000000              -0.000170294               0.005790563               0.000153853              -0.000787679               0.002192728               0.001405049               0.000000000               0.000000000               0.000000000               0.000000000              -0.000079041               0.005633361               0.000078543              -0.000733809               0.002122371               0.001388562               0.000000000               0.000000000               0.000000000               0.000000000              -0.000047853               0.005557019               0.000046455              -0.000712571               0.002089845               0.001377274               0.000000000               0.000000000               0.000000000               0.000000000               0.001974284               0.011003102              -0.004008398              -0.000635034               0.003879341               0.003244307               0.000000000               0.000000000               0.000000000               0.000000000               0.000154090               0.010491641              -0.002305112              -0.001253670               0.003915068               0.002661398               0.000000000               0.000000000               0.000000000               0.000000000              -0.001174233               0.010576141              -0.000687312              -0.001762351               0.004112795               0.002350445               0.000000000               0.000000000               0.000000000               0.000000000              -0.001566554               0.010123459              -0.000139803              -0.001852885               0.003992081               0.002139196               0.000000000               0.000000000               0.000000000               0.000000000              -0.001603435               0.009559931               0.000068170              -0.001796275               0.003785370               0.001989095               0.000000000               0.000000000               0.000000000               0.000000000              -0.001498012               0.008991212               0.000145937              -0.001685652               0.003558925               0.001873273               0.000000000               0.000000000               0.000000000               0.000000000              -0.001331319               0.008447777               0.000165578              -0.001555213               0.003334302               0.001779089               0.000000000               0.000000000               0.000000000               0.000000000              -0.001143758               0.007941609               0.000164574              -0.001421607               0.003121046               0.001699439               0.000000000               0.000000000               0.000000000               0.000000000              -0.000962324               0.007474445               0.000157208              -0.001295174               0.002923182               0.001628008               0.000000000               0.000000000               0.000000000               0.000000000              -0.000793224               0.007051571               0.000155649              -0.001178902               0.002743468               0.001564565               0.000000000               0.000000000               0.000000000               0.000000000              -0.000636333               0.006677352               0.000159968              -0.001073291               0.002583526               0.001510234               0.000000000               0.000000000               0.000000000               0.000000000              -0.000491888               0.006350302               0.000154600              -0.000978243               0.002442827               0.001464584               0.000000000               0.000000000               0.000000000               0.000000000              -0.000356361               0.006068021               0.000131986              -0.000892136               0.002320032               0.001427896               0.000000000               0.000000000               0.000000000               0.000000000              -0.000230366               0.005827867               0.000097715              -0.000814869               0.002214226               0.001399357               0.000000000               0.000000000               0.000000000               0.000000000              -0.000125470               0.005639396               0.000062762              -0.000751974               0.002130438               0.001378464               0.000000000               0.000000000               0.000000000               0.000000000              -0.000050838               0.005511949               0.000030698              -0.000708056               0.002073317               0.001365261               0.000000000               0.000000000               0.000000000               0.000000000              -0.000028935               0.005452738               0.000019714              -0.000692441               0.002048375               0.001355934               0.000000000               0.000000000               0.000000000               0.000000000               0.001239021               0.008627094              -0.003408746              -0.000613756               0.003080253               0.002466498               0.000000000               0.000000000               0.000000000               0.000000000              -0.000556248               0.009078590              -0.002212540              -0.001343415               0.003473971               0.002130556               0.000000000               0.000000000               0.000000000               0.000000000              -0.001913571               0.009833203              -0.001030510              -0.001946735               0.003926613               0.001979878               0.000000000               0.000000000               0.000000000               0.000000000              -0.002128296               0.009605106              -0.000583070              -0.001998744               0.003867918               0.001869174               0.000000000               0.000000000               0.000000000               0.000000000              -0.001995958               0.009141404              -0.000371274              -0.001891155               0.003677489               0.001786334               0.000000000               0.000000000               0.000000000               0.000000000              -0.001760310               0.008613886              -0.000262640              -0.001736848               0.003450216               0.001713368               0.000000000               0.000000000               0.000000000               0.000000000              -0.001492771               0.008088369              -0.000201488              -0.001570831               0.003219706               0.001648875               0.000000000               0.000000000               0.000000000               0.000000000              -0.001221827               0.007592616              -0.000154609              -0.001407258               0.002999933               0.001592674               0.000000000               0.000000000               0.000000000               0.000000000              -0.000973487               0.007139691              -0.000113560              -0.001257516               0.002799045               0.001541529               0.000000000               0.000000000               0.000000000               0.000000000              -0.000758405               0.006737295              -0.000072344              -0.001126561               0.002621263               0.001494702               0.000000000               0.000000000               0.000000000               0.000000000              -0.000570409               0.006383377              -0.000030922              -0.001011823               0.002465045               0.001453223               0.000000000               0.000000000               0.000000000               0.000000000              -0.000403176               0.006070395              -0.000001167              -0.000909988               0.002326774               0.001416786               0.000000000               0.000000000               0.000000000               0.000000000              -0.000260834               0.005796247               0.000008688              -0.000822342               0.002206177               0.001383835               0.000000000               0.000000000               0.000000000               0.000000000              -0.000148699               0.005573732               0.000005588              -0.000752477               0.002108718               0.001356241               0.000000000               0.000000000               0.000000000               0.000000000              -0.000072785               0.005413821               0.000003289              -0.000704020               0.002039262               0.001335242               0.000000000               0.000000000               0.000000000               0.000000000              -0.000028436               0.005310181               0.000003137              -0.000674434               0.001994854               0.001320420               0.000000000               0.000000000               0.000000000               0.000000000              -0.000016014               0.005261336               0.000006066              -0.000663671               0.001974985               0.001311314               0.000000000               0.000000000               0.000000000               0.000000000               0.000341093               0.006609434              -0.002649400              -0.000698270               0.002435878               0.001737609               0.000000000               0.000000000               0.000000000               0.000000000              -0.001245189               0.007803221              -0.002091081              -0.001442346               0.003081829               0.001639483               0.000000000               0.000000000               0.000000000               0.000000000              -0.002476547               0.009086205              -0.001431703              -0.002064476               0.003716863               0.001652387               0.000000000               0.000000000               0.000000000               0.000000000              -0.002501425               0.009092268              -0.001049053              -0.002074563               0.003722246               0.001647684               0.000000000               0.000000000               0.000000000               0.000000000              -0.002236529               0.008745488              -0.000813453              -0.001931880               0.003559093               0.001627214               0.000000000               0.000000000               0.000000000               0.000000000              -0.001898210               0.008286571              -0.000662440              -0.001747646               0.003344711               0.001597065               0.000000000               0.000000000               0.000000000               0.000000000              -0.001549709               0.007802955              -0.000549155              -0.001556507               0.003119794               0.001563288               0.000000000               0.000000000               0.000000000               0.000000000              -0.001219201               0.007339137              -0.000450317              -0.001374589               0.002904551               0.001529962               0.000000000               0.000000000               0.000000000               0.000000000              -0.000926416               0.006914698              -0.000362282              -0.001211740               0.002708790               0.001497049               0.000000000               0.000000000               0.000000000               0.000000000              -0.000676746               0.006538125              -0.000284378              -0.001071043               0.002536368               0.001465325               0.000000000               0.000000000               0.000000000               0.000000000              -0.000466560               0.006198685              -0.000211899              -0.000949793               0.002382806               0.001433012               0.000000000               0.000000000               0.000000000               0.000000000              -0.000292154               0.005885302              -0.000148330              -0.000845219               0.002243487               0.001398269               0.000000000               0.000000000               0.000000000               0.000000000              -0.000165310               0.005606908              -0.000097851              -0.000762853               0.002123235               0.001360382               0.000000000               0.000000000               0.000000000               0.000000000              -0.000091944               0.005390652              -0.000060246              -0.000708309               0.002032969               0.001324660               0.000000000               0.000000000               0.000000000               0.000000000              -0.000062761               0.005243967              -0.000031340              -0.000679030               0.001974315               0.001295285               0.000000000               0.000000000               0.000000000               0.000000000              -0.000061909               0.005145631              -0.000009685              -0.000666418               0.001937332               0.001270915               0.000000000               0.000000000               0.000000000               0.000000000              -0.000064937               0.005099004               0.000000493              -0.000661725               0.001920226               0.001258501               0.000000000               0.000000000               0.000000000               0.000000000              -0.000735325               0.004715444              -0.001840910              -0.000865176               0.001860191               0.000995014               0.000000000               0.000000000               0.000000000               0.000000000              -0.001812742               0.006312634              -0.001950507              -0.001468855               0.002593808               0.001124953               0.000000000               0.000000000               0.000000000               0.000000000              -0.002782381               0.007977852              -0.001857944              -0.002040620               0.003339464               0.001298844               0.000000000               0.000000000               0.000000000               0.000000000              -0.002709480               0.008325468              -0.001552091              -0.002056734               0.003460706               0.001403972               0.000000000               0.000000000               0.000000000               0.000000000              -0.002389341               0.008213923              -0.001287743              -0.001922739               0.003378859               0.001456121               0.000000000               0.000000000               0.000000000               0.000000000              -0.002024214               0.007925589              -0.001085398              -0.001749775               0.003225095               0.001475320               0.000000000               0.000000000               0.000000000               0.000000000              -0.001661825               0.007565403              -0.000919558              -0.001568856               0.003044728               0.001475872               0.000000000               0.000000000               0.000000000               0.000000000              -0.001317146               0.007195546              -0.000775012              -0.001393370               0.002862948               0.001469578               0.000000000               0.000000000               0.000000000               0.000000000              -0.001008370               0.006837735              -0.000649253              -0.001232853               0.002690173               0.001457321               0.000000000               0.000000000               0.000000000               0.000000000              -0.000737896               0.006503750              -0.000540514              -0.001089677               0.002531121               0.001441443               0.000000000               0.000000000               0.000000000               0.000000000              -0.000512325               0.006189358              -0.000438752              -0.000965789               0.002385028               0.001419239               0.000000000               0.000000000               0.000000000               0.000000000              -0.000328197               0.005897566              -0.000337940              -0.000860268               0.002252592               0.001392324               0.000000000               0.000000000               0.000000000               0.000000000              -0.000192084               0.005629264              -0.000237070              -0.000775688               0.002134965               0.001359277               0.000000000               0.000000000               0.000000000               0.000000000              -0.000116302               0.005397500              -0.000148482              -0.000718299               0.002038582               0.001320283               0.000000000               0.000000000               0.000000000               0.000000000              -0.000098540               0.005217987              -0.000076276              -0.000689199               0.001969045               0.001279845               0.000000000               0.000000000               0.000000000               0.000000000              -0.000121924               0.005092315              -0.000024891              -0.000682259               0.001924841               0.001242582               0.000000000               0.000000000               0.000000000               0.000000000              -0.000146543               0.005034918              -0.000003275              -0.000684317               0.001906395               0.001222078               0.000000000               0.000000000               0.000000000               0.000000000              -0.002133769               0.002978397              -0.001034880              -0.001172461               0.001383609               0.000211148               0.000000000               0.000000000               0.000000000               0.000000000              -0.002451777               0.004805854              -0.001741844              -0.001520145               0.002108650               0.000588505               0.000000000               0.000000000               0.000000000               0.000000000              -0.002988328               0.006682549              -0.002193501              -0.001955938               0.002879473               0.000923535               0.000000000               0.000000000               0.000000000               0.000000000              -0.002828523               0.007351504              -0.002028638              -0.001979630               0.003110353               0.001130723               0.000000000               0.000000000               0.000000000               0.000000000              -0.002481387               0.007516879              -0.001768836              -0.001870126               0.003128976               0.001258850               0.000000000               0.000000000               0.000000000               0.000000000              -0.002111007               0.007445045              -0.001526053              -0.001722255               0.003055741               0.001333487               0.000000000               0.000000000               0.000000000               0.000000000              -0.001752702               0.007257089              -0.001317049              -0.001564396               0.002940470               0.001376075               0.000000000               0.000000000               0.000000000               0.000000000              -0.001406469               0.007017091              -0.001136831              -0.001404559               0.002807193               0.001402634               0.000000000               0.000000000               0.000000000               0.000000000              -0.001085100               0.006753828              -0.000984132              -0.001251138               0.002668299               0.001417161               0.000000000               0.000000000               0.000000000               0.000000000              -0.000797650               0.006483914              -0.000851256              -0.001109606               0.002531151               0.001421546               0.000000000               0.000000000               0.000000000               0.000000000              -0.000552746               0.006217676              -0.000723872              -0.000984487               0.002400700               0.001416213               0.000000000               0.000000000               0.000000000               0.000000000              -0.000352837               0.005962593              -0.000594713              -0.000877636               0.002280056               0.001402420               0.000000000               0.000000000               0.000000000               0.000000000              -0.000196526               0.005717463              -0.000455889              -0.000788378               0.002168595               0.001380216               0.000000000               0.000000000               0.000000000               0.000000000              -0.000094383               0.005487333              -0.000315100              -0.000721308               0.002069529               0.001348220               0.000000000               0.000000000               0.000000000               0.000000000              -0.000060930               0.005283457              -0.000185151              -0.000683279               0.001988894               0.001305615               0.000000000               0.000000000               0.000000000               0.000000000              -0.000091664               0.005123423              -0.000078466              -0.000674800               0.001932724               0.001257924               0.000000000               0.000000000               0.000000000               0.000000000              -0.000140429               0.005042571              -0.000025559              -0.000682981               0.001908500               0.001225520               0.000000000               0.000000000               0.000000000               0.000000000              -0.003750645               0.001535908              -0.000292728              -0.001598478               0.001044788              -0.000553690               0.000000000               0.000000000               0.000000000               0.000000000              -0.003208013               0.003378408              -0.001441886              -0.001625303               0.001667891               0.000042588               0.000000000               0.000000000               0.000000000               0.000000000              -0.003138424               0.005218231              -0.002329844              -0.001829184               0.002349120               0.000519936               0.000000000               0.000000000               0.000000000               0.000000000              -0.002820877               0.006113812              -0.002342518              -0.001822052               0.002645267               0.000823215               0.000000000               0.000000000               0.000000000               0.000000000              -0.002437569               0.006534043              -0.002134026              -0.001730840               0.002754939               0.001024098               0.000000000               0.000000000               0.000000000               0.000000000              -0.002063554               0.006689294              -0.001886057              -0.001609991               0.002766406               0.001156414               0.000000000               0.000000000               0.000000000               0.000000000              -0.001713339               0.006696648              -0.001655450              -0.001479580               0.002725387               0.001245807               0.000000000               0.000000000               0.000000000               0.000000000              -0.001375601               0.006613433              -0.001455487              -0.001342527               0.002651964               0.001309437               0.000000000               0.000000000               0.000000000               0.000000000              -0.001050593               0.006473879              -0.001287195              -0.001203204               0.002559006               0.001355801               0.000000000               0.000000000               0.000000000               0.000000000              -0.000753870               0.006300546              -0.001137651              -0.001070267               0.002456916               0.001386649               0.000000000               0.000000000               0.000000000               0.000000000              -0.000490728               0.006113966              -0.000993039              -0.000948267               0.002354057               0.001405790               0.000000000               0.000000000               0.000000000               0.000000000              -0.000268577               0.005920130              -0.000847223              -0.000840731               0.002253600               0.001412870               0.000000000               0.000000000               0.000000000               0.000000000              -0.000089203               0.005720003              -0.000689767              -0.000748450               0.002156132               0.001407682               0.000000000               0.000000000               0.000000000               0.000000000               0.000044143               0.005517153              -0.000517800              -0.000673089               0.002063396               0.001390307               0.000000000               0.000000000               0.000000000               0.000000000               0.000116359               0.005319423              -0.000339130              -0.000621292               0.001980221               0.001358929               0.000000000               0.000000000               0.000000000               0.000000000               0.000108857               0.005146789              -0.000164407              -0.000602526               0.001916421               0.001313895               0.000000000               0.000000000               0.000000000               0.000000000               0.000061074               0.005055268              -0.000072502              -0.000609004               0.001888074               0.001279070               0.000000000               0.000000000               0.000000000               0.000000000              -0.005474946               0.000470586               0.000284568              -0.002111926               0.000860831              -0.001251094               0.000000000               0.000000000               0.000000000               0.000000000              -0.004038958               0.002107891              -0.001088726              -0.001778093               0.001295319              -0.000482774               0.000000000               0.000000000               0.000000000               0.000000000              -0.003259345               0.003712020              -0.002236435              -0.001686254               0.001799411               0.000113157               0.000000000               0.000000000               0.000000000               0.000000000              -0.002714315               0.004721272              -0.002413238              -0.001608024               0.002109749               0.000501725               0.000000000               0.000000000               0.000000000               0.000000000              -0.002271519               0.005338273              -0.002286358              -0.001519101               0.002285773               0.000766671               0.000000000               0.000000000               0.000000000               0.000000000              -0.001883545               0.005704067              -0.002070899              -0.001419335               0.002374448               0.000955113               0.000000000               0.000000000               0.000000000               0.000000000              -0.001536038               0.005904313              -0.001851014              -0.001314051               0.002406101               0.001092050               0.000000000               0.000000000               0.000000000               0.000000000              -0.001214126               0.005988751              -0.001652773              -0.001203889               0.002397526               0.001193637               0.000000000               0.000000000               0.000000000               0.000000000              -0.000902404               0.005995399              -0.001479902              -0.001087824               0.002361054               0.001273230               0.000000000               0.000000000               0.000000000               0.000000000              -0.000605670               0.005944593              -0.001324305              -0.000970198               0.002304911               0.001334712               0.000000000               0.000000000               0.000000000               0.000000000              -0.000329541               0.005858542              -0.001175055              -0.000855894               0.002238126               0.001382232               0.000000000               0.000000000               0.000000000               0.000000000              -0.000079684               0.005748452              -0.001024953              -0.000748437               0.002165610               0.001417173               0.000000000               0.000000000               0.000000000               0.000000000               0.000137986               0.005616913              -0.000864642              -0.000650368               0.002089075               0.001438707               0.000000000               0.000000000               0.000000000               0.000000000               0.000320300               0.005465803              -0.000685830              -0.000563112               0.002009620               0.001446508               0.000000000               0.000000000               0.000000000               0.000000000               0.000455587               0.005306198              -0.000480700              -0.000492429               0.001932858               0.001440429               0.000000000               0.000000000               0.000000000               0.000000000               0.000520462               0.005152121              -0.000249471              -0.000448841               0.001866970               0.001418129               0.000000000               0.000000000               0.000000000               0.000000000               0.000522671               0.005071039              -0.000126454              -0.000437877               0.001836288               0.001398411               0.000000000               0.000000000               0.000000000               0.000000000              -0.007135762              -0.000226872               0.000604732              -0.002647550               0.000806887              -0.001840663               0.000000000               0.000000000               0.000000000               0.000000000              -0.004872995               0.001070736              -0.000736881              -0.001961213               0.001010642              -0.000950570               0.000000000               0.000000000               0.000000000               0.000000000              -0.003367035               0.002320073              -0.001913214              -0.001552645               0.001290896              -0.000261749               0.000000000               0.000000000               0.000000000               0.000000000              -0.002541662               0.003336511              -0.002187038              -0.001370185               0.001568886               0.000198702               0.000000000               0.000000000               0.000000000               0.000000000              -0.002009551               0.004075516              -0.002143881              -0.001263019               0.001779497               0.000516478               0.000000000               0.000000000               0.000000000               0.000000000              -0.001600437               0.004605216              -0.001989552              -0.001175814               0.001926994               0.000751180               0.000000000               0.000000000               0.000000000               0.000000000              -0.001252392               0.004971684              -0.001809043              -0.001091106               0.002020913               0.000929807               0.000000000               0.000000000               0.000000000               0.000000000              -0.000945818               0.005210969              -0.001636177              -0.001006051               0.002072322               0.001066271               0.000000000               0.000000000               0.000000000               0.000000000              -0.000656404               0.005363480              -0.001480036              -0.000916585               0.002093337               0.001176752               0.000000000               0.000000000               0.000000000               0.000000000              -0.000373962               0.005447625              -0.001335010              -0.000821188               0.002089586               0.001268398               0.000000000               0.000000000               0.000000000               0.000000000              -0.000094698               0.005478390              -0.001195537              -0.000720309               0.002066214               0.001345905               0.000000000               0.000000000               0.000000000               0.000000000               0.000178029               0.005467301              -0.001057032              -0.000616651               0.002027966               0.001411315               0.000000000               0.000000000               0.000000000               0.000000000               0.000442484               0.005420442              -0.000911915              -0.000511623               0.001977337               0.001465714               0.000000000               0.000000000               0.000000000               0.000000000               0.000694644               0.005344091              -0.000746611              -0.000407519               0.001917186               0.001509666               0.000000000               0.000000000               0.000000000               0.000000000               0.000925905               0.005245929              -0.000545139              -0.000308526               0.001851467               0.001542941               0.000000000               0.000000000               0.000000000               0.000000000               0.001123809               0.005129085              -0.000296499              -0.000219707               0.001782914               0.001563207               0.000000000               0.000000000               0.000000000               0.000000000               0.001237600               0.005075640              -0.000164708              -0.000170355               0.001748648               0.001578293               0.000000000               0.000000000               0.000000000               0.000000000              -0.008528217              -0.000612838               0.000627129              -0.003121474               0.000836206              -0.002285268               0.000000000               0.000000000               0.000000000               0.000000000              -0.005601995               0.000321939              -0.000433382              -0.002140988               0.000820970              -0.001320018               0.000000000               0.000000000               0.000000000               0.000000000              -0.003466449               0.001191458              -0.001395271              -0.001448849               0.000880095              -0.000568753               0.000000000               0.000000000               0.000000000               0.000000000              -0.002364754               0.002143470              -0.001665500              -0.001154715               0.001099386              -0.000055328               0.000000000               0.000000000               0.000000000               0.000000000              -0.001720329               0.002944670              -0.001674543              -0.001013205               0.001319281               0.000306076               0.000000000               0.000000000               0.000000000               0.000000000              -0.001281177               0.003583666              -0.001584381              -0.000928398               0.001504009               0.000575611               0.000000000               0.000000000               0.000000000               0.000000000              -0.000936685               0.004071813              -0.001461865              -0.000860232               0.001644001               0.000783769               0.000000000               0.000000000               0.000000000               0.000000000              -0.000641417               0.004433614              -0.001337324              -0.000794732               0.001742767               0.000948035               0.000000000               0.000000000               0.000000000               0.000000000              -0.000369029               0.004708312              -0.001219115              -0.000726924               0.001811729               0.001084806               0.000000000               0.000000000               0.000000000               0.000000000              -0.000104341               0.004911214              -0.001107349              -0.000653028               0.001854731               0.001201702               0.000000000               0.000000000               0.000000000               0.000000000               0.000170441               0.005050225              -0.000999120              -0.000567362               0.001872512               0.001305150               0.000000000               0.000000000               0.000000000               0.000000000               0.000461006               0.005136618              -0.000890692              -0.000469199               0.001868589               0.001399389               0.000000000               0.000000000               0.000000000               0.000000000               0.000766515               0.005179228              -0.000778064              -0.000359960               0.001846379               0.001486419               0.000000000               0.000000000               0.000000000               0.000000000               0.001089369               0.005184649              -0.000647573              -0.000239568               0.001808055               0.001568487               0.000000000               0.000000000               0.000000000               0.000000000               0.001433290               0.005153317              -0.000486075              -0.000106681               0.001753315               0.001646635               0.000000000               0.000000000               0.000000000               0.000000000               0.001795992               0.005085923              -0.000273120               0.000037756               0.001682706               0.001720461               0.000000000               0.000000000               0.000000000               0.000000000               0.002057817               0.005073095              -0.000160418               0.000137543               0.001645167               0.001782710               0.000000000               0.000000000               0.000000000               0.000000000              -0.009461314              -0.000794500               0.000386549              -0.003448678               0.000884720              -0.002563958               0.000000000               0.000000000               0.000000000               0.000000000              -0.006100811              -0.000129743              -0.000194955              -0.002271585               0.000713942              -0.001557642               0.000000000               0.000000000               0.000000000               0.000000000              -0.003539722               0.000456420              -0.000732716              -0.001384447               0.000613618              -0.000770829               0.000000000               0.000000000               0.000000000               0.000000000              -0.002239009               0.001335559              -0.000900393              -0.001006572               0.000780705              -0.000225867               0.000000000               0.000000000               0.000000000               0.000000000              -0.001502087               0.002152599              -0.000921539              -0.000832356               0.000994977               0.000162622               0.000000000               0.000000000               0.000000000               0.000000000              -0.001029262               0.002848754              -0.000882696              -0.000742066               0.001196930               0.000454864               0.000000000               0.000000000               0.000000000               0.000000000              -0.000682688               0.003415177              -0.000821674              -0.000682904               0.001366015               0.000683112               0.000000000               0.000000000               0.000000000               0.000000000              -0.000397015               0.003857287              -0.000757649              -0.000631040               0.001496096               0.000865056               0.000000000               0.000000000               0.000000000               0.000000000              -0.000134700               0.004207125              -0.000694180              -0.000576402               0.001594495               0.001018093               0.000000000               0.000000000               0.000000000               0.000000000               0.000126362               0.004485076              -0.000633000              -0.000513248               0.001666093               0.001152845               0.000000000               0.000000000               0.000000000               0.000000000               0.000399405               0.004698185              -0.000575254              -0.000437496               0.001711878               0.001274382               0.000000000               0.000000000               0.000000000               0.000000000               0.000698586               0.004857830              -0.000515317              -0.000345258               0.001734346               0.001389088               0.000000000               0.000000000               0.000000000               0.000000000               0.001030099               0.004968282              -0.000450926              -0.000234748               0.001734327               0.001499579               0.000000000               0.000000000               0.000000000               0.000000000               0.001403261               0.005034423              -0.000378721              -0.000103080               0.001712484               0.001609404               0.000000000               0.000000000               0.000000000               0.000000000               0.001832132               0.005060426              -0.000288056               0.000054495               0.001668627               0.001723122               0.000000000               0.000000000               0.000000000               0.000000000               0.002329546               0.005043363              -0.000162334               0.000243157               0.001600052               0.001843209               0.000000000               0.000000000               0.000000000               0.000000000               0.002719717               0.005068087              -0.000096653               0.000386379               0.001560552               0.001946932               0.000000000               0.000000000               0.000000000               0.000000000              -0.009791530              -0.000851653              -0.000000000              -0.003565365               0.000904565              -0.002660800               0.000000000               0.000000000               0.000000000               0.000000000              -0.006278120              -0.000285696               0.000000000              -0.002318581               0.000677624              -0.001640958               0.000000000               0.000000000               0.000000000               0.000000000              -0.003567315               0.000199671               0.000000000              -0.001362701               0.000520787              -0.000841914               0.000000000               0.000000000               0.000000000               0.000000000              -0.002192175               0.001053191              -0.000000000              -0.000953713               0.000668963              -0.000284750               0.000000000               0.000000000               0.000000000               0.000000000              -0.001419059               0.001870620              -0.000000000              -0.000765973               0.000878858               0.000112885               0.000000000               0.000000000               0.000000000               0.000000000              -0.000932561               0.002579658               0.000000000              -0.000672166               0.001083933               0.000411767               0.000000000               0.000000000               0.000000000               0.000000000              -0.000583844               0.003172145               0.000000000              -0.000615458               0.001262524               0.000647065               0.000000000               0.000000000               0.000000000               0.000000000              -0.000300982               0.003646619              -0.000000000              -0.000568694               0.001405092               0.000836398               0.000000000               0.000000000               0.000000000               0.000000000              -0.000042588               0.004019828              -0.000000000              -0.000518448               0.001512745               0.000994297               0.000000000               0.000000000               0.000000000               0.000000000               0.000219230               0.004317981              -0.000000000              -0.000457535               0.001591824               0.001134289               0.000000000               0.000000000               0.000000000               0.000000000               0.000494327               0.004559179               0.000000000              -0.000384524               0.001647886               0.001263362               0.000000000               0.000000000               0.000000000               0.000000000               0.000794295               0.004748286              -0.000000000              -0.000295674               0.001681304               0.001385630               0.000000000               0.000000000               0.000000000               0.000000000               0.001134406               0.004882505              -0.000000000              -0.000184910               0.001689122               0.001504212               0.000000000               0.000000000               0.000000000               0.000000000               0.001525911               0.004969764               0.000000000              -0.000049004               0.001672906               0.001623902               0.000000000               0.000000000               0.000000000               0.000000000               0.001984474               0.005021336               0.000000000               0.000116509               0.001634925               0.001751435               0.000000000               0.000000000               0.000000000               0.000000000               0.002534027               0.005026861               0.000000000               0.000321899               0.001568304               0.001890203               0.000000000               0.000000000               0.000000000               0.000000000               0.002975093               0.005065323               0.000000000               0.000482490               0.001527594               0.002010084               0.000000000               0.000000000               0.000000000               0.000000000               0.000000000               0.000000000               0.000000000               0.000000000               0.000000000               0.000000000               0.000000000               0.000000000               0.000000000               0.000000000               0.000000000               0.000000000               0.000000000               0.000000000               0.000000000               0.000000000               0.000000000               0.000000000               0.000000000               0.000000000               0.000000000               0.000000000               0.000000000               0.000000000               0.000000000               0.000000000               0.000000000               0.000000000               0.000000000               0.000000000               0.000000000               0.000000000               0.000000000               0.000000000               0.000000000               0.000000000               0.000000000               0.000000000               0.000000000               0.000000000               0.000000000               0.000000000               0.000000000               0.000000000               0.000000000               0.000000000               0.000000000               0.000000000               0.000000000               0.000000000               0.000000000               0.000000000               0.000000000               0.000000000               0.000000000               0.000000000               0.000000000               0.000000000               0.000000000               0.000000000               0.000000000               0.000000000               0.000000000               0.000000000               0.000000000               0.000000000               0.000000000               0.000000000               0.000000000               0.000000000               0.000000000               0.000000000               0.000000000               0.000000000               0.000000000               0.000000000               0.000000000               0.000000000               0.000000000               0.000000000               0.000000000               0.000000000               0.000000000               0.000000000               0.000000000               0.000000000               0.000000000               0.000000000               0.000000000               0.000000000               0.000000000               0.000000000               0.000000000               0.000000000               0.000000000               0.000000000               0.000000000               0.000000000               0.000000000               0.000000000               0.000000000               0.000000000               0.000000000               0.000000000               0.000000000               0.000000000               0.000000000               0.000000000               0.000000000               0.000000000               0.000000000               0.000000000               0.000000000               0.000000000               0.000000000               0.000000000               0.000000000               0.000000000               0.000000000               0.000000000               0.000000000               0.000000000               0.000000000               0.000000000               0.000000000               0.000000000               0.000000000               0.000000000               0.000000000               0.000000000               0.000000000               0.000000000               0.000000000               0.000000000               0.000000000               0.000000000               0.000000000               0.000000000               0.000000000               0.000000000               0.000000000               0.000000000               0.000000000               0.000000000               0.000000000               0.000000000               0.000000000               0.000000000               0.000000000               0.000000000               0.000000000               0.000000000               0.000000000               0.000000000               0.000000000               0.000000000               0.000000000               0.000000000               0.000000000               0.000000000               0.000000000               0.000000000               0.000000000               0.000000000               0.000000000               0.000000000               0.000000000               0.000000000               0.000000000               0.000000000               0.002128741               0.021783975               0.001526171              -0.001924714               0.007902824               0.005978109               0.000000000               0.000000000               0.000000000               0.000000000               0.002021447               0.017162869               0.000771837              -0.001387313               0.006183337               0.004796024               0.000000000               0.000000000               0.000000000               0.000000000               0.002560858               0.013466800               0.000017782              -0.000723026               0.004729897               0.004006871               0.000000000               0.000000000               0.000000000               0.000000000               0.002420624               0.011397374              -0.000302450              -0.000516936               0.003971399               0.003454462               0.000000000               0.000000000               0.000000000               0.000000000               0.002087588               0.010107519              -0.000433514              -0.000480593               0.003529337               0.003048744               0.000000000               0.000000000               0.000000000               0.000000000               0.001726991               0.009224290              -0.000474765              -0.000505413               0.003243204               0.002737790               0.000000000               0.000000000               0.000000000               0.000000000               0.001395991               0.008558960              -0.000471749              -0.000546372               0.003035082               0.002488710               0.000000000               0.000000000               0.000000000               0.000000000               0.001110076               0.008018434              -0.000452919              -0.000586024               0.002868126               0.002282102               0.000000000               0.000000000               0.000000000               0.000000000               0.000864671               0.007551401              -0.000432014              -0.000619672               0.002723666               0.002103994               0.000000000               0.000000000               0.000000000               0.000000000               0.000652787               0.007129118              -0.000410998              -0.000646343               0.002591797               0.001945453               0.000000000               0.000000000               0.000000000               0.000000000               0.000468422               0.006730060              -0.000390621              -0.000665598               0.002465197               0.001799599               0.000000000               0.000000000               0.000000000               0.000000000               0.000314282               0.006341546              -0.000366003              -0.000674836               0.002338773               0.001663937               0.000000000               0.000000000               0.000000000               0.000000000               0.000191820               0.005949335              -0.000332682              -0.000671733               0.002207003               0.001535270               0.000000000               0.000000000               0.000000000               0.000000000               0.000096085               0.005539370              -0.000288756              -0.000656388               0.002065234               0.001408846               0.000000000               0.000000000               0.000000000               0.000000000               0.000031403               0.005101544              -0.000224650              -0.000625916               0.001909136               0.001283221               0.000000000               0.000000000               0.000000000               0.000000000               0.000002881               0.004620672              -0.000128354              -0.000576502               0.001732376               0.001155874               0.000000000               0.000000000               0.000000000               0.000000000              -0.000039612               0.004260601              -0.000077344              -0.000547428               0.001602662               0.001055234               0.000000000               0.000000000               0.000000000               0.000000000               0.002322272               0.020502712               0.002838436              -0.001691984               0.007398163               0.005706179               0.000000000               0.000000000               0.000000000               0.000000000               0.001907705               0.016335952               0.001435705              -0.001326602               0.005887463               0.004560862               0.000000000               0.000000000               0.000000000               0.000000000               0.002120570               0.013116801               0.000049655              -0.000844384               0.004653685               0.003809300               0.000000000               0.000000000               0.000000000               0.000000000               0.001863267               0.011288570              -0.000518887              -0.000712345               0.004000267               0.003287923               0.000000000               0.000000000               0.000000000               0.000000000               0.001513145               0.010123470              -0.000744553              -0.000698003               0.003607124               0.002909121               0.000000000               0.000000000               0.000000000               0.000000000               0.001179230               0.009303571              -0.000812620              -0.000720733               0.003341404               0.002620670               0.000000000               0.000000000               0.000000000               0.000000000               0.000895118               0.008673285              -0.000806781              -0.000748490               0.003140562               0.002392073               0.000000000               0.000000000               0.000000000               0.000000000               0.000664706               0.008153145              -0.000773123              -0.000769877               0.002974313               0.002204437               0.000000000               0.000000000               0.000000000               0.000000000               0.000479974               0.007697458              -0.000731873              -0.000782190               0.002826524               0.002044334               0.000000000               0.000000000               0.000000000               0.000000000               0.000333239               0.007279269              -0.000689036              -0.000784942               0.002688046               0.001903104               0.000000000               0.000000000               0.000000000               0.000000000               0.000214045               0.006883622              -0.000645783              -0.000780184               0.002554579               0.001774395               0.000000000               0.000000000               0.000000000               0.000000000               0.000119441               0.006503568              -0.000596666              -0.000768154               0.002423886               0.001655732               0.000000000               0.000000000               0.000000000               0.000000000               0.000054118               0.006134214              -0.000534717              -0.000746481               0.002293544               0.001547064               0.000000000               0.000000000               0.000000000               0.000000000               0.000008735               0.005768949              -0.000456973              -0.000717841               0.002162244               0.001444403               0.000000000               0.000000000               0.000000000               0.000000000              -0.000016464               0.005407318              -0.000349882              -0.000682087               0.002029784               0.001347697               0.000000000               0.000000000               0.000000000               0.000000000              -0.000017057               0.005050607              -0.000196911              -0.000637721               0.001896092               0.001258372               0.000000000               0.000000000               0.000000000               0.000000000              -0.000036001               0.004808741              -0.000116572              -0.000614591               0.001807761               0.001193170               0.000000000               0.000000000               0.000000000               0.000000000               0.002522015               0.018550731               0.003784396              -0.001373085               0.006641209               0.005268125               0.000000000               0.000000000               0.000000000               0.000000000               0.001678014               0.015095186               0.001922821              -0.001257641               0.005450891               0.004193251               0.000000000               0.000000000               0.000000000               0.000000000               0.001437481               0.012591230               0.000108139              -0.001034846               0.004541983               0.003507138               0.000000000               0.000000000               0.000000000               0.000000000               0.001047211               0.011108397              -0.000597376              -0.000995843               0.004034710               0.003038867               0.000000000               0.000000000               0.000000000               0.000000000               0.000703379               0.010113484              -0.000860767              -0.001000416               0.003704600               0.002704183               0.000000000               0.000000000               0.000000000               0.000000000               0.000433857               0.009376382              -0.000931994              -0.001009349               0.003461879               0.002452530               0.000000000               0.000000000               0.000000000               0.000000000               0.000235784               0.008785599              -0.000915456              -0.001009779               0.003265097               0.002255318               0.000000000               0.000000000               0.000000000               0.000000000               0.000092586               0.008280292              -0.000868206              -0.001000314               0.003093508               0.002093193               0.000000000               0.000000000               0.000000000               0.000000000              -0.000007615               0.007828896              -0.000812518              -0.000981466               0.002936761               0.001955296               0.000000000               0.000000000               0.000000000               0.000000000              -0.000075736               0.007408614              -0.000756430              -0.000954476               0.002787672               0.001833196               0.000000000               0.000000000               0.000000000               0.000000000              -0.000119037               0.007016234              -0.000701068              -0.000921666               0.002645943               0.001724277               0.000000000               0.000000000               0.000000000               0.000000000              -0.000139046               0.006645673              -0.000637897              -0.000882850               0.002509485               0.001626636               0.000000000               0.000000000               0.000000000               0.000000000              -0.000136239               0.006296969              -0.000560167              -0.000838209               0.002378371               0.001540163               0.000000000               0.000000000               0.000000000               0.000000000              -0.000120865               0.005972828              -0.000466847              -0.000791926               0.002254898               0.001462972               0.000000000               0.000000000               0.000000000               0.000000000              -0.000091293               0.005679126              -0.000347014              -0.000744124               0.002141064               0.001396940               0.000000000               0.000000000               0.000000000               0.000000000              -0.000047597               0.005426905              -0.000189913              -0.000696210               0.002041021               0.001344810               0.000000000               0.000000000               0.000000000               0.000000000              -0.000039943               0.005277172              -0.000110590              -0.000674623               0.001983914               0.001309291               0.000000000               0.000000000               0.000000000               0.000000000               0.002597504               0.016161216               0.004280709              -0.001046089               0.005735714               0.004689625               0.000000000               0.000000000               0.000000000               0.000000000               0.001307425               0.013606480               0.002208334              -0.001210524               0.004938956               0.003728432               0.000000000               0.000000000               0.000000000               0.000000000               0.000595208               0.011960919               0.000221009              -0.001271909               0.004410903               0.003138994               0.000000000               0.000000000               0.000000000               0.000000000               0.000112355               0.010860579              -0.000501451              -0.001315436               0.004058636               0.002743199               0.000000000               0.000000000               0.000000000               0.000000000              -0.000177806               0.010042072              -0.000756230              -0.001321933               0.003787968               0.002466035               0.000000000               0.000000000               0.000000000               0.000000000              -0.000342883               0.009379463              -0.000819721              -0.001301011               0.003560127               0.002259116               0.000000000               0.000000000               0.000000000               0.000000000              -0.000428618               0.008811548              -0.000799821              -0.001262172               0.003357877               0.002095705               0.000000000               0.000000000               0.000000000               0.000000000              -0.000460931               0.008309142              -0.000752089              -0.001211489               0.003173516               0.001962027               0.000000000               0.000000000               0.000000000               0.000000000              -0.000459040               0.007850632              -0.000696038              -0.001153466               0.003001340               0.001847874               0.000000000               0.000000000               0.000000000               0.000000000              -0.000437797               0.007426690              -0.000641622              -0.001092508               0.002839708               0.001747200               0.000000000               0.000000000               0.000000000               0.000000000              -0.000405772               0.007036861              -0.000588673              -0.001031770               0.002689520               0.001657750               0.000000000               0.000000000               0.000000000               0.000000000              -0.000363552               0.006677800              -0.000525391              -0.000971055               0.002549596               0.001578541               0.000000000               0.000000000               0.000000000               0.000000000              -0.000305169               0.006352596              -0.000450635              -0.000908511               0.002420348               0.001511837               0.000000000               0.000000000               0.000000000               0.000000000              -0.000233971               0.006063715              -0.000365217              -0.000845701               0.002303119               0.001457417               0.000000000               0.000000000               0.000000000               0.000000000              -0.000157471               0.005814531              -0.000262457              -0.000785866               0.002200113               0.001414247               0.000000000               0.000000000               0.000000000               0.000000000              -0.000077892               0.005619940              -0.000138035              -0.000731700               0.002117195               0.001385494               0.000000000               0.000000000               0.000000000               0.000000000              -0.000051213               0.005516690              -0.000078472              -0.000708789               0.002075141               0.001366352               0.000000000               0.000000000               0.000000000               0.000000000               0.002434597               0.013571573               0.004331113              -0.000783475               0.004784969               0.004001495               0.000000000               0.000000000               0.000000000               0.000000000               0.000788214               0.012029161               0.002319199              -0.001208063               0.004412368               0.003204304               0.000000000               0.000000000               0.000000000               0.000000000              -0.000309907               0.011282620               0.000413668              -0.001526539               0.004269682               0.002743143               0.000000000               0.000000000               0.000000000               0.000000000              -0.000795032               0.010539929              -0.000241900              -0.001615624               0.004051816               0.002436192               0.000000000               0.000000000               0.000000000               0.000000000              -0.000980012               0.009864788              -0.000469931              -0.001600599               0.003821763               0.002221164               0.000000000               0.000000000               0.000000000               0.000000000              -0.001014341               0.009253995              -0.000531630              -0.001537123               0.003597008               0.002059885               0.000000000               0.000000000               0.000000000               0.000000000              -0.000972129               0.008698510              -0.000524082              -0.001451859               0.003383427               0.001931569               0.000000000               0.000000000               0.000000000               0.000000000              -0.000891816               0.008192127              -0.000491440              -0.001358443               0.003183496               0.001825053               0.000000000               0.000000000               0.000000000               0.000000000              -0.000793961               0.007725141              -0.000451026              -0.001263375               0.002996146               0.001732771               0.000000000               0.000000000               0.000000000               0.000000000              -0.000690333               0.007297147              -0.000414143              -0.001171015               0.002822697               0.001651681               0.000000000               0.000000000               0.000000000               0.000000000              -0.000588843               0.006909834              -0.000382280              -0.001084543               0.002664769               0.001580227               0.000000000               0.000000000               0.000000000               0.000000000              -0.000487445               0.006566108              -0.000341218              -0.001003553               0.002523198               0.001519645               0.000000000               0.000000000               0.000000000               0.000000000              -0.000382071               0.006266641              -0.000287631              -0.000926605               0.002397728               0.001471123               0.000000000               0.000000000               0.000000000               0.000000000              -0.000273383               0.006006876              -0.000224616              -0.000853376               0.002286730               0.001433355               0.000000000               0.000000000               0.000000000               0.000000000              -0.000170294               0.005790563              -0.000153853              -0.000787679               0.002192728               0.001405049               0.000000000               0.000000000               0.000000000               0.000000000              -0.000079041               0.005633361              -0.000078543              -0.000733809               0.002122371               0.001388562               0.000000000               0.000000000               0.000000000               0.000000000              -0.000047853               0.005557019              -0.000046455              -0.000712571               0.002089845               0.001377274               0.000000000               0.000000000               0.000000000               0.000000000               0.001974284               0.011003102               0.004008398              -0.000635034               0.003879341               0.003244307               0.000000000               0.000000000               0.000000000               0.000000000               0.000154090               0.010491641               0.002305112              -0.001253670               0.003915068               0.002661398               0.000000000               0.000000000               0.000000000               0.000000000              -0.001174233               0.010576141               0.000687312              -0.001762351               0.004112795               0.002350445               0.000000000               0.000000000               0.000000000               0.000000000              -0.001566554               0.010123459               0.000139803              -0.001852885               0.003992081               0.002139196               0.000000000               0.000000000               0.000000000               0.000000000              -0.001603435               0.009559931              -0.000068170              -0.001796275               0.003785370               0.001989095               0.000000000               0.000000000               0.000000000               0.000000000              -0.001498012               0.008991212              -0.000145937              -0.001685652               0.003558925               0.001873273               0.000000000               0.000000000               0.000000000               0.000000000              -0.001331319               0.008447777              -0.000165578              -0.001555213               0.003334302               0.001779089               0.000000000               0.000000000               0.000000000               0.000000000              -0.001143758               0.007941609              -0.000164574              -0.001421607               0.003121046               0.001699439               0.000000000               0.000000000               0.000000000               0.000000000              -0.000962324               0.007474445              -0.000157208              -0.001295174               0.002923182               0.001628008               0.000000000               0.000000000               0.000000000               0.000000000              -0.000793224               0.007051571              -0.000155649              -0.001178902               0.002743468               0.001564565               0.000000000               0.000000000               0.000000000               0.000000000              -0.000636333               0.006677352              -0.000159968              -0.001073291               0.002583526               0.001510234               0.000000000               0.000000000               0.000000000               0.000000000              -0.000491888               0.006350302              -0.000154600              -0.000978243               0.002442827               0.001464584               0.000000000               0.000000000               0.000000000               0.000000000              -0.000356361               0.006068021              -0.000131986              -0.000892136               0.002320032               0.001427896               0.000000000               0.000000000               0.000000000               0.000000000              -0.000230366               0.005827867              -0.000097715              -0.000814869               0.002214226               0.001399357               0.000000000               0.000000000               0.000000000               0.000000000              -0.000125470               0.005639396              -0.000062762              -0.000751974               0.002130438               0.001378464               0.000000000               0.000000000               0.000000000               0.000000000              -0.000050838               0.005511949              -0.000030698              -0.000708056               0.002073317               0.001365261               0.000000000               0.000000000               0.000000000               0.000000000              -0.000028935               0.005452738              -0.000019714              -0.000692441               0.002048375               0.001355934               0.000000000               0.000000000               0.000000000               0.000000000               0.001239021               0.008627094               0.003408746              -0.000613756               0.003080253               0.002466498               0.000000000               0.000000000               0.000000000               0.000000000              -0.000556248               0.009078590               0.002212540              -0.001343415               0.003473971               0.002130556               0.000000000               0.000000000               0.000000000               0.000000000              -0.001913571               0.009833203               0.001030510              -0.001946735               0.003926613               0.001979878               0.000000000               0.000000000               0.000000000               0.000000000              -0.002128296               0.009605106               0.000583070              -0.001998744               0.003867918               0.001869174               0.000000000               0.000000000               0.000000000               0.000000000              -0.001995958               0.009141404               0.000371274              -0.001891155               0.003677489               0.001786334               0.000000000               0.000000000               0.000000000               0.000000000              -0.001760310               0.008613886               0.000262640              -0.001736848               0.003450216               0.001713368               0.000000000               0.000000000               0.000000000               0.000000000              -0.001492771               0.008088369               0.000201488              -0.001570831               0.003219706               0.001648875               0.000000000               0.000000000               0.000000000               0.000000000              -0.001221827               0.007592616               0.000154609              -0.001407258               0.002999933               0.001592674               0.000000000               0.000000000               0.000000000               0.000000000              -0.000973487               0.007139691               0.000113560              -0.001257516               0.002799045               0.001541529               0.000000000               0.000000000               0.000000000               0.000000000              -0.000758405               0.006737295               0.000072344              -0.001126561               0.002621263               0.001494702               0.000000000               0.000000000               0.000000000               0.000000000              -0.000570409               0.006383377               0.000030922              -0.001011823               0.002465045               0.001453223               0.000000000               0.000000000               0.000000000               0.000000000              -0.000403176               0.006070395               0.000001167              -0.000909988               0.002326774               0.001416786               0.000000000               0.000000000               0.000000000               0.000000000              -0.000260834               0.005796247              -0.000008688              -0.000822342               0.002206177               0.001383835               0.000000000               0.000000000               0.000000000               0.000000000              -0.000148699               0.005573732              -0.000005588              -0.000752477               0.002108718               0.001356241               0.000000000               0.000000000               0.000000000               0.000000000              -0.000072785               0.005413821              -0.000003289              -0.000704020               0.002039262               0.001335242               0.000000000               0.000000000               0.000000000               0.000000000              -0.000028436               0.005310181              -0.000003137              -0.000674434               0.001994854               0.001320420               0.000000000               0.000000000               0.000000000               0.000000000              -0.000016014               0.005261336              -0.000006066              -0.000663671               0.001974985               0.001311314               0.000000000               0.000000000               0.000000000               0.000000000               0.000341093               0.006609434               0.002649400              -0.000698270               0.002435878               0.001737609               0.000000000               0.000000000               0.000000000               0.000000000              -0.001245189               0.007803221               0.002091081              -0.001442346               0.003081829               0.001639483               0.000000000               0.000000000               0.000000000               0.000000000              -0.002476547               0.009086205               0.001431703              -0.002064476               0.003716863               0.001652387               0.000000000               0.000000000               0.000000000               0.000000000              -0.002501425               0.009092268               0.001049053              -0.002074563               0.003722246               0.001647684               0.000000000               0.000000000               0.000000000               0.000000000              -0.002236529               0.008745488               0.000813453              -0.001931880               0.003559093               0.001627214               0.000000000               0.000000000               0.000000000               0.000000000              -0.001898210               0.008286571               0.000662440              -0.001747646               0.003344711               0.001597065               0.000000000               0.000000000               0.000000000               0.000000000              -0.001549709               0.007802955               0.000549155              -0.001556507               0.003119794               0.001563288               0.000000000               0.000000000               0.000000000               0.000000000              -0.001219201               0.007339137               0.000450317              -0.001374589               0.002904551               0.001529962               0.000000000               0.000000000               0.000000000               0.000000000              -0.000926416               0.006914698               0.000362282              -0.001211740               0.002708790               0.001497049               0.000000000               0.000000000               0.000000000               0.000000000              -0.000676746               0.006538125               0.000284378              -0.001071043               0.002536368               0.001465325               0.000000000               0.000000000               0.000000000               0.000000000              -0.000466560               0.006198685               0.000211899              -0.000949793               0.002382806               0.001433012               0.000000000               0.000000000               0.000000000               0.000000000              -0.000292154               0.005885302               0.000148330              -0.000845219               0.002243487               0.001398269               0.000000000               0.000000000               0.000000000               0.000000000              -0.000165310               0.005606908               0.000097851              -0.000762853               0.002123235               0.001360382               0.000000000               0.000000000               0.000000000               0.000000000              -0.000091944               0.005390652               0.000060246              -0.000708309               0.002032969               0.001324660               0.000000000               0.000000000               0.000000000               0.000000000              -0.000062761               0.005243967               0.000031340              -0.000679030               0.001974315               0.001295285               0.000000000               0.000000000               0.000000000               0.000000000              -0.000061909               0.005145631               0.000009685              -0.000666418               0.001937332               0.001270915               0.000000000               0.000000000               0.000000000               0.000000000              -0.000064937               0.005099004              -0.000000493              -0.000661725               0.001920226               0.001258501               0.000000000               0.000000000               0.000000000               0.000000000              -0.000735325               0.004715444               0.001840910              -0.000865176               0.001860191               0.000995014               0.000000000               0.000000000               0.000000000               0.000000000              -0.001812742               0.006312634               0.001950507              -0.001468855               0.002593808               0.001124953               0.000000000               0.000000000               0.000000000               0.000000000              -0.002782381               0.007977852               0.001857944              -0.002040620               0.003339464               0.001298844               0.000000000               0.000000000               0.000000000               0.000000000              -0.002709480               0.008325468               0.001552091              -0.002056734               0.003460706               0.001403972               0.000000000               0.000000000               0.000000000               0.000000000              -0.002389341               0.008213923               0.001287743              -0.001922739               0.003378859               0.001456121               0.000000000               0.000000000               0.000000000               0.000000000              -0.002024214               0.007925589               0.001085398              -0.001749775               0.003225095               0.001475320               0.000000000               0.000000000               0.000000000               0.000000000              -0.001661825               0.007565403               0.000919558              -0.001568856               0.003044728               0.001475872               0.000000000               0.000000000               0.000000000               0.000000000              -0.001317146               0.007195546               0.000775012              -0.001393370               0.002862948               0.001469578               0.000000000               0.000000000               0.000000000               0.000000000              -0.001008370               0.006837735               0.000649253              -0.001232853               0.002690173               0.001457321               0.000000000               0.000000000               0.000000000               0.000000000              -0.000737896               0.006503750               0.000540514              -0.001089677               0.002531121               0.001441443               0.000000000               0.000000000               0.000000000               0.000000000              -0.000512325               0.006189358               0.000438752              -0.000965789               0.002385028               0.001419239               0.000000000               0.000000000               0.000000000               0.000000000              -0.000328197               0.005897566               0.000337940              -0.000860268               0.002252592               0.001392324               0.000000000               0.000000000               0.000000000               0.000000000              -0.000192084               0.005629264               0.000237070              -0.000775688               0.002134965               0.001359277               0.000000000               0.000000000               0.000000000               0.000000000              -0.000116302               0.005397500               0.000148482              -0.000718299               0.002038582               0.001320283               0.000000000               0.000000000               0.000000000               0.000000000              -0.000098540               0.005217987               0.000076276              -0.000689199               0.001969045               0.001279845               0.000000000               0.000000000               0.000000000               0.000000000              -0.000121924               0.005092315               0.000024891              -0.000682259               0.001924841               0.001242582               0.000000000               0.000000000               0.000000000               0.000000000              -0.000146543               0.005034918               0.000003275              -0.000684317               0.001906395               0.001222078               0.000000000               0.000000000               0.000000000               0.000000000              -0.002133769               0.002978397               0.001034880              -0.001172461               0.001383609               0.000211148               0.000000000               0.000000000               0.000000000               0.000000000              -0.002451777               0.004805854               0.001741844              -0.001520145               0.002108650               0.000588505               0.000000000               0.000000000               0.000000000               0.000000000              -0.002988328               0.006682549               0.002193501              -0.001955938               0.002879473               0.000923535               0.000000000               0.000000000               0.000000000               0.000000000              -0.002828523               0.007351504               0.002028638              -0.001979630               0.003110353               0.001130723               0.000000000               0.000000000               0.000000000               0.000000000              -0.002481387               0.007516879               0.001768836              -0.001870126               0.003128976               0.001258850               0.000000000               0.000000000               0.000000000               0.000000000              -0.002111007               0.007445045               0.001526053              -0.001722255               0.003055741               0.001333487               0.000000000               0.000000000               0.000000000               0.000000000              -0.001752702               0.007257089               0.001317049              -0.001564396               0.002940470               0.001376075               0.000000000               0.000000000               0.000000000               0.000000000              -0.001406469               0.007017091               0.001136831              -0.001404559               0.002807193               0.001402634               0.000000000               0.000000000               0.000000000               0.000000000              -0.001085100               0.006753828               0.000984132              -0.001251138               0.002668299               0.001417161               0.000000000               0.000000000               0.000000000               0.000000000              -0.000797650               0.006483914               0.000851256              -0.001109606               0.002531151               0.001421546               0.000000000               0.000000000               0.000000000               0.000000000              -0.000552746               0.006217676               0.000723872              -0.000984487               0.002400700               0.001416213               0.000000000               0.000000000               0.000000000               0.000000000              -0.000352837               0.005962593               0.000594713              -0.000877636               0.002280056               0.001402420               0.000000000               0.000000000               0.000000000               0.000000000              -0.000196526               0.005717463               0.000455889              -0.000788378               0.002168595               0.001380216               0.000000000               0.000000000               0.000000000               0.000000000              -0.000094383               0.005487333               0.000315100              -0.000721308               0.002069529               0.001348220               0.000000000               0.000000000               0.000000000               0.000000000              -0.000060930               0.005283457               0.000185151              -0.000683279               0.001988894               0.001305615               0.000000000               0.000000000               0.000000000               0.000000000              -0.000091664               0.005123423               0.000078466              -0.000674800               0.001932724               0.001257924               0.000000000               0.000000000               0.000000000               0.000000000              -0.000140429               0.005042571               0.000025559              -0.000682981               0.001908500               0.001225520               0.000000000               0.000000000               0.000000000               0.000000000              -0.003750645               0.001535908               0.000292728              -0.001598478               0.001044788              -0.000553690               0.000000000               0.000000000               0.000000000               0.000000000              -0.003208013               0.003378408               0.001441886              -0.001625303               0.001667891               0.000042588               0.000000000               0.000000000               0.000000000               0.000000000              -0.003138424               0.005218231               0.002329844              -0.001829184               0.002349120               0.000519936               0.000000000               0.000000000               0.000000000               0.000000000              -0.002820877               0.006113812               0.002342518              -0.001822052               0.002645267               0.000823215               0.000000000               0.000000000               0.000000000               0.000000000              -0.002437569               0.006534043               0.002134026              -0.001730840               0.002754939               0.001024098               0.000000000               0.000000000               0.000000000               0.000000000              -0.002063554               0.006689294               0.001886057              -0.001609991               0.002766406               0.001156414               0.000000000               0.000000000               0.000000000               0.000000000              -0.001713339               0.006696648               0.001655450              -0.001479580               0.002725387               0.001245807               0.000000000               0.000000000               0.000000000               0.000000000              -0.001375601               0.006613433               0.001455487              -0.001342527               0.002651964               0.001309437               0.000000000               0.000000000               0.000000000               0.000000000              -0.001050593               0.006473879               0.001287195              -0.001203204               0.002559006               0.001355801               0.000000000               0.000000000               0.000000000               0.000000000              -0.000753870               0.006300546               0.001137651              -0.001070267               0.002456916               0.001386649               0.000000000               0.000000000               0.000000000               0.000000000              -0.000490728               0.006113966               0.000993039              -0.000948267               0.002354057               0.001405790               0.000000000               0.000000000               0.000000000               0.000000000              -0.000268577               0.005920130               0.000847223              -0.000840731               0.002253600               0.001412870               0.000000000               0.000000000               0.000000000               0.000000000              -0.000089203               0.005720003               0.000689767              -0.000748450               0.002156132               0.001407682               0.000000000               0.000000000               0.000000000               0.000000000               0.000044143               0.005517153               0.000517800              -0.000673089               0.002063396               0.001390307               0.000000000               0.000000000               0.000000000               0.000000000               0.000116359               0.005319423               0.000339130              -0.000621292               0.001980221               0.001358929               0.000000000               0.000000000               0.000000000               0.000000000               0.000108857               0.005146789               0.000164407              -0.000602526               0.001916421               0.001313895               0.000000000               0.000000000               0.000000000               0.000000000               0.000061074               0.005055268               0.000072502              -0.000609004               0.001888074               0.001279070               0.000000000               0.000000000               0.000000000               0.000000000              -0.005474946               0.000470586              -0.000284568              -0.002111926               0.000860831              -0.001251094               0.000000000               0.000000000               0.000000000               0.000000000              -0.004038958               0.002107891               0.001088726              -0.001778093               0.001295319              -0.000482774               0.000000000               0.000000000               0.000000000               0.000000000              -0.003259345               0.003712020               0.002236435              -0.001686254               0.001799411               0.000113157               0.000000000               0.000000000               0.000000000               0.000000000              -0.002714315               0.004721272               0.002413238              -0.001608024               0.002109749               0.000501725               0.000000000               0.000000000               0.000000000               0.000000000              -0.002271519               0.005338273               0.002286358              -0.001519101               0.002285773               0.000766671               0.000000000               0.000000000               0.000000000               0.000000000              -0.001883545               0.005704067               0.002070899              -0.001419335               0.002374448               0.000955113               0.000000000               0.000000000               0.000000000               0.000000000              -0.001536038               0.005904313               0.001851014              -0.001314051               0.002406101               0.001092050               0.000000000               0.000000000               0.000000000               0.000000000              -0.001214126               0.005988751               0.001652773              -0.001203889               0.002397526               0.001193637               0.000000000               0.000000000               0.000000000               0.000000000              -0.000902404               0.005995399               0.001479902              -0.001087824               0.002361054               0.001273230               0.000000000               0.000000000               0.000000000               0.000000000              -0.000605670               0.005944593               0.001324305              -0.000970198               0.002304911               0.001334712               0.000000000               0.000000000               0.000000000               0.000000000              -0.000329541               0.005858542               0.001175055              -0.000855894               0.002238126               0.001382232               0.000000000               0.000000000               0.000000000               0.000000000              -0.000079684               0.005748452               0.001024953              -0.000748437               0.002165610               0.001417173               0.000000000               0.000000000               0.000000000               0.000000000               0.000137986               0.005616913               0.000864642              -0.000650368               0.002089075               0.001438707               0.000000000               0.000000000               0.000000000               0.000000000               0.000320300               0.005465803               0.000685830              -0.000563112               0.002009620               0.001446508               0.000000000               0.000000000               0.000000000               0.000000000               0.000455587               0.005306198               0.000480700              -0.000492429               0.001932858               0.001440429               0.000000000               0.000000000               0.000000000               0.000000000               0.000520462               0.005152121               0.000249471              -0.000448841               0.001866970               0.001418129               0.000000000               0.000000000               0.000000000               0.000000000               0.000522671               0.005071039               0.000126454              -0.000437877               0.001836288               0.001398411               0.000000000               0.000000000               0.000000000               0.000000000              -0.007135762              -0.000226872              -0.000604732              -0.002647550               0.000806887              -0.001840663               0.000000000               0.000000000               0.000000000               0.000000000              -0.004872995               0.001070736               0.000736881              -0.001961213               0.001010642              -0.000950570               0.000000000               0.000000000               0.000000000               0.000000000              -0.003367035               0.002320073               0.001913214              -0.001552645               0.001290896              -0.000261749               0.000000000               0.000000000               0.000000000               0.000000000              -0.002541662               0.003336511               0.002187038              -0.001370185               0.001568886               0.000198702               0.000000000               0.000000000               0.000000000               0.000000000              -0.002009551               0.004075516               0.002143881              -0.001263019               0.001779497               0.000516478               0.000000000               0.000000000               0.000000000               0.000000000              -0.001600437               0.004605216               0.001989552              -0.001175814               0.001926994               0.000751180               0.000000000               0.000000000               0.000000000               0.000000000              -0.001252392               0.004971684               0.001809043              -0.001091106               0.002020913               0.000929807               0.000000000               0.000000000               0.000000000               0.000000000              -0.000945818               0.005210969               0.001636177              -0.001006051               0.002072322               0.001066271               0.000000000               0.000000000               0.000000000               0.000000000              -0.000656404               0.005363480               0.001480036              -0.000916585               0.002093337               0.001176752               0.000000000               0.000000000               0.000000000               0.000000000              -0.000373962               0.005447625               0.001335010              -0.000821188               0.002089586               0.001268398               0.000000000               0.000000000               0.000000000               0.000000000              -0.000094698               0.005478390               0.001195537              -0.000720309               0.002066214               0.001345905               0.000000000               0.000000000               0.000000000               0.000000000               0.000178029               0.005467301               0.001057032              -0.000616651               0.002027966               0.001411315               0.000000000               0.000000000               0.000000000               0.000000000               0.000442484               0.005420442               0.000911915              -0.000511623               0.001977337               0.001465714               0.000000000               0.000000000               0.000000000               0.000000000               0.000694644               0.005344091               0.000746611              -0.000407519               0.001917186               0.001509666               0.000000000               0.000000000               0.000000000               0.000000000               0.000925905               0.005245929               0.000545139              -0.000308526               0.001851467               0.001542941               0.000000000               0.000000000               0.000000000               0.000000000               0.001123809               0.005129085               0.000296499              -0.000219707               0.001782914               0.001563207               0.000000000               0.000000000               0.000000000               0.000000000               0.001237600               0.005075640               0.000164708              -0.000170355               0.001748648               0.001578293               0.000000000               0.000000000               0.000000000               0.000000000              -0.008528217              -0.000612838              -0.000627129              -0.003121474               0.000836206              -0.002285268               0.000000000               0.000000000               0.000000000               0.000000000              -0.005601995               0.000321939               0.000433382              -0.002140988               0.000820970              -0.001320018               0.000000000               0.000000000               0.000000000               0.000000000              -0.003466449               0.001191458               0.001395271              -0.001448849               0.000880095              -0.000568753               0.000000000               0.000000000               0.000000000               0.000000000              -0.002364754               0.002143470               0.001665500              -0.001154715               0.001099386              -0.000055328               0.000000000               0.000000000               0.000000000               0.000000000              -0.001720329               0.002944670               0.001674543              -0.001013205               0.001319281               0.000306076               0.000000000               0.000000000               0.000000000               0.000000000              -0.001281177               0.003583666               0.001584381              -0.000928398               0.001504009               0.000575611               0.000000000               0.000000000               0.000000000               0.000000000              -0.000936685               0.004071813               0.001461865              -0.000860232               0.001644001               0.000783769               0.000000000               0.000000000               0.000000000               0.000000000              -0.000641417               0.004433614               0.001337324              -0.000794732               0.001742767               0.000948035               0.000000000               0.000000000               0.000000000               0.000000000              -0.000369029               0.004708312               0.001219115              -0.000726924               0.001811729               0.001084806               0.000000000               0.000000000               0.000000000               0.000000000              -0.000104341               0.004911214               0.001107349              -0.000653028               0.001854731               0.001201702               0.000000000               0.000000000               0.000000000               0.000000000               0.000170441               0.005050225               0.000999120              -0.000567362               0.001872512               0.001305150               0.000000000               0.000000000               0.000000000               0.000000000               0.000461006               0.005136618               0.000890692              -0.000469199               0.001868589               0.001399389               0.000000000               0.000000000               0.000000000               0.000000000               0.000766515               0.005179228               0.000778064              -0.000359960               0.001846379               0.001486419               0.000000000               0.000000000               0.000000000               0.000000000               0.001089369               0.005184649               0.000647573              -0.000239568               0.001808055               0.001568487               0.000000000               0.000000000               0.000000000               0.000000000               0.001433290               0.005153317               0.000486075              -0.000106681               0.001753315               0.001646635               0.000000000               0.000000000               0.000000000               0.000000000               0.001795992               0.005085923               0.000273120               0.000037756               0.001682706               0.001720461               0.000000000               0.000000000               0.000000000               0.000000000               0.002057817               0.005073095               0.000160418               0.000137543               0.001645167               0.001782710               0.000000000               0.000000000               0.000000000               0.000000000              -0.009461314              -0.000794500              -0.000386549              -0.003448678               0.000884720              -0.002563958               0.000000000               0.000000000               0.000000000               0.000000000              -0.006100811              -0.000129743               0.000194955              -0.002271585               0.000713942              -0.001557642               0.000000000               0.000000000               0.000000000               0.000000000              -0.003539722               0.000456420               0.000732716              -0.001384447               0.000613618              -0.000770829               0.000000000               0.000000000               0.000000000               0.000000000              -0.002239009               0.001335559               0.000900393              -0.001006572               0.000780705              -0.000225867               0.000000000               0.000000000               0.000000000               0.000000000              -0.001502087               0.002152599               0.000921539              -0.000832356               0.000994977               0.000162622               0.000000000               0.000000000               0.000000000               0.000000000              -0.001029262               0.002848754               0.000882696              -0.000742066               0.001196930               0.000454864               0.000000000               0.000000000               0.000000000               0.000000000              -0.000682688               0.003415177               0.000821674              -0.000682904               0.001366015               0.000683112               0.000000000               0.000000000               0.000000000               0.000000000              -0.000397015               0.003857287               0.000757649              -0.000631040               0.001496096               0.000865056               0.000000000               0.000000000               0.000000000               0.000000000              -0.000134700               0.004207125               0.000694180              -0.000576402               0.001594495               0.001018093               0.000000000               0.000000000               0.000000000               0.000000000               0.000126362               0.004485076               0.000633000              -0.000513248               0.001666093               0.001152845               0.000000000               0.000000000               0.000000000               0.000000000               0.000399405               0.004698185               0.000575254              -0.000437496               0.001711878               0.001274382               0.000000000               0.000000000               0.000000000               0.000000000               0.000698586               0.004857830               0.000515317              -0.000345258               0.001734346               0.001389088               0.000000000               0.000000000               0.000000000               0.000000000               0.001030099               0.004968282               0.000450926              -0.000234748               0.001734327               0.001499579               0.000000000               0.000000000               0.000000000               0.000000000               0.001403261               0.005034423               0.000378721              -0.000103080               0.001712484               0.001609404               0.000000000               0.000000000               0.000000000               0.000000000               0.001832132               0.005060426               0.000288056               0.000054495               0.001668627               0.001723122               0.000000000               0.000000000               0.000000000               0.000000000               0.002329546               0.005043363               0.000162334               0.000243157               0.001600052               0.001843209               0.000000000               0.000000000               0.000000000               0.000000000               0.002719717               0.005068087               0.000096653               0.000386379               0.001560552               0.001946932               0.000000000               0.000000000               0.000000000               0.000000000              -0.009791530              -0.000851653              -0.000000000              -0.003565365               0.000904565              -0.002660800               0.000000000               0.000000000               0.000000000               0.000000000              -0.006278120              -0.000285696              -0.000000000              -0.002318581               0.000677624              -0.001640958               0.000000000               0.000000000               0.000000000               0.000000000              -0.003567315               0.000199671               0.000000000              -0.001362701               0.000520787              -0.000841914               0.000000000               0.000000000               0.000000000               0.000000000              -0.002192175               0.001053191              -0.000000000              -0.000953713               0.000668963              -0.000284750               0.000000000               0.000000000               0.000000000               0.000000000              -0.001419059               0.001870620              -0.000000000              -0.000765973               0.000878858               0.000112885               0.000000000               0.000000000               0.000000000               0.000000000              -0.000932561               0.002579658              -0.000000000              -0.000672166               0.001083933               0.000411767               0.000000000               0.000000000               0.000000000               0.000000000              -0.000583844               0.003172145               0.000000000              -0.000615458               0.001262524               0.000647065               0.000000000               0.000000000               0.000000000               0.000000000              -0.000300982               0.003646619               0.000000000              -0.000568694               0.001405092               0.000836398               0.000000000               0.000000000               0.000000000               0.000000000              -0.000042588               0.004019828              -0.000000000              -0.000518448               0.001512745               0.000994297               0.000000000               0.000000000               0.000000000               0.000000000               0.000219230               0.004317981               0.000000000              -0.000457535               0.001591824               0.001134289               0.000000000               0.000000000               0.000000000               0.000000000               0.000494327               0.004559179              -0.000000000              -0.000384524               0.001647886               0.001263362               0.000000000               0.000000000               0.000000000               0.000000000               0.000794295               0.004748286              -0.000000000              -0.000295674               0.001681304               0.001385630               0.000000000               0.000000000               0.000000000               0.000000000               0.001134406               0.004882505              -0.000000000              -0.000184910               0.001689122               0.001504212               0.000000000               0.000000000               0.000000000               0.000000000               0.001525911               0.004969764              -0.000000000              -0.000049004               0.001672906               0.001623902               0.000000000               0.000000000               0.000000000               0.000000000               0.001984474               0.005021336               0.000000000               0.000116509               0.001634925               0.001751435               0.000000000               0.000000000               0.000000000               0.000000000               0.002534027               0.005026861              -0.000000000               0.000321899               0.001568304               0.001890203               0.000000000               0.000000000               0.000000000               0.000000000               0.002975093               0.005065323              -0.000000000               0.000482490               0.001527594               0.002010084               0.000000000               0.000000000               0.000000000               0.000000000               0.002048673               0.022229938              -0.000000000              -0.002010485               0.008080067               0.006069582               0.000000000               0.000000000               0.000000000               0.000000000               0.002051388               0.017453355              -0.000000000              -0.001412395               0.006288525               0.004876130               0.000000000               0.000000000               0.000000000               0.000000000               0.002707582               0.013588101               0.000000000              -0.000683168               0.004757044               0.004073877               0.000000000               0.000000000               0.000000000               0.000000000               0.002614906               0.011431752              -0.000000000              -0.000448378               0.003960005               0.003511627               0.000000000               0.000000000               0.000000000               0.000000000               0.002296969               0.010097877               0.000000000              -0.000400870               0.003499549               0.003098678               0.000000000               0.000000000               0.000000000               0.000000000               0.001935499               0.009193057               0.000000000              -0.000423319               0.003205428               0.002782109               0.000000000               0.000000000               0.000000000               0.000000000               0.001592872               0.008516035              -0.000000000              -0.000467176               0.002994375               0.002527199               0.000000000               0.000000000               0.000000000               0.000000000               0.001284589               0.007963725               0.000000000              -0.000513744               0.002825796               0.002312053               0.000000000               0.000000000               0.000000000               0.000000000               0.001010548               0.007488579              -0.000000000              -0.000557115               0.002681873               0.002124758               0.000000000               0.000000000               0.000000000               0.000000000               0.000768977               0.007060872              -0.000000000              -0.000594241               0.002551681               0.001957440               0.000000000               0.000000000               0.000000000               0.000000000               0.000556082               0.006657542              -0.000000000              -0.000623661               0.002427045               0.001803385               0.000000000               0.000000000               0.000000000               0.000000000               0.000381233               0.006264639               0.000000000              -0.000640116               0.002301564               0.001661448               0.000000000               0.000000000               0.000000000               0.000000000               0.000243566               0.005862076              -0.000000000              -0.000641421               0.002167813               0.001526392               0.000000000               0.000000000               0.000000000               0.000000000               0.000132494               0.005432028              -0.000000000              -0.000629317               0.002020430               0.001391114               0.000000000               0.000000000               0.000000000               0.000000000               0.000054549               0.004958486               0.000000000              -0.000599353               0.001852596               0.001253243               0.000000000               0.000000000               0.000000000               0.000000000               0.000014667               0.004418895               0.000000000              -0.000546860               0.001655237               0.001108377               0.000000000               0.000000000               0.000000000               0.000000000              -0.000039925               0.004002689               0.000000000              -0.000515307               0.001505985               0.000990678               0.000000000               0.000000000               0.000000000               0.000000000               0.002128741               0.021783975              -0.001526171              -0.001924714               0.007902824               0.005978109               0.000000000               0.000000000               0.000000000               0.000000000               0.002021447               0.017162869              -0.000771837              -0.001387313               0.006183337               0.004796024               0.000000000               0.000000000               0.000000000               0.000000000               0.002560858               0.013466800              -0.000017782              -0.000723026               0.004729897               0.004006871               0.000000000               0.000000000               0.000000000               0.000000000               0.002420624               0.011397374               0.000302450              -0.000516936               0.003971399               0.003454462               0.000000000               0.000000000               0.000000000               0.000000000               0.002087588               0.010107519               0.000433514              -0.000480593               0.003529337               0.003048744               0.000000000               0.000000000               0.000000000               0.000000000               0.001726991               0.009224290               0.000474765              -0.000505413               0.003243204               0.002737790               0.000000000               0.000000000               0.000000000               0.000000000               0.001395991               0.008558960               0.000471749              -0.000546372               0.003035082               0.002488710               0.000000000               0.000000000               0.000000000               0.000000000               0.001110076               0.008018434               0.000452919              -0.000586024               0.002868126               0.002282102               0.000000000               0.000000000               0.000000000               0.000000000               0.000864671               0.007551401               0.000432014              -0.000619672               0.002723666               0.002103994               0.000000000               0.000000000               0.000000000               0.000000000               0.000652787               0.007129118               0.000410998              -0.000646343               0.002591797               0.001945453               0.000000000               0.000000000               0.000000000               0.000000000               0.000468422               0.006730060               0.000390621              -0.000665598               0.002465197               0.001799599               0.000000000               0.000000000               0.000000000               0.000000000               0.000314282               0.006341546               0.000366003              -0.000674836               0.002338773               0.001663937               0.000000000               0.000000000               0.000000000               0.000000000               0.000191820               0.005949335               0.000332682              -0.000671733               0.002207003               0.001535270               0.000000000               0.000000000               0.000000000               0.000000000               0.000096085               0.005539370               0.000288756              -0.000656388               0.002065234               0.001408846               0.000000000               0.000000000               0.000000000               0.000000000               0.000031403               0.005101544               0.000224650              -0.000625916               0.001909136               0.001283221               0.000000000               0.000000000               0.000000000               0.000000000               0.000002881               0.004620672               0.000128354              -0.000576502               0.001732376               0.001155874               0.000000000               0.000000000               0.000000000               0.000000000              -0.000039612               0.004260601               0.000077344              -0.000547428               0.001602662               0.001055234               0.000000000               0.000000000               0.000000000               0.000000000               0.002322272               0.020502712              -0.002838436              -0.001691984               0.007398163               0.005706179               0.000000000               0.000000000               0.000000000               0.000000000               0.001907705               0.016335952              -0.001435705              -0.001326602               0.005887463               0.004560862               0.000000000               0.000000000               0.000000000               0.000000000               0.002120570               0.013116801              -0.000049655              -0.000844384               0.004653685               0.003809300               0.000000000               0.000000000               0.000000000               0.000000000               0.001863267               0.011288570               0.000518887              -0.000712345               0.004000267               0.003287923               0.000000000               0.000000000               0.000000000               0.000000000               0.001513145               0.010123470               0.000744553              -0.000698003               0.003607124               0.002909121               0.000000000               0.000000000               0.000000000               0.000000000               0.001179230               0.009303571               0.000812620              -0.000720733               0.003341404               0.002620670               0.000000000               0.000000000               0.000000000               0.000000000               0.000895118               0.008673285               0.000806781              -0.000748490               0.003140562               0.002392073               0.000000000               0.000000000               0.000000000               0.000000000               0.000664706               0.008153145               0.000773123              -0.000769877               0.002974313               0.002204437               0.000000000               0.000000000               0.000000000               0.000000000               0.000479974               0.007697458               0.000731873              -0.000782190               0.002826524               0.002044334               0.000000000               0.000000000               0.000000000               0.000000000               0.000333239               0.007279269               0.000689036              -0.000784942               0.002688046               0.001903104               0.000000000               0.000000000               0.000000000               0.000000000               0.000214045               0.006883622               0.000645783              -0.000780184               0.002554579               0.001774395               0.000000000               0.000000000               0.000000000               0.000000000               0.000119441               0.006503568               0.000596666              -0.000768154               0.002423886               0.001655732               0.000000000               0.000000000               0.000000000               0.000000000               0.000054118               0.006134214               0.000534717              -0.000746481               0.002293544               0.001547064               0.000000000               0.000000000               0.000000000               0.000000000               0.000008735               0.005768949               0.000456973              -0.000717841               0.002162244               0.001444403               0.000000000               0.000000000               0.000000000               0.000000000              -0.000016464               0.005407318               0.000349882              -0.000682087               0.002029784               0.001347697               0.000000000               0.000000000               0.000000000               0.000000000              -0.000017057               0.005050607               0.000196911              -0.000637721               0.001896092               0.001258372               0.000000000               0.000000000               0.000000000               0.000000000              -0.000036001               0.004808741               0.000116572              -0.000614591               0.001807761               0.001193170               0.000000000               0.000000000               0.000000000               0.000000000               0.002522015               0.018550731              -0.003784396              -0.001373085               0.006641209               0.005268125               0.000000000               0.000000000               0.000000000               0.000000000               0.001678014               0.015095186              -0.001922821              -0.001257641               0.005450891               0.004193251               0.000000000               0.000000000               0.000000000               0.000000000               0.001437481               0.012591230              -0.000108139              -0.001034846               0.004541983               0.003507138               0.000000000               0.000000000               0.000000000               0.000000000               0.001047211               0.011108397               0.000597376              -0.000995843               0.004034710               0.003038867               0.000000000               0.000000000               0.000000000               0.000000000               0.000703379               0.010113484               0.000860767              -0.001000416               0.003704600               0.002704183               0.000000000               0.000000000               0.000000000               0.000000000               0.000433857               0.009376382               0.000931994              -0.001009349               0.003461879               0.002452530               0.000000000               0.000000000               0.000000000               0.000000000               0.000235784               0.008785599               0.000915456              -0.001009779               0.003265097               0.002255318               0.000000000               0.000000000               0.000000000               0.000000000               0.000092586               0.008280292               0.000868206              -0.001000314               0.003093508               0.002093193               0.000000000               0.000000000               0.000000000               0.000000000              -0.000007615               0.007828896               0.000812518              -0.000981466               0.002936761               0.001955296               0.000000000               0.000000000               0.000000000               0.000000000              -0.000075736               0.007408614               0.000756430              -0.000954476               0.002787672               0.001833196               0.000000000               0.000000000               0.000000000               0.000000000              -0.000119037               0.007016234               0.000701068              -0.000921666               0.002645943               0.001724277               0.000000000               0.000000000               0.000000000               0.000000000              -0.000139046               0.006645673               0.000637897              -0.000882850               0.002509485               0.001626636               0.000000000               0.000000000               0.000000000               0.000000000              -0.000136239               0.006296969               0.000560167              -0.000838209               0.002378371               0.001540163               0.000000000               0.000000000               0.000000000               0.000000000              -0.000120865               0.005972828               0.000466847              -0.000791926               0.002254898               0.001462972               0.000000000               0.000000000               0.000000000               0.000000000              -0.000091293               0.005679126               0.000347014              -0.000744124               0.002141064               0.001396940               0.000000000               0.000000000               0.000000000               0.000000000              -0.000047597               0.005426905               0.000189913              -0.000696210               0.002041021               0.001344810               0.000000000               0.000000000               0.000000000               0.000000000              -0.000039943               0.005277172               0.000110590              -0.000674623               0.001983914               0.001309291               0.000000000               0.000000000               0.000000000               0.000000000               0.002597504               0.016161216              -0.004280709              -0.001046089               0.005735714               0.004689625               0.000000000               0.000000000               0.000000000               0.000000000               0.001307425               0.013606480              -0.002208334              -0.001210524               0.004938956               0.003728432               0.000000000               0.000000000               0.000000000               0.000000000               0.000595208               0.011960919              -0.000221009              -0.001271909               0.004410903               0.003138994               0.000000000               0.000000000               0.000000000               0.000000000               0.000112355               0.010860579               0.000501451              -0.001315436               0.004058636               0.002743199               0.000000000               0.000000000               0.000000000               0.000000000              -0.000177806               0.010042072               0.000756230              -0.001321933               0.003787968               0.002466035               0.000000000               0.000000000               0.000000000               0.000000000              -0.000342883               0.009379463               0.000819721              -0.001301011               0.003560127               0.002259116               0.000000000               0.000000000               0.000000000               0.000000000              -0.000428618               0.008811548               0.000799821              -0.001262172               0.003357877               0.002095705               0.000000000               0.000000000               0.000000000               0.000000000              -0.000460931               0.008309142               0.000752089              -0.001211489               0.003173516               0.001962027               0.000000000               0.000000000               0.000000000               0.000000000              -0.000459040               0.007850632               0.000696038              -0.001153466               0.003001340               0.001847874               0.000000000               0.000000000               0.000000000               0.000000000              -0.000437797               0.007426690               0.000641622              -0.001092508               0.002839708               0.001747200               0.000000000               0.000000000               0.000000000               0.000000000              -0.000405772               0.007036861               0.000588673              -0.001031770               0.002689520               0.001657750               0.000000000               0.000000000               0.000000000               0.000000000              -0.000363552               0.006677800               0.000525391              -0.000971055               0.002549596               0.001578541               0.000000000               0.000000000               0.000000000               0.000000000              -0.000305169               0.006352596               0.000450635              -0.000908511               0.002420348               0.001511837               0.000000000               0.000000000               0.000000000               0.000000000              -0.000233971               0.006063715               0.000365217              -0.000845701               0.002303119               0.001457417               0.000000000               0.000000000               0.000000000               0.000000000              -0.000157471               0.005814531               0.000262457              -0.000785866               0.002200113               0.001414247               0.000000000               0.000000000               0.000000000               0.000000000              -0.000077892               0.005619940               0.000138035              -0.000731700               0.002117195               0.001385494               0.000000000               0.000000000               0.000000000               0.000000000              -0.000051213               0.005516690               0.000078472              -0.000708789               0.002075141               0.001366352               0.000000000               0.000000000               0.000000000               0.000000000               0.002434597               0.013571573              -0.004331113              -0.000783475               0.004784969               0.004001495               0.000000000               0.000000000               0.000000000               0.000000000               0.000788214               0.012029161              -0.002319199              -0.001208063               0.004412368               0.003204304               0.000000000               0.000000000               0.000000000               0.000000000              -0.000309907               0.011282620              -0.000413668              -0.001526539               0.004269682               0.002743143               0.000000000               0.000000000               0.000000000               0.000000000              -0.000795032               0.010539929               0.000241900              -0.001615624               0.004051816               0.002436192               0.000000000               0.000000000               0.000000000               0.000000000              -0.000980012               0.009864788               0.000469931              -0.001600599               0.003821763               0.002221164               0.000000000               0.000000000               0.000000000               0.000000000              -0.001014341               0.009253995               0.000531630              -0.001537123               0.003597008               0.002059885               0.000000000               0.000000000               0.000000000               0.000000000              -0.000972129               0.008698510               0.000524082              -0.001451859               0.003383427               0.001931569               0.000000000               0.000000000               0.000000000               0.000000000              -0.000891816               0.008192127               0.000491440              -0.001358443               0.003183496               0.001825053               0.000000000               0.000000000               0.000000000               0.000000000              -0.000793961               0.007725141               0.000451026              -0.001263375               0.002996146               0.001732771               0.000000000               0.000000000               0.000000000               0.000000000              -0.000690333               0.007297147               0.000414143              -0.001171015               0.002822697               0.001651681               0.000000000               0.000000000               0.000000000               0.000000000              -0.000588843               0.006909834               0.000382280              -0.001084543               0.002664769               0.001580227               0.000000000               0.000000000               0.000000000               0.000000000              -0.000487445               0.006566108               0.000341218              -0.001003553               0.002523198               0.001519645               0.000000000               0.000000000               0.000000000               0.000000000              -0.000382071               0.006266641               0.000287631              -0.000926605               0.002397728               0.001471123               0.000000000               0.000000000               0.000000000               0.000000000              -0.000273383               0.006006876               0.000224616              -0.000853376               0.002286730               0.001433355               0.000000000               0.000000000               0.000000000               0.000000000              -0.000170294               0.005790563               0.000153853              -0.000787679               0.002192728               0.001405049               0.000000000               0.000000000               0.000000000               0.000000000              -0.000079041               0.005633361               0.000078543              -0.000733809               0.002122371               0.001388562               0.000000000               0.000000000               0.000000000               0.000000000              -0.000047853               0.005557019               0.000046455              -0.000712571               0.002089845               0.001377274               0.000000000               0.000000000               0.000000000               0.000000000               0.001974284               0.011003102              -0.004008398              -0.000635034               0.003879341               0.003244307               0.000000000               0.000000000               0.000000000               0.000000000               0.000154090               0.010491641              -0.002305112              -0.001253670               0.003915068               0.002661398               0.000000000               0.000000000               0.000000000               0.000000000              -0.001174233               0.010576141              -0.000687312              -0.001762351               0.004112795               0.002350445               0.000000000               0.000000000               0.000000000               0.000000000              -0.001566554               0.010123459              -0.000139803              -0.001852885               0.003992081               0.002139196               0.000000000               0.000000000               0.000000000               0.000000000              -0.001603435               0.009559931               0.000068170              -0.001796275               0.003785370               0.001989095               0.000000000               0.000000000               0.000000000               0.000000000              -0.001498012               0.008991212               0.000145937              -0.001685652               0.003558925               0.001873273               0.000000000               0.000000000               0.000000000               0.000000000              -0.001331319               0.008447777               0.000165578              -0.001555213               0.003334302               0.001779089               0.000000000               0.000000000               0.000000000               0.000000000              -0.001143758               0.007941609               0.000164574              -0.001421607               0.003121046               0.001699439               0.000000000               0.000000000               0.000000000               0.000000000              -0.000962324               0.007474445               0.000157208              -0.001295174               0.002923182               0.001628008               0.000000000               0.000000000               0.000000000               0.000000000              -0.000793224               0.007051571               0.000155649              -0.001178902               0.002743468               0.001564565               0.000000000               0.000000000               0.000000000               0.000000000              -0.000636333               0.006677352               0.000159968              -0.001073291               0.002583526               0.001510234               0.000000000               0.000000000               0.000000000               0.000000000              -0.000491888               0.006350302               0.000154600              -0.000978243               0.002442827               0.001464584               0.000000000               0.000000000               0.000000000               0.000000000              -0.000356361               0.006068021               0.000131986              -0.000892136               0.002320032               0.001427896               0.000000000               0.000000000               0.000000000               0.000000000              -0.000230366               0.005827867               0.000097715              -0.000814869               0.002214226               0.001399357               0.000000000               0.000000000               0.000000000               0.000000000              -0.000125470               0.005639396               0.000062762              -0.000751974               0.002130438               0.001378464               0.000000000               0.000000000               0.000000000               0.000000000              -0.000050838               0.005511949               0.000030698              -0.000708056               0.002073317               0.001365261               0.000000000               0.000000000               0.000000000               0.000000000              -0.000028935               0.005452738               0.000019714              -0.000692441               0.002048375               0.001355934               0.000000000               0.000000000               0.000000000               0.000000000               0.001239021               0.008627094              -0.003408746              -0.000613756               0.003080253               0.002466498               0.000000000               0.000000000               0.000000000               0.000000000              -0.000556248               0.009078590              -0.002212540              -0.001343415               0.003473971               0.002130556               0.000000000               0.000000000               0.000000000               0.000000000              -0.001913571               0.009833203              -0.001030510              -0.001946735               0.003926613               0.001979878               0.000000000               0.000000000               0.000000000               0.000000000              -0.002128296               0.009605106              -0.000583070              -0.001998744               0.003867918               0.001869174               0.000000000               0.000000000               0.000000000               0.000000000              -0.001995958               0.009141404              -0.000371274              -0.001891155               0.003677489               0.001786334               0.000000000               0.000000000               0.000000000               0.000000000              -0.001760310               0.008613886              -0.000262640              -0.001736848               0.003450216               0.001713368               0.000000000               0.000000000               0.000000000               0.000000000              -0.001492771               0.008088369              -0.000201488              -0.001570831               0.003219706               0.001648875               0.000000000               0.000000000               0.000000000               0.000000000              -0.001221827               0.007592616              -0.000154609              -0.001407258               0.002999933               0.001592674               0.000000000               0.000000000               0.000000000               0.000000000              -0.000973487               0.007139691              -0.000113560              -0.001257516               0.002799045               0.001541529               0.000000000               0.000000000               0.000000000               0.000000000              -0.000758405               0.006737295              -0.000072344              -0.001126561               0.002621263               0.001494702               0.000000000               0.000000000               0.000000000               0.000000000              -0.000570409               0.006383377              -0.000030922              -0.001011823               0.002465045               0.001453223               0.000000000               0.000000000               0.000000000               0.000000000              -0.000403176               0.006070395              -0.000001167              -0.000909988               0.002326774               0.001416786               0.000000000               0.000000000               0.000000000               0.000000000              -0.000260834               0.005796247               0.000008688              -0.000822342               0.002206177               0.001383835               0.000000000               0.000000000               0.000000000               0.000000000              -0.000148699               0.005573732               0.000005588              -0.000752477               0.002108718               0.001356241               0.000000000               0.000000000               0.000000000               0.000000000              -0.000072785               0.005413821               0.000003289              -0.000704020               0.002039262               0.001335242               0.000000000               0.000000000               0.000000000               0.000000000              -0.000028436               0.005310181               0.000003137              -0.000674434               0.001994854               0.001320420               0.000000000               0.000000000               0.000000000               0.000000000              -0.000016014               0.005261336               0.000006066              -0.000663671               0.001974985               0.001311314               0.000000000               0.000000000               0.000000000               0.000000000               0.000341093               0.006609434              -0.002649400              -0.000698270               0.002435878               0.001737609               0.000000000               0.000000000               0.000000000               0.000000000              -0.001245189               0.007803221              -0.002091081              -0.001442346               0.003081829               0.001639483               0.000000000               0.000000000               0.000000000               0.000000000              -0.002476547               0.009086205              -0.001431703              -0.002064476               0.003716863               0.001652387               0.000000000               0.000000000               0.000000000               0.000000000              -0.002501425               0.009092268              -0.001049053              -0.002074563               0.003722246               0.001647684               0.000000000               0.000000000               0.000000000               0.000000000              -0.002236529               0.008745488              -0.000813453              -0.001931880               0.003559093               0.001627214               0.000000000               0.000000000               0.000000000               0.000000000              -0.001898210               0.008286571              -0.000662440              -0.001747646               0.003344711               0.001597065               0.000000000               0.000000000               0.000000000               0.000000000              -0.001549709               0.007802955              -0.000549155              -0.001556507               0.003119794               0.001563288               0.000000000               0.000000000               0.000000000               0.000000000              -0.001219201               0.007339137              -0.000450317              -0.001374589               0.002904551               0.001529962               0.000000000               0.000000000               0.000000000               0.000000000              -0.000926416               0.006914698              -0.000362282              -0.001211740               0.002708790               0.001497049               0.000000000               0.000000000               0.000000000               0.000000000              -0.000676746               0.006538125              -0.000284378              -0.001071043               0.002536368               0.001465325               0.000000000               0.000000000               0.000000000               0.000000000              -0.000466560               0.006198685              -0.000211899              -0.000949793               0.002382806               0.001433012               0.000000000               0.000000000               0.000000000               0.000000000              -0.000292154               0.005885302              -0.000148330              -0.000845219               0.002243487               0.001398269               0.000000000               0.000000000               0.000000000               0.000000000              -0.000165310               0.005606908              -0.000097851              -0.000762853               0.002123235               0.001360382               0.000000000               0.000000000               0.000000000               0.000000000              -0.000091944               0.005390652              -0.000060246              -0.000708309               0.002032969               0.001324660               0.000000000               0.000000000               0.000000000               0.000000000              -0.000062761               0.005243967              -0.000031340              -0.000679030               0.001974315               0.001295285               0.000000000               0.000000000               0.000000000               0.000000000              -0.000061909               0.005145631              -0.000009685              -0.000666418               0.001937332               0.001270915               0.000000000               0.000000000               0.000000000               0.000000000              -0.000064937               0.005099004               0.000000493              -0.000661725               0.001920226               0.001258501               0.000000000               0.000000000               0.000000000               0.000000000              -0.000735325               0.004715444              -0.001840910              -0.000865176               0.001860191               0.000995014               0.000000000               0.000000000               0.000000000               0.000000000              -0.001812742               0.006312634              -0.001950507              -0.001468855               0.002593808               0.001124953               0.000000000               0.000000000               0.000000000               0.000000000              -0.002782381               0.007977852              -0.001857944              -0.002040620               0.003339464               0.001298844               0.000000000               0.000000000               0.000000000               0.000000000              -0.002709480               0.008325468              -0.001552091              -0.002056734               0.003460706               0.001403972               0.000000000               0.000000000               0.000000000               0.000000000              -0.002389341               0.008213923              -0.001287743              -0.001922739               0.003378859               0.001456121               0.000000000               0.000000000               0.000000000               0.000000000              -0.002024214               0.007925589              -0.001085398              -0.001749775               0.003225095               0.001475320               0.000000000               0.000000000               0.000000000               0.000000000              -0.001661825               0.007565403              -0.000919558              -0.001568856               0.003044728               0.001475872               0.000000000               0.000000000               0.000000000               0.000000000              -0.001317146               0.007195546              -0.000775012              -0.001393370               0.002862948               0.001469578               0.000000000               0.000000000               0.000000000               0.000000000              -0.001008370               0.006837735              -0.000649253              -0.001232853               0.002690173               0.001457321               0.000000000               0.000000000               0.000000000               0.000000000              -0.000737896               0.006503750              -0.000540514              -0.001089677               0.002531121               0.001441443               0.000000000               0.000000000               0.000000000               0.000000000              -0.000512325               0.006189358              -0.000438752              -0.000965789               0.002385028               0.001419239               0.000000000               0.000000000               0.000000000               0.000000000              -0.000328197               0.005897566              -0.000337940              -0.000860268               0.002252592               0.001392324               0.000000000               0.000000000               0.000000000               0.000000000              -0.000192084               0.005629264              -0.000237070              -0.000775688               0.002134965               0.001359277               0.000000000               0.000000000               0.000000000               0.000000000              -0.000116302               0.005397500              -0.000148482              -0.000718299               0.002038582               0.001320283               0.000000000               0.000000000               0.000000000               0.000000000              -0.000098540               0.005217987              -0.000076276              -0.000689199               0.001969045               0.001279845               0.000000000               0.000000000               0.000000000               0.000000000              -0.000121924               0.005092315              -0.000024891              -0.000682259               0.001924841               0.001242582               0.000000000               0.000000000               0.000000000               0.000000000              -0.000146543               0.005034918              -0.000003275              -0.000684317               0.001906395               0.001222078               0.000000000               0.000000000               0.000000000               0.000000000              -0.002133769               0.002978397              -0.001034880              -0.001172461               0.001383609               0.000211148               0.000000000               0.000000000               0.000000000               0.000000000              -0.002451777               0.004805854              -0.001741844              -0.001520145               0.002108650               0.000588505               0.000000000               0.000000000               0.000000000               0.000000000              -0.002988328               0.006682549              -0.002193501              -0.001955938               0.002879473               0.000923535               0.000000000               0.000000000               0.000000000               0.000000000              -0.002828523               0.007351504              -0.002028638              -0.001979630               0.003110353               0.001130723               0.000000000               0.000000000               0.000000000               0.000000000              -0.002481387               0.007516879              -0.001768836              -0.001870126               0.003128976               0.001258850               0.000000000               0.000000000               0.000000000               0.000000000              -0.002111007               0.007445045              -0.001526053              -0.001722255               0.003055741               0.001333487               0.000000000               0.000000000               0.000000000               0.000000000              -0.001752702               0.007257089              -0.001317049              -0.001564396               0.002940470               0.001376075               0.000000000               0.000000000               0.000000000               0.000000000              -0.001406469               0.007017091              -0.001136831              -0.001404559               0.002807193               0.001402634               0.000000000               0.000000000               0.000000000               0.000000000              -0.001085100               0.006753828              -0.000984132              -0.001251138               0.002668299               0.001417161               0.000000000               0.000000000               0.000000000               0.000000000              -0.000797650               0.006483914              -0.000851256              -0.001109606               0.002531151               0.001421546               0.000000000               0.000000000               0.000000000               0.000000000              -0.000552746               0.006217676              -0.000723872              -0.000984487               0.002400700               0.001416213               0.000000000               0.000000000               0.000000000               0.000000000              -0.000352837               0.005962593              -0.000594713              -0.000877636               0.002280056               0.001402420               0.000000000               0.000000000               0.000000000               0.000000000              -0.000196526               0.005717463              -0.000455889              -0.000788378               0.002168595               0.001380216               0.000000000               0.000000000               0.000000000               0.000000000              -0.000094383               0.005487333              -0.000315100              -0.000721308               0.002069529               0.001348220               0.000000000               0.000000000               0.000000000               0.000000000              -0.000060930               0.005283457              -0.000185151              -0.000683279               0.001988894               0.001305615               0.000000000               0.000000000               0.000000000               0.000000000              -0.000091664               0.005123423              -0.000078466              -0.000674800               0.001932724               0.001257924               0.000000000               0.000000000               0.000000000               0.000000000              -0.000140429               0.005042571              -0.000025559              -0.000682981               0.001908500               0.001225520               0.000000000               0.000000000               0.000000000               0.000000000              -0.003750645               0.001535908              -0.000292728              -0.001598478               0.001044788              -0.000553690               0.000000000               0.000000000               0.000000000               0.000000000              -0.003208013               0.003378408              -0.001441886              -0.001625303               0.001667891               0.000042588               0.000000000               0.000000000               0.000000000               0.000000000              -0.003138424               0.005218231              -0.002329844              -0.001829184               0.002349120               0.000519936               0.000000000               0.000000000               0.000000000               0.000000000              -0.002820877               0.006113812              -0.002342518              -0.001822052               0.002645267               0.000823215               0.000000000               0.000000000               0.000000000               0.000000000              -0.002437569               0.006534043              -0.002134026              -0.001730840               0.002754939               0.001024098               0.000000000               0.000000000               0.000000000               0.000000000              -0.002063554               0.006689294              -0.001886057              -0.001609991               0.002766406               0.001156414               0.000000000               0.000000000               0.000000000               0.000000000              -0.001713339               0.006696648              -0.001655450              -0.001479580               0.002725387               0.001245807               0.000000000               0.000000000               0.000000000               0.000000000              -0.001375601               0.006613433              -0.001455487              -0.001342527               0.002651964               0.001309437               0.000000000               0.000000000               0.000000000               0.000000000              -0.001050593               0.006473879              -0.001287195              -0.001203204               0.002559006               0.001355801               0.000000000               0.000000000               0.000000000               0.000000000              -0.000753870               0.006300546              -0.001137651              -0.001070267               0.002456916               0.001386649               0.000000000               0.000000000               0.000000000               0.000000000              -0.000490728               0.006113966              -0.000993039              -0.000948267               0.002354057               0.001405790               0.000000000               0.000000000               0.000000000               0.000000000              -0.000268577               0.005920130              -0.000847223              -0.000840731               0.002253600               0.001412870               0.000000000               0.000000000               0.000000000               0.000000000              -0.000089203               0.005720003              -0.000689767              -0.000748450               0.002156132               0.001407682               0.000000000               0.000000000               0.000000000               0.000000000               0.000044143               0.005517153              -0.000517800              -0.000673089               0.002063396               0.001390307               0.000000000               0.000000000               0.000000000               0.000000000               0.000116359               0.005319423              -0.000339130              -0.000621292               0.001980221               0.001358929               0.000000000               0.000000000               0.000000000               0.000000000               0.000108857               0.005146789              -0.000164407              -0.000602526               0.001916421               0.001313895               0.000000000               0.000000000               0.000000000               0.000000000               0.000061074               0.005055268              -0.000072502              -0.000609004               0.001888074               0.001279070               0.000000000               0.000000000               0.000000000               0.000000000              -0.005474946               0.000470586               0.000284568              -0.002111926               0.000860831              -0.001251094               0.000000000               0.000000000               0.000000000               0.000000000              -0.004038958               0.002107891              -0.001088726              -0.001778093               0.001295319              -0.000482774               0.000000000               0.000000000               0.000000000               0.000000000              -0.003259345               0.003712020              -0.002236435              -0.001686254               0.001799411               0.000113157               0.000000000               0.000000000               0.000000000               0.000000000              -0.002714315               0.004721272              -0.002413238              -0.001608024               0.002109749               0.000501725               0.000000000               0.000000000               0.000000000               0.000000000              -0.002271519               0.005338273              -0.002286358              -0.001519101               0.002285773               0.000766671               0.000000000               0.000000000               0.000000000               0.000000000              -0.001883545               0.005704067              -0.002070899              -0.001419335               0.002374448               0.000955113               0.000000000               0.000000000               0.000000000               0.000000000              -0.001536038               0.005904313              -0.001851014              -0.001314051               0.002406101               0.001092050               0.000000000               0.000000000               0.000000000               0.000000000              -0.001214126               0.005988751              -0.001652773              -0.001203889               0.002397526               0.001193637               0.000000000               0.000000000               0.000000000               0.000000000              -0.000902404               0.005995399              -0.001479902              -0.001087824               0.002361054               0.001273230               0.000000000               0.000000000               0.000000000               0.000000000              -0.000605670               0.005944593              -0.001324305              -0.000970198               0.002304911               0.001334712               0.000000000               0.000000000               0.000000000               0.000000000              -0.000329541               0.005858542              -0.001175055              -0.000855894               0.002238126               0.001382232               0.000000000               0.000000000               0.000000000               0.000000000              -0.000079684               0.005748452              -0.001024953              -0.000748437               0.002165610               0.001417173               0.000000000               0.000000000               0.000000000               0.000000000               0.000137986               0.005616913              -0.000864642              -0.000650368               0.002089075               0.001438707               0.000000000               0.000000000               0.000000000               0.000000000               0.000320300               0.005465803              -0.000685830              -0.000563112               0.002009620               0.001446508               0.000000000               0.000000000               0.000000000               0.000000000               0.000455587               0.005306198              -0.000480700              -0.000492429               0.001932858               0.001440429               0.000000000               0.000000000               0.000000000               0.000000000               0.000520462               0.005152121              -0.000249471              -0.000448841               0.001866970               0.001418129               0.000000000               0.000000000               0.000000000               0.000000000               0.000522671               0.005071039              -0.000126454              -0.000437877               0.001836288               0.001398411               0.000000000               0.000000000               0.000000000               0.000000000              -0.007135762              -0.000226872               0.000604732              -0.002647550               0.000806887              -0.001840663               0.000000000               0.000000000               0.000000000               0.000000000              -0.004872995               0.001070736              -0.000736881              -0.001961213               0.001010642              -0.000950570               0.000000000               0.000000000               0.000000000               0.000000000              -0.003367035               0.002320073              -0.001913214              -0.001552645               0.001290896              -0.000261749               0.000000000               0.000000000               0.000000000               0.000000000              -0.002541662               0.003336511              -0.002187038              -0.001370185               0.001568886               0.000198702               0.000000000               0.000000000               0.000000000               0.000000000              -0.002009551               0.004075516              -0.002143881              -0.001263019               0.001779497               0.000516478               0.000000000               0.000000000               0.000000000               0.000000000              -0.001600437               0.004605216              -0.001989552              -0.001175814               0.001926994               0.000751180               0.000000000               0.000000000               0.000000000               0.000000000              -0.001252392               0.004971684              -0.001809043              -0.001091106               0.002020913               0.000929807               0.000000000               0.000000000               0.000000000               0.000000000              -0.000945818               0.005210969              -0.001636177              -0.001006051               0.002072322               0.001066271               0.000000000               0.000000000               0.000000000               0.000000000              -0.000656404               0.005363480              -0.001480036              -0.000916585               0.002093337               0.001176752               0.000000000               0.000000000               0.000000000               0.000000000              -0.000373962               0.005447625              -0.001335010              -0.000821188               0.002089586               0.001268398               0.000000000               0.000000000               0.000000000               0.000000000              -0.000094698               0.005478390              -0.001195537              -0.000720309               0.002066214               0.001345905               0.000000000               0.000000000               0.000000000               0.000000000               0.000178029               0.005467301              -0.001057032              -0.000616651               0.002027966               0.001411315               0.000000000               0.000000000               0.000000000               0.000000000               0.000442484               0.005420442              -0.000911915              -0.000511623               0.001977337               0.001465714               0.000000000               0.000000000               0.000000000               0.000000000               0.000694644               0.005344091              -0.000746611              -0.000407519               0.001917186               0.001509666               0.000000000               0.000000000               0.000000000               0.000000000               0.000925905               0.005245929              -0.000545139              -0.000308526               0.001851467               0.001542941               0.000000000               0.000000000               0.000000000               0.000000000               0.001123809               0.005129085              -0.000296499              -0.000219707               0.001782914               0.001563207               0.000000000               0.000000000               0.000000000               0.000000000               0.001237600               0.005075640              -0.000164708              -0.000170355               0.001748648               0.001578293               0.000000000               0.000000000               0.000000000               0.000000000              -0.008528217              -0.000612838               0.000627129              -0.003121474               0.000836206              -0.002285268               0.000000000               0.000000000               0.000000000               0.000000000              -0.005601995               0.000321939              -0.000433382              -0.002140988               0.000820970              -0.001320018               0.000000000               0.000000000               0.000000000               0.000000000              -0.003466449               0.001191458              -0.001395271              -0.001448849               0.000880095              -0.000568753               0.000000000               0.000000000               0.000000000               0.000000000              -0.002364754               0.002143470              -0.001665500              -0.001154715               0.001099386              -0.000055328               0.000000000               0.000000000               0.000000000               0.000000000              -0.001720329               0.002944670              -0.001674543              -0.001013205               0.001319281               0.000306076               0.000000000               0.000000000               0.000000000               0.000000000              -0.001281177               0.003583666              -0.001584381              -0.000928398               0.001504009               0.000575611               0.000000000               0.000000000               0.000000000               0.000000000              -0.000936685               0.004071813              -0.001461865              -0.000860232               0.001644001               0.000783769               0.000000000               0.000000000               0.000000000               0.000000000              -0.000641417               0.004433614              -0.001337324              -0.000794732               0.001742767               0.000948035               0.000000000               0.000000000               0.000000000               0.000000000              -0.000369029               0.004708312              -0.001219115              -0.000726924               0.001811729               0.001084806               0.000000000               0.000000000               0.000000000               0.000000000              -0.000104341               0.004911214              -0.001107349              -0.000653028               0.001854731               0.001201702               0.000000000               0.000000000               0.000000000               0.000000000               0.000170441               0.005050225              -0.000999120              -0.000567362               0.001872512               0.001305150               0.000000000               0.000000000               0.000000000               0.000000000               0.000461006               0.005136618              -0.000890692              -0.000469199               0.001868589               0.001399389               0.000000000               0.000000000               0.000000000               0.000000000               0.000766515               0.005179228              -0.000778064              -0.000359960               0.001846379               0.001486419               0.000000000               0.000000000               0.000000000               0.000000000               0.001089369               0.005184649              -0.000647573              -0.000239568               0.001808055               0.001568487               0.000000000               0.000000000               0.000000000               0.000000000               0.001433290               0.005153317              -0.000486075              -0.000106681               0.001753315               0.001646635               0.000000000               0.000000000               0.000000000               0.000000000               0.001795992               0.005085923              -0.000273120               0.000037756               0.001682706               0.001720461               0.000000000               0.000000000               0.000000000               0.000000000               0.002057817               0.005073095              -0.000160418               0.000137543               0.001645167               0.001782710               0.000000000               0.000000000               0.000000000               0.000000000              -0.009461314              -0.000794500               0.000386549              -0.003448678               0.000884720              -0.002563958               0.000000000               0.000000000               0.000000000               0.000000000              -0.006100811              -0.000129743              -0.000194955              -0.002271585               0.000713942              -0.001557642               0.000000000               0.000000000               0.000000000               0.000000000              -0.003539722               0.000456420              -0.000732716              -0.001384447               0.000613618              -0.000770829               0.000000000               0.000000000               0.000000000               0.000000000              -0.002239009               0.001335559              -0.000900393              -0.001006572               0.000780705              -0.000225867               0.000000000               0.000000000               0.000000000               0.000000000              -0.001502087               0.002152599              -0.000921539              -0.000832356               0.000994977               0.000162622               0.000000000               0.000000000               0.000000000               0.000000000              -0.001029262               0.002848754              -0.000882696              -0.000742066               0.001196930               0.000454864               0.000000000               0.000000000               0.000000000               0.000000000              -0.000682688               0.003415177              -0.000821674              -0.000682904               0.001366015               0.000683112               0.000000000               0.000000000               0.000000000               0.000000000              -0.000397015               0.003857287              -0.000757649              -0.000631040               0.001496096               0.000865056               0.000000000               0.000000000               0.000000000               0.000000000              -0.000134700               0.004207125              -0.000694180              -0.000576402               0.001594495               0.001018093               0.000000000               0.000000000               0.000000000               0.000000000               0.000126362               0.004485076              -0.000633000              -0.000513248               0.001666093               0.001152845               0.000000000               0.000000000               0.000000000               0.000000000               0.000399405               0.004698185              -0.000575254              -0.000437496               0.001711878               0.001274382               0.000000000               0.000000000               0.000000000               0.000000000               0.000698586               0.004857830              -0.000515317              -0.000345258               0.001734346               0.001389088               0.000000000               0.000000000               0.000000000               0.000000000               0.001030099               0.004968282              -0.000450926              -0.000234748               0.001734327               0.001499579               0.000000000               0.000000000               0.000000000               0.000000000               0.001403261               0.005034423              -0.000378721              -0.000103080               0.001712484               0.001609404               0.000000000               0.000000000               0.000000000               0.000000000               0.001832132               0.005060426              -0.000288056               0.000054495               0.001668627               0.001723122               0.000000000               0.000000000               0.000000000               0.000000000               0.002329546               0.005043363              -0.000162334               0.000243157               0.001600052               0.001843209               0.000000000               0.000000000               0.000000000               0.000000000               0.002719717               0.005068087              -0.000096653               0.000386379               0.001560552               0.001946932               0.000000000               0.000000000               0.000000000               0.000000000               0.000000000               0.000000000               0.000000000               0.000000000               0.000000000               0.000000000               0.000000000               0.000000000               0.000000000               0.000000000               0.000000000               0.000000000               0.000000000               0.000000000               0.000000000               0.000000000               0.000000000               0.000000000               0.000000000               0.000000000               0.000000000               0.000000000               0.000000000               0.000000000               0.000000000               0.000000000               0.000000000               0.000000000               0.000000000               0.000000000               0.000000000               0.000000000               0.000000000               0.000000000               0.000000000               0.000000000               0.000000000               0.000000000               0.000000000               0.000000000               0.000000000               0.000000000               0.000000000               0.000000000               0.000000000               0.000000000               0.000000000               0.000000000               0.000000000               0.000000000               0.000000000               0.000000000               0.000000000               0.000000000               0.000000000               0.000000000               0.000000000               0.000000000               0.000000000               0.000000000               0.000000000               0.000000000               0.000000000               0.000000000               0.000000000               0.000000000               0.000000000               0.000000000               0.000000000               0.000000000               0.000000000               0.000000000               0.000000000               0.000000000               0.000000000               0.000000000               0.000000000               0.000000000               0.000000000               0.000000000               0.000000000               0.000000000               0.000000000               0.000000000               0.000000000               0.000000000               0.000000000               0.000000000               0.000000000               0.000000000               0.000000000               0.000000000               0.000000000               0.000000000               0.000000000               0.000000000               0.000000000               0.000000000               0.000000000               0.000000000               0.000000000               0.000000000               0.000000000               0.000000000               0.000000000               0.000000000               0.000000000               0.000000000               0.000000000               0.000000000               0.000000000               0.000000000               0.000000000               0.000000000               0.000000000               0.000000000               0.000000000               0.000000000               0.000000000               0.000000000               0.000000000               0.000000000               0.000000000               0.000000000               0.000000000               0.000000000               0.000000000               0.000000000               0.000000000               0.000000000               0.000000000               0.000000000               0.000000000               0.000000000               0.000000000               0.000000000               0.000000000               0.000000000               0.000000000               0.000000000               0.000000000               0.000000000               0.000000000               0.000000000               0.000000000               0.000000000               0.000000000               0.000000000               0.000000000               0.000000000               0.000000000               0.000000000               0.000000000               0.000000000               0.000000000               0.000000000               0.000000000               0.000000000               0.000000000               0.000000000               0.000000000               0.000000000               0.000000000               0.000000000               0.000000000               0.000000000               0.000000000               0.000000000               0.000000000               0.000000000               0.000000000               0.000000000               0.000000000               0.000000000               0.000000000               0.000000000               0.000000000               0.000000000               0.000000000               0.000000000               0.000000000               0.000000000               0.000000000               0.000000000               0.000000000               0.000000000               0.000000000               0.000000000               0.000000000               0.000000000               0.000000000               0.000000000               0.000000000               0.000000000               0.000000000               0.000000000               0.000000000               0.000000000               0.000000000               0.000000000               0.000000000               0.000000000               0.000000000               0.000000000               0.000000000               0.000000000               0.000000000               0.000000000               0.000000000               0.000000000               0.000000000               0.000000000               0.000000000               0.000000000               0.000000000               0.000000000               0.000000000               0.000000000               0.000000000               0.000000000               0.000000000               0.000000000               0.000000000               0.000000000               0.000000000               0.000000000               0.000000000               0.000000000               0.000000000               0.000000000               0.000000000               0.000000000               0.000000000               0.000000000               0.000000000               0.000000000               0.000000000               0.000000000               0.000000000               0.000000000               0.000000000               0.000000000               0.000000000               0.000000000               0.000000000               0.000000000               0.000000000               0.000000000               0.000000000               0.000000000               0.000000000               0.000000000               0.000000000               0.000000000               0.000000000               0.000000000               0.000000000               0.000000000               0.000000000               0.000000000               0.000000000               0.000000000               0.000000000               0.000000000               0.000000000               0.000000000               0.000000000               0.000000000               0.000000000               0.000000000               0.000000000               0.000000000               0.000000000               0.000000000               0.000000000               0.000000000               0.000000000               0.000000000               0.000000000               0.000000000               0.000000000               0.000000000               0.000000000               0.000000000               0.000000000               0.000000000               0.000000000               0.000000000               0.000000000               0.000000000               0.000000000               0.000000000               0.000000000               0.000000000               0.000000000               0.000000000               0.000000000               0.000000000               0.000000000               0.000000000               0.000000000               0.000000000               0.000000000               0.000000000               0.000000000               0.000000000               0.000000000               0.000000000               0.000000000               0.000000000               0.000000000               0.000000000               0.000000000               0.000000000               0.000000000               0.000000000               0.000000000               0.000000000               0.000000000               0.000000000               0.000000000               0.000000000               0.000000000               0.000000000               0.000000000               0.000000000               0.000000000               0.000000000               0.000000000               0.000000000               0.000000000               0.000000000               0.000000000               0.000000000               0.000000000               0.000000000               0.000000000               0.000000000               0.000000000               0.000000000               0.002128741               0.021783975               0.001526171              -0.001924714               0.007902824               0.005978109               0.000000000               0.000000000               0.000000000               0.000000000               0.002021447               0.017162869               0.000771837              -0.001387313               0.006183337               0.004796024               0.000000000               0.000000000               0.000000000               0.000000000               0.002560858               0.013466800               0.000017782              -0.000723026               0.004729897               0.004006871               0.000000000               0.000000000               0.000000000               0.000000000               0.002420624               0.011397374              -0.000302450              -0.000516936               0.003971399               0.003454462               0.000000000               0.000000000               0.000000000               0.000000000               0.002087588               0.010107519              -0.000433514              -0.000480593               0.003529337               0.003048744               0.000000000               0.000000000               0.000000000               0.000000000               0.001726991               0.009224290              -0.000474765              -0.000505413               0.003243204               0.002737790               0.000000000               0.000000000               0.000000000               0.000000000               0.001395991               0.008558960              -0.000471749              -0.000546372               0.003035082               0.002488710               0.000000000               0.000000000               0.000000000               0.000000000               0.001110076               0.008018434              -0.000452919              -0.000586024               0.002868126               0.002282102               0.000000000               0.000000000               0.000000000               0.000000000               0.000864671               0.007551401              -0.000432014              -0.000619672               0.002723666               0.002103994               0.000000000               0.000000000               0.000000000               0.000000000               0.000652787               0.007129118              -0.000410998              -0.000646343               0.002591797               0.001945453               0.000000000               0.000000000               0.000000000               0.000000000               0.000468422               0.006730060              -0.000390621              -0.000665598               0.002465197               0.001799599               0.000000000               0.000000000               0.000000000               0.000000000               0.000314282               0.006341546              -0.000366003              -0.000674836               0.002338773               0.001663937               0.000000000               0.000000000               0.000000000               0.000000000               0.000191820               0.005949335              -0.000332682              -0.000671733               0.002207003               0.001535270               0.000000000               0.000000000               0.000000000               0.000000000               0.000096085               0.005539370              -0.000288756              -0.000656388               0.002065234               0.001408846               0.000000000               0.000000000               0.000000000               0.000000000               0.000031403               0.005101544              -0.000224650              -0.000625916               0.001909136               0.001283221               0.000000000               0.000000000               0.000000000               0.000000000               0.000002881               0.004620672              -0.000128354              -0.000576502               0.001732376               0.001155874               0.000000000               0.000000000               0.000000000               0.000000000              -0.000039612               0.004260601              -0.000077344              -0.000547428               0.001602662               0.001055234               0.000000000               0.000000000               0.000000000               0.000000000               0.002322272               0.020502712               0.002838436              -0.001691984               0.007398163               0.005706179               0.000000000               0.000000000               0.000000000               0.000000000               0.001907705               0.016335952               0.001435705              -0.001326602               0.005887463               0.004560862               0.000000000               0.000000000               0.000000000               0.000000000               0.002120570               0.013116801               0.000049655              -0.000844384               0.004653685               0.003809300               0.000000000               0.000000000               0.000000000               0.000000000               0.001863267               0.011288570              -0.000518887              -0.000712345               0.004000267               0.003287923               0.000000000               0.000000000               0.000000000               0.000000000               0.001513145               0.010123470              -0.000744553              -0.000698003               0.003607124               0.002909121               0.000000000               0.000000000               0.000000000               0.000000000               0.001179230               0.009303571              -0.000812620              -0.000720733               0.003341404               0.002620670               0.000000000               0.000000000               0.000000000               0.000000000               0.000895118               0.008673285              -0.000806781              -0.000748490               0.003140562               0.002392073               0.000000000               0.000000000               0.000000000               0.000000000               0.000664706               0.008153145              -0.000773123              -0.000769877               0.002974313               0.002204437               0.000000000               0.000000000               0.000000000               0.000000000               0.000479974               0.007697458              -0.000731873              -0.000782190               0.002826524               0.002044334               0.000000000               0.000000000               0.000000000               0.000000000               0.000333239               0.007279269              -0.000689036              -0.000784942               0.002688046               0.001903104               0.000000000               0.000000000               0.000000000               0.000000000               0.000214045               0.006883622              -0.000645783              -0.000780184               0.002554579               0.001774395               0.000000000               0.000000000               0.000000000               0.000000000               0.000119441               0.006503568              -0.000596666              -0.000768154               0.002423886               0.001655732               0.000000000               0.000000000               0.000000000               0.000000000               0.000054118               0.006134214              -0.000534717              -0.000746481               0.002293544               0.001547064               0.000000000               0.000000000               0.000000000               0.000000000               0.000008735               0.005768949              -0.000456973              -0.000717841               0.002162244               0.001444403               0.000000000               0.000000000               0.000000000               0.000000000              -0.000016464               0.005407318              -0.000349882              -0.000682087               0.002029784               0.001347697               0.000000000               0.000000000               0.000000000               0.000000000              -0.000017057               0.005050607              -0.000196911              -0.000637721               0.001896092               0.001258372               0.000000000               0.000000000               0.000000000               0.000000000              -0.000036001               0.004808741              -0.000116572              -0.000614591               0.001807761               0.001193170               0.000000000               0.000000000               0.000000000               0.000000000               0.002522015               0.018550731               0.003784396              -0.001373085               0.006641209               0.005268125               0.000000000               0.000000000               0.000000000               0.000000000               0.001678014               0.015095186               0.001922821              -0.001257641               0.005450891               0.004193251               0.000000000               0.000000000               0.000000000               0.000000000               0.001437481               0.012591230               0.000108139              -0.001034846               0.004541983               0.003507138               0.000000000               0.000000000               0.000000000               0.000000000               0.001047211               0.011108397              -0.000597376              -0.000995843               0.004034710               0.003038867               0.000000000               0.000000000               0.000000000               0.000000000               0.000703379               0.010113484              -0.000860767              -0.001000416               0.003704600               0.002704183               0.000000000               0.000000000               0.000000000               0.000000000               0.000433857               0.009376382              -0.000931994              -0.001009349               0.003461879               0.002452530               0.000000000               0.000000000               0.000000000               0.000000000               0.000235784               0.008785599              -0.000915456              -0.001009779               0.003265097               0.002255318               0.000000000               0.000000000               0.000000000               0.000000000               0.000092586               0.008280292              -0.000868206              -0.001000314               0.003093508               0.002093193               0.000000000               0.000000000               0.000000000               0.000000000              -0.000007615               0.007828896              -0.000812518              -0.000981466               0.002936761               0.001955296               0.000000000               0.000000000               0.000000000               0.000000000              -0.000075736               0.007408614              -0.000756430              -0.000954476               0.002787672               0.001833196               0.000000000               0.000000000               0.000000000               0.000000000              -0.000119037               0.007016234              -0.000701068              -0.000921666               0.002645943               0.001724277               0.000000000               0.000000000               0.000000000               0.000000000              -0.000139046               0.006645673              -0.000637897              -0.000882850               0.002509485               0.001626636               0.000000000               0.000000000               0.000000000               0.000000000              -0.000136239               0.006296969              -0.000560167              -0.000838209               0.002378371               0.001540163               0.000000000               0.000000000               0.000000000               0.000000000              -0.000120865               0.005972828              -0.000466847              -0.000791926               0.002254898               0.001462972               0.000000000               0.000000000               0.000000000               0.000000000              -0.000091293               0.005679126              -0.000347014              -0.000744124               0.002141064               0.001396940               0.000000000               0.000000000               0.000000000               0.000000000              -0.000047597               0.005426905              -0.000189913              -0.000696210               0.002041021               0.001344810               0.000000000               0.000000000               0.000000000               0.000000000              -0.000039943               0.005277172              -0.000110590              -0.000674623               0.001983914               0.001309291               0.000000000               0.000000000               0.000000000               0.000000000               0.002597504               0.016161216               0.004280709              -0.001046089               0.005735714               0.004689625               0.000000000               0.000000000               0.000000000               0.000000000               0.001307425               0.013606480               0.002208334              -0.001210524               0.004938956               0.003728432               0.000000000               0.000000000               0.000000000               0.000000000               0.000595208               0.011960919               0.000221009              -0.001271909               0.004410903               0.003138994               0.000000000               0.000000000               0.000000000               0.000000000               0.000112355               0.010860579              -0.000501451              -0.001315436               0.004058636               0.002743199               0.000000000               0.000000000               0.000000000               0.000000000              -0.000177806               0.010042072              -0.000756230              -0.001321933               0.003787968               0.002466035               0.000000000               0.000000000               0.000000000               0.000000000              -0.000342883               0.009379463              -0.000819721              -0.001301011               0.003560127               0.002259116               0.000000000               0.000000000               0.000000000               0.000000000              -0.000428618               0.008811548              -0.000799821              -0.001262172               0.003357877               0.002095705               0.000000000               0.000000000               0.000000000               0.000000000              -0.000460931               0.008309142              -0.000752089              -0.001211489               0.003173516               0.001962027               0.000000000               0.000000000               0.000000000               0.000000000              -0.000459040               0.007850632              -0.000696038              -0.001153466               0.003001340               0.001847874               0.000000000               0.000000000               0.000000000               0.000000000              -0.000437797               0.007426690              -0.000641622              -0.001092508               0.002839708               0.001747200               0.000000000               0.000000000               0.000000000               0.000000000              -0.000405772               0.007036861              -0.000588673              -0.001031770               0.002689520               0.001657750               0.000000000               0.000000000               0.000000000               0.000000000              -0.000363552               0.006677800              -0.000525391              -0.000971055               0.002549596               0.001578541               0.000000000               0.000000000               0.000000000               0.000000000              -0.000305169               0.006352596              -0.000450635              -0.000908511               0.002420348               0.001511837               0.000000000               0.000000000               0.000000000               0.000000000              -0.000233971               0.006063715              -0.000365217              -0.000845701               0.002303119               0.001457417               0.000000000               0.000000000               0.000000000               0.000000000              -0.000157471               0.005814531              -0.000262457              -0.000785866               0.002200113               0.001414247               0.000000000               0.000000000               0.000000000               0.000000000              -0.000077892               0.005619940              -0.000138035              -0.000731700               0.002117195               0.001385494               0.000000000               0.000000000               0.000000000               0.000000000              -0.000051213               0.005516690              -0.000078472              -0.000708789               0.002075141               0.001366352               0.000000000               0.000000000               0.000000000               0.000000000               0.002434597               0.013571573               0.004331113              -0.000783475               0.004784969               0.004001495               0.000000000               0.000000000               0.000000000               0.000000000               0.000788214               0.012029161               0.002319199              -0.001208063               0.004412368               0.003204304               0.000000000               0.000000000               0.000000000               0.000000000              -0.000309907               0.011282620               0.000413668              -0.001526539               0.004269682               0.002743143               0.000000000               0.000000000               0.000000000               0.000000000              -0.000795032               0.010539929              -0.000241900              -0.001615624               0.004051816               0.002436192               0.000000000               0.000000000               0.000000000               0.000000000              -0.000980012               0.009864788              -0.000469931              -0.001600599               0.003821763               0.002221164               0.000000000               0.000000000               0.000000000               0.000000000              -0.001014341               0.009253995              -0.000531630              -0.001537123               0.003597008               0.002059885               0.000000000               0.000000000               0.000000000               0.000000000              -0.000972129               0.008698510              -0.000524082              -0.001451859               0.003383427               0.001931569               0.000000000               0.000000000               0.000000000               0.000000000              -0.000891816               0.008192127              -0.000491440              -0.001358443               0.003183496               0.001825053               0.000000000               0.000000000               0.000000000               0.000000000              -0.000793961               0.007725141              -0.000451026              -0.001263375               0.002996146               0.001732771               0.000000000               0.000000000               0.000000000               0.000000000              -0.000690333               0.007297147              -0.000414143              -0.001171015               0.002822697               0.001651681               0.000000000               0.000000000               0.000000000               0.000000000              -0.000588843               0.006909834              -0.000382280              -0.001084543               0.002664769               0.001580227               0.000000000               0.000000000               0.000000000               0.000000000              -0.000487445               0.006566108              -0.000341218              -0.001003553               0.002523198               0.001519645               0.000000000               0.000000000               0.000000000               0.000000000              -0.000382071               0.006266641              -0.000287631              -0.000926605               0.002397728               0.001471123               0.000000000               0.000000000               0.000000000               0.000000000              -0.000273383               0.006006876              -0.000224616              -0.000853376               0.002286730               0.001433355               0.000000000               0.000000000               0.000000000               0.000000000              -0.000170294               0.005790563              -0.000153853              -0.000787679               0.002192728               0.001405049               0.000000000               0.000000000               0.000000000               0.000000000              -0.000079041               0.005633361              -0.000078543              -0.000733809               0.002122371               0.001388562               0.000000000               0.000000000               0.000000000               0.000000000              -0.000047853               0.005557019              -0.000046455              -0.000712571               0.002089845               0.001377274               0.000000000               0.000000000               0.000000000               0.000000000               0.001974284               0.011003102               0.004008398              -0.000635034               0.003879341               0.003244307               0.000000000               0.000000000               0.000000000               0.000000000               0.000154090               0.010491641               0.002305112              -0.001253670               0.003915068               0.002661398               0.000000000               0.000000000               0.000000000               0.000000000              -0.001174233               0.010576141               0.000687312              -0.001762351               0.004112795               0.002350445               0.000000000               0.000000000               0.000000000               0.000000000              -0.001566554               0.010123459               0.000139803              -0.001852885               0.003992081               0.002139196               0.000000000               0.000000000               0.000000000               0.000000000              -0.001603435               0.009559931              -0.000068170              -0.001796275               0.003785370               0.001989095               0.000000000               0.000000000               0.000000000               0.000000000              -0.001498012               0.008991212              -0.000145937              -0.001685652               0.003558925               0.001873273               0.000000000               0.000000000               0.000000000               0.000000000              -0.001331319               0.008447777              -0.000165578              -0.001555213               0.003334302               0.001779089               0.000000000               0.000000000               0.000000000               0.000000000              -0.001143758               0.007941609              -0.000164574              -0.001421607               0.003121046               0.001699439               0.000000000               0.000000000               0.000000000               0.000000000              -0.000962324               0.007474445              -0.000157208              -0.001295174               0.002923182               0.001628008               0.000000000               0.000000000               0.000000000               0.000000000              -0.000793224               0.007051571              -0.000155649              -0.001178902               0.002743468               0.001564565               0.000000000               0.000000000               0.000000000               0.000000000              -0.000636333               0.006677352              -0.000159968              -0.001073291               0.002583526               0.001510234               0.000000000               0.000000000               0.000000000               0.000000000              -0.000491888               0.006350302              -0.000154600              -0.000978243               0.002442827               0.001464584               0.000000000               0.000000000               0.000000000               0.000000000              -0.000356361               0.006068021              -0.000131986              -0.000892136               0.002320032               0.001427896               0.000000000               0.000000000               0.000000000               0.000000000              -0.000230366               0.005827867              -0.000097715              -0.000814869               0.002214226               0.001399357               0.000000000               0.000000000               0.000000000               0.000000000              -0.000125470               0.005639396              -0.000062762              -0.000751974               0.002130438               0.001378464               0.000000000               0.000000000               0.000000000               0.000000000              -0.000050838               0.005511949              -0.000030698              -0.000708056               0.002073317               0.001365261               0.000000000               0.000000000               0.000000000               0.000000000              -0.000028935               0.005452738              -0.000019714              -0.000692441               0.002048375               0.001355934               0.000000000               0.000000000               0.000000000               0.000000000               0.001239021               0.008627094               0.003408746              -0.000613756               0.003080253               0.002466498               0.000000000               0.000000000               0.000000000               0.000000000              -0.000556248               0.009078590               0.002212540              -0.001343415               0.003473971               0.002130556               0.000000000               0.000000000               0.000000000               0.000000000              -0.001913571               0.009833203               0.001030510              -0.001946735               0.003926613               0.001979878               0.000000000               0.000000000               0.000000000               0.000000000              -0.002128296               0.009605106               0.000583070              -0.001998744               0.003867918               0.001869174               0.000000000               0.000000000               0.000000000               0.000000000              -0.001995958               0.009141404               0.000371274              -0.001891155               0.003677489               0.001786334               0.000000000               0.000000000               0.000000000               0.000000000              -0.001760310               0.008613886               0.000262640              -0.001736848               0.003450216               0.001713368               0.000000000               0.000000000               0.000000000               0.000000000              -0.001492771               0.008088369               0.000201488              -0.001570831               0.003219706               0.001648875               0.000000000               0.000000000               0.000000000               0.000000000              -0.001221827               0.007592616               0.000154609              -0.001407258               0.002999933               0.001592674               0.000000000               0.000000000               0.000000000               0.000000000              -0.000973487               0.007139691               0.000113560              -0.001257516               0.002799045               0.001541529               0.000000000               0.000000000               0.000000000               0.000000000              -0.000758405               0.006737295               0.000072344              -0.001126561               0.002621263               0.001494702               0.000000000               0.000000000               0.000000000               0.000000000              -0.000570409               0.006383377               0.000030922              -0.001011823               0.002465045               0.001453223               0.000000000               0.000000000               0.000000000               0.000000000              -0.000403176               0.006070395               0.000001167              -0.000909988               0.002326774               0.001416786               0.000000000               0.000000000               0.000000000               0.000000000              -0.000260834               0.005796247              -0.000008688              -0.000822342               0.002206177               0.001383835               0.000000000               0.000000000               0.000000000               0.000000000              -0.000148699               0.005573732              -0.000005588              -0.000752477               0.002108718               0.001356241               0.000000000               0.000000000               0.000000000               0.000000000              -0.000072785               0.005413821              -0.000003289              -0.000704020               0.002039262               0.001335242               0.000000000               0.000000000               0.000000000               0.000000000              -0.000028436               0.005310181              -0.000003137              -0.000674434               0.001994854               0.001320420               0.000000000               0.000000000               0.000000000               0.000000000              -0.000016014               0.005261336              -0.000006066              -0.000663671               0.001974985               0.001311314               0.000000000               0.000000000               0.000000000               0.000000000               0.000341093               0.006609434               0.002649400              -0.000698270               0.002435878               0.001737609               0.000000000               0.000000000               0.000000000               0.000000000              -0.001245189               0.007803221               0.002091081              -0.001442346               0.003081829               0.001639483               0.000000000               0.000000000               0.000000000               0.000000000              -0.002476547               0.009086205               0.001431703              -0.002064476               0.003716863               0.001652387               0.000000000               0.000000000               0.000000000               0.000000000              -0.002501425               0.009092268               0.001049053              -0.002074563               0.003722246               0.001647684               0.000000000               0.000000000               0.000000000               0.000000000              -0.002236529               0.008745488               0.000813453              -0.001931880               0.003559093               0.001627214               0.000000000               0.000000000               0.000000000               0.000000000              -0.001898210               0.008286571               0.000662440              -0.001747646               0.003344711               0.001597065               0.000000000               0.000000000               0.000000000               0.000000000              -0.001549709               0.007802955               0.000549155              -0.001556507               0.003119794               0.001563288               0.000000000               0.000000000               0.000000000               0.000000000              -0.001219201               0.007339137               0.000450317              -0.001374589               0.002904551               0.001529962               0.000000000               0.000000000               0.000000000               0.000000000              -0.000926416               0.006914698               0.000362282              -0.001211740               0.002708790               0.001497049               0.000000000               0.000000000               0.000000000               0.000000000              -0.000676746               0.006538125               0.000284378              -0.001071043               0.002536368               0.001465325               0.000000000               0.000000000               0.000000000               0.000000000              -0.000466560               0.006198685               0.000211899              -0.000949793               0.002382806               0.001433012               0.000000000               0.000000000               0.000000000               0.000000000              -0.000292154               0.005885302               0.000148330              -0.000845219               0.002243487               0.001398269               0.000000000               0.000000000               0.000000000               0.000000000              -0.000165310               0.005606908               0.000097851              -0.000762853               0.002123235               0.001360382               0.000000000               0.000000000               0.000000000               0.000000000              -0.000091944               0.005390652               0.000060246              -0.000708309               0.002032969               0.001324660               0.000000000               0.000000000               0.000000000               0.000000000              -0.000062761               0.005243967               0.000031340              -0.000679030               0.001974315               0.001295285               0.000000000               0.000000000               0.000000000               0.000000000              -0.000061909               0.005145631               0.000009685              -0.000666418               0.001937332               0.001270915               0.000000000               0.000000000               0.000000000               0.000000000              -0.000064937               0.005099004              -0.000000493              -0.000661725               0.001920226               0.001258501               0.000000000               0.000000000               0.000000000               0.000000000              -0.000735325               0.004715444               0.001840910              -0.000865176               0.001860191               0.000995014               0.000000000               0.000000000               0.000000000               0.000000000              -0.001812742               0.006312634               0.001950507              -0.001468855               0.002593808               0.001124953               0.000000000               0.000000000               0.000000000               0.000000000              -0.002782381               0.007977852               0.001857944              -0.002040620               0.003339464               0.001298844               0.000000000               0.000000000               0.000000000               0.000000000              -0.002709480               0.008325468               0.001552091              -0.002056734               0.003460706               0.001403972               0.000000000               0.000000000               0.000000000               0.000000000              -0.002389341               0.008213923               0.001287743              -0.001922739               0.003378859               0.001456121               0.000000000               0.000000000               0.000000000               0.000000000              -0.002024214               0.007925589               0.001085398              -0.001749775               0.003225095               0.001475320               0.000000000               0.000000000               0.000000000               0.000000000              -0.001661825               0.007565403               0.000919558              -0.001568856               0.003044728               0.001475872               0.000000000               0.000000000               0.000000000               0.000000000              -0.001317146               0.007195546               0.000775012              -0.001393370               0.002862948               0.001469578               0.000000000               0.000000000               0.000000000               0.000000000              -0.001008370               0.006837735               0.000649253              -0.001232853               0.002690173               0.001457321               0.000000000               0.000000000               0.000000000               0.000000000              -0.000737896               0.006503750               0.000540514              -0.001089677               0.002531121               0.001441443               0.000000000               0.000000000               0.000000000               0.000000000              -0.000512325               0.006189358               0.000438752              -0.000965789               0.002385028               0.001419239               0.000000000               0.000000000               0.000000000               0.000000000              -0.000328197               0.005897566               0.000337940              -0.000860268               0.002252592               0.001392324               0.000000000               0.000000000               0.000000000               0.000000000              -0.000192084               0.005629264               0.000237070              -0.000775688               0.002134965               0.001359277               0.000000000               0.000000000               0.000000000               0.000000000              -0.000116302               0.005397500               0.000148482              -0.000718299               0.002038582               0.001320283               0.000000000               0.000000000               0.000000000               0.000000000              -0.000098540               0.005217987               0.000076276              -0.000689199               0.001969045               0.001279845               0.000000000               0.000000000               0.000000000               0.000000000              -0.000121924               0.005092315               0.000024891              -0.000682259               0.001924841               0.001242582               0.000000000               0.000000000               0.000000000               0.000000000              -0.000146543               0.005034918               0.000003275              -0.000684317               0.001906395               0.001222078               0.000000000               0.000000000               0.000000000               0.000000000              -0.002133769               0.002978397               0.001034880              -0.001172461               0.001383609               0.000211148               0.000000000               0.000000000               0.000000000               0.000000000              -0.002451777               0.004805854               0.001741844              -0.001520145               0.002108650               0.000588505               0.000000000               0.000000000               0.000000000               0.000000000              -0.002988328               0.006682549               0.002193501              -0.001955938               0.002879473               0.000923535               0.000000000               0.000000000               0.000000000               0.000000000              -0.002828523               0.007351504               0.002028638              -0.001979630               0.003110353               0.001130723               0.000000000               0.000000000               0.000000000               0.000000000              -0.002481387               0.007516879               0.001768836              -0.001870126               0.003128976               0.001258850               0.000000000               0.000000000               0.000000000               0.000000000              -0.002111007               0.007445045               0.001526053              -0.001722255               0.003055741               0.001333487               0.000000000               0.000000000               0.000000000               0.000000000              -0.001752702               0.007257089               0.001317049              -0.001564396               0.002940470               0.001376075               0.000000000               0.000000000               0.000000000               0.000000000              -0.001406469               0.007017091               0.001136831              -0.001404559               0.002807193               0.001402634               0.000000000               0.000000000               0.000000000               0.000000000              -0.001085100               0.006753828               0.000984132              -0.001251138               0.002668299               0.001417161               0.000000000               0.000000000               0.000000000               0.000000000              -0.000797650               0.006483914               0.000851256              -0.001109606               0.002531151               0.001421546               0.000000000               0.000000000               0.000000000               0.000000000              -0.000552746               0.006217676               0.000723872              -0.000984487               0.002400700               0.001416213               0.000000000               0.000000000               0.000000000               0.000000000              -0.000352837               0.005962593               0.000594713              -0.000877636               0.002280056               0.001402420               0.000000000               0.000000000               0.000000000               0.000000000              -0.000196526               0.005717463               0.000455889              -0.000788378               0.002168595               0.001380216               0.000000000               0.000000000               0.000000000               0.000000000              -0.000094383               0.005487333               0.000315100              -0.000721308               0.002069529               0.001348220               0.000000000               0.000000000               0.000000000               0.000000000              -0.000060930               0.005283457               0.000185151              -0.000683279               0.001988894               0.001305615               0.000000000               0.000000000               0.000000000               0.000000000              -0.000091664               0.005123423               0.000078466              -0.000674800               0.001932724               0.001257924               0.000000000               0.000000000               0.000000000               0.000000000              -0.000140429               0.005042571               0.000025559              -0.000682981               0.001908500               0.001225520               0.000000000               0.000000000               0.000000000               0.000000000              -0.003750645               0.001535908               0.000292728              -0.001598478               0.001044788              -0.000553690               0.000000000               0.000000000               0.000000000               0.000000000              -0.003208013               0.003378408               0.001441886              -0.001625303               0.001667891               0.000042588               0.000000000               0.000000000               0.000000000               0.000000000              -0.003138424               0.005218231               0.002329844              -0.001829184               0.002349120               0.000519936               0.000000000               0.000000000               0.000000000               0.000000000              -0.002820877               0.006113812               0.002342518              -0.001822052               0.002645267               0.000823215               0.000000000               0.000000000               0.000000000               0.000000000              -0.002437569               0.006534043               0.002134026              -0.001730840               0.002754939               0.001024098               0.000000000               0.000000000               0.000000000               0.000000000              -0.002063554               0.006689294               0.001886057              -0.001609991               0.002766406               0.001156414               0.000000000               0.000000000               0.000000000               0.000000000              -0.001713339               0.006696648               0.001655450              -0.001479580               0.002725387               0.001245807               0.000000000               0.000000000               0.000000000               0.000000000              -0.001375601               0.006613433               0.001455487              -0.001342527               0.002651964               0.001309437               0.000000000               0.000000000               0.000000000               0.000000000              -0.001050593               0.006473879               0.001287195              -0.001203204               0.002559006               0.001355801               0.000000000               0.000000000               0.000000000               0.000000000              -0.000753870               0.006300546               0.001137651              -0.001070267               0.002456916               0.001386649               0.000000000               0.000000000               0.000000000               0.000000000              -0.000490728               0.006113966               0.000993039              -0.000948267               0.002354057               0.001405790               0.000000000               0.000000000               0.000000000               0.000000000              -0.000268577               0.005920130               0.000847223              -0.000840731               0.002253600               0.001412870               0.000000000               0.000000000               0.000000000               0.000000000              -0.000089203               0.005720003               0.000689767              -0.000748450               0.002156132               0.001407682               0.000000000               0.000000000               0.000000000               0.000000000               0.000044143               0.005517153               0.000517800              -0.000673089               0.002063396               0.001390307               0.000000000               0.000000000               0.000000000               0.000000000               0.000116359               0.005319423               0.000339130              -0.000621292               0.001980221               0.001358929               0.000000000               0.000000000               0.000000000               0.000000000               0.000108857               0.005146789               0.000164407              -0.000602526               0.001916421               0.001313895               0.000000000               0.000000000               0.000000000               0.000000000               0.000061074               0.005055268               0.000072502              -0.000609004               0.001888074               0.001279070               0.000000000               0.000000000               0.000000000               0.000000000              -0.005474946               0.000470586              -0.000284568              -0.002111926               0.000860831              -0.001251094               0.000000000               0.000000000               0.000000000               0.000000000              -0.004038958               0.002107891               0.001088726              -0.001778093               0.001295319              -0.000482774               0.000000000               0.000000000               0.000000000               0.000000000              -0.003259345               0.003712020               0.002236435              -0.001686254               0.001799411               0.000113157               0.000000000               0.000000000               0.000000000               0.000000000              -0.002714315               0.004721272               0.002413238              -0.001608024               0.002109749               0.000501725               0.000000000               0.000000000               0.000000000               0.000000000              -0.002271519               0.005338273               0.002286358              -0.001519101               0.002285773               0.000766671               0.000000000               0.000000000               0.000000000               0.000000000              -0.001883545               0.005704067               0.002070899              -0.001419335               0.002374448               0.000955113               0.000000000               0.000000000               0.000000000               0.000000000              -0.001536038               0.005904313               0.001851014              -0.001314051               0.002406101               0.001092050               0.000000000               0.000000000               0.000000000               0.000000000              -0.001214126               0.005988751               0.001652773              -0.001203889               0.002397526               0.001193637               0.000000000               0.000000000               0.000000000               0.000000000              -0.000902404               0.005995399               0.001479902              -0.001087824               0.002361054               0.001273230               0.000000000               0.000000000               0.000000000               0.000000000              -0.000605670               0.005944593               0.001324305              -0.000970198               0.002304911               0.001334712               0.000000000               0.000000000               0.000000000               0.000000000              -0.000329541               0.005858542               0.001175055              -0.000855894               0.002238126               0.001382232               0.000000000               0.000000000               0.000000000               0.000000000              -0.000079684               0.005748452               0.001024953              -0.000748437               0.002165610               0.001417173               0.000000000               0.000000000               0.000000000               0.000000000               0.000137986               0.005616913               0.000864642              -0.000650368               0.002089075               0.001438707               0.000000000               0.000000000               0.000000000               0.000000000               0.000320300               0.005465803               0.000685830              -0.000563112               0.002009620               0.001446508               0.000000000               0.000000000               0.000000000               0.000000000               0.000455587               0.005306198               0.000480700              -0.000492429               0.001932858               0.001440429               0.000000000               0.000000000               0.000000000               0.000000000               0.000520462               0.005152121               0.000249471              -0.000448841               0.001866970               0.001418129               0.000000000               0.000000000               0.000000000               0.000000000               0.000522671               0.005071039               0.000126454              -0.000437877               0.001836288               0.001398411               0.000000000               0.000000000               0.000000000               0.000000000              -0.007135762              -0.000226872              -0.000604732              -0.002647550               0.000806887              -0.001840663               0.000000000               0.000000000               0.000000000               0.000000000              -0.004872995               0.001070736               0.000736881              -0.001961213               0.001010642              -0.000950570               0.000000000               0.000000000               0.000000000               0.000000000              -0.003367035               0.002320073               0.001913214              -0.001552645               0.001290896              -0.000261749               0.000000000               0.000000000               0.000000000               0.000000000              -0.002541662               0.003336511               0.002187038              -0.001370185               0.001568886               0.000198702               0.000000000               0.000000000               0.000000000               0.000000000              -0.002009551               0.004075516               0.002143881              -0.001263019               0.001779497               0.000516478               0.000000000               0.000000000               0.000000000               0.000000000              -0.001600437               0.004605216               0.001989552              -0.001175814               0.001926994               0.000751180               0.000000000               0.000000000               0.000000000               0.000000000              -0.001252392               0.004971684               0.001809043              -0.001091106               0.002020913               0.000929807               0.000000000               0.000000000               0.000000000               0.000000000              -0.000945818               0.005210969               0.001636177              -0.001006051               0.002072322               0.001066271               0.000000000               0.000000000               0.000000000               0.000000000              -0.000656404               0.005363480               0.001480036              -0.000916585               0.002093337               0.001176752               0.000000000               0.000000000               0.000000000               0.000000000              -0.000373962               0.005447625               0.001335010              -0.000821188               0.002089586               0.001268398               0.000000000               0.000000000               0.000000000               0.000000000              -0.000094698               0.005478390               0.001195537              -0.000720309               0.002066214               0.001345905               0.000000000               0.000000000               0.000000000               0.000000000               0.000178029               0.005467301               0.001057032              -0.000616651               0.002027966               0.001411315               0.000000000               0.000000000               0.000000000               0.000000000               0.000442484               0.005420442               0.000911915              -0.000511623               0.001977337               0.001465714               0.000000000               0.000000000               0.000000000               0.000000000               0.000694644               0.005344091               0.000746611              -0.000407519               0.001917186               0.001509666               0.000000000               0.000000000               0.000000000               0.000000000               0.000925905               0.005245929               0.000545139              -0.000308526               0.001851467               0.001542941               0.000000000               0.000000000               0.000000000               0.000000000               0.001123809               0.005129085               0.000296499              -0.000219707               0.001782914               0.001563207               0.000000000               0.000000000               0.000000000               0.000000000               0.001237600               0.005075640               0.000164708              -0.000170355               0.001748648               0.001578293               0.000000000               0.000000000               0.000000000               0.000000000              -0.008528217              -0.000612838              -0.000627129              -0.003121474               0.000836206              -0.002285268               0.000000000               0.000000000               0.000000000               0.000000000              -0.005601995               0.000321939               0.000433382              -0.002140988               0.000820970              -0.001320018               0.000000000               0.000000000               0.000000000               0.000000000              -0.003466449               0.001191458               0.001395271              -0.001448849               0.000880095              -0.000568753               0.000000000               0.000000000               0.000000000               0.000000000              -0.002364754               0.002143470               0.001665500              -0.001154715               0.001099386              -0.000055328               0.000000000               0.000000000               0.000000000               0.000000000              -0.001720329               0.002944670               0.001674543              -0.001013205               0.001319281               0.000306076               0.000000000               0.000000000               0.000000000               0.000000000              -0.001281177               0.003583666               0.001584381              -0.000928398               0.001504009               0.000575611               0.000000000               0.000000000               0.000000000               0.000000000              -0.000936685               0.004071813               0.001461865              -0.000860232               0.001644001               0.000783769               0.000000000               0.000000000               0.000000000               0.000000000              -0.000641417               0.004433614               0.001337324              -0.000794732               0.001742767               0.000948035               0.000000000               0.000000000               0.000000000               0.000000000              -0.000369029               0.004708312               0.001219115              -0.000726924               0.001811729               0.001084806               0.000000000               0.000000000               0.000000000               0.000000000              -0.000104341               0.004911214               0.001107349              -0.000653028               0.001854731               0.001201702               0.000000000               0.000000000               0.000000000               0.000000000               0.000170441               0.005050225               0.000999120              -0.000567362               0.001872512               0.001305150               0.000000000               0.000000000               0.000000000               0.000000000               0.000461006               0.005136618               0.000890692              -0.000469199               0.001868589               0.001399389               0.000000000               0.000000000               0.000000000               0.000000000               0.000766515               0.005179228               0.000778064              -0.000359960               0.001846379               0.001486419               0.000000000               0.000000000               0.000000000               0.000000000               0.001089369               0.005184649               0.000647573              -0.000239568               0.001808055               0.001568487               0.000000000               0.000000000               0.000000000               0.000000000               0.001433290               0.005153317               0.000486075              -0.000106681               0.001753315               0.001646635               0.000000000               0.000000000               0.000000000               0.000000000               0.001795992               0.005085923               0.000273120               0.000037756               0.001682706               0.001720461               0.000000000               0.000000000               0.000000000               0.000000000               0.002057817               0.005073095               0.000160418               0.000137543               0.001645167               0.001782710               0.000000000               0.000000000               0.000000000               0.000000000              -0.009461314              -0.000794500              -0.000386549              -0.003448678               0.000884720              -0.002563958               0.000000000               0.000000000               0.000000000               0.000000000              -0.006100811              -0.000129743               0.000194955              -0.002271585               0.000713942              -0.001557642               0.000000000               0.000000000               0.000000000               0.000000000              -0.003539722               0.000456420               0.000732716              -0.001384447               0.000613618              -0.000770829               0.000000000               0.000000000               0.000000000               0.000000000              -0.002239009               0.001335559               0.000900393              -0.001006572               0.000780705              -0.000225867               0.000000000               0.000000000               0.000000000               0.000000000              -0.001502087               0.002152599               0.000921539              -0.000832356               0.000994977               0.000162622               0.000000000               0.000000000               0.000000000               0.000000000              -0.001029262               0.002848754               0.000882696              -0.000742066               0.001196930               0.000454864               0.000000000               0.000000000               0.000000000               0.000000000              -0.000682688               0.003415177               0.000821674              -0.000682904               0.001366015               0.000683112               0.000000000               0.000000000               0.000000000               0.000000000              -0.000397015               0.003857287               0.000757649              -0.000631040               0.001496096               0.000865056               0.000000000               0.000000000               0.000000000               0.000000000              -0.000134700               0.004207125               0.000694180              -0.000576402               0.001594495               0.001018093               0.000000000               0.000000000               0.000000000               0.000000000               0.000126362               0.004485076               0.000633000              -0.000513248               0.001666093               0.001152845               0.000000000               0.000000000               0.000000000               0.000000000               0.000399405               0.004698185               0.000575254              -0.000437496               0.001711878               0.001274382               0.000000000               0.000000000               0.000000000               0.000000000               0.000698586               0.004857830               0.000515317              -0.000345258               0.001734346               0.001389088               0.000000000               0.000000000               0.000000000               0.000000000               0.001030099               0.004968282               0.000450926              -0.000234748               0.001734327               0.001499579               0.000000000               0.000000000               0.000000000               0.000000000               0.001403261               0.005034423               0.000378721              -0.000103080               0.001712484               0.001609404               0.000000000               0.000000000               0.000000000               0.000000000               0.001832132               0.005060426               0.000288056               0.000054495               0.001668627               0.001723122               0.000000000               0.000000000               0.000000000               0.000000000               0.002329546               0.005043363               0.000162334               0.000243157               0.001600052               0.001843209               0.000000000               0.000000000               0.000000000               0.000000000               0.002719717               0.005068087               0.000096653               0.000386379               0.001560552               0.001946932               0.000000000               0.000000000               0.000000000               0.000000000               0.000000000               0.000000000               0.000000000               0.000000000               0.000000000               0.000000000               0.000000000               0.000000000               0.000000000               0.000000000               0.000000000               0.000000000               0.000000000               0.000000000               0.000000000               0.000000000               0.000000000               0.000000000               0.000000000               0.000000000               0.000000000               0.000000000               0.000000000               0.000000000               0.000000000               0.000000000               0.000000000               0.000000000               0.000000000               0.000000000               0.000000000               0.000000000               0.000000000               0.000000000               0.000000000               0.000000000               0.000000000               0.000000000               0.000000000               0.000000000               0.000000000               0.000000000               0.000000000               0.000000000               0.000000000               0.000000000               0.000000000               0.000000000               0.000000000               0.000000000               0.000000000               0.000000000               0.000000000               0.000000000               0.000000000               0.000000000               0.000000000               0.000000000               0.000000000               0.000000000               0.000000000               0.000000000               0.000000000               0.000000000               0.000000000               0.000000000               0.000000000               0.000000000               0.000000000               0.000000000               0.000000000               0.000000000               0.000000000               0.000000000               0.000000000               0.000000000               0.000000000               0.000000000               0.000000000               0.000000000               0.000000000               0.000000000               0.000000000               0.000000000               0.000000000               0.000000000               0.000000000               0.000000000               0.000000000               0.000000000               0.000000000               0.000000000               0.000000000               0.000000000               0.000000000               0.000000000               0.000000000               0.000000000               0.000000000               0.000000000               0.000000000               0.000000000               0.000000000               0.000000000               0.000000000               0.000000000               0.000000000               0.000000000               0.000000000               0.000000000               0.000000000               0.000000000               0.000000000               0.000000000               0.000000000               0.000000000               0.000000000               0.000000000               0.000000000               0.000000000               0.000000000               0.000000000               0.000000000               0.000000000               0.000000000               0.000000000               0.000000000               0.000000000               0.000000000               0.000000000               0.000000000               0.000000000               0.000000000               0.000000000               0.000000000               0.000000000               0.000000000               0.000000000               0.000000000               0.000000000               0.000000000               0.000000000               0.000000000               0.000000000               0.000000000               0.000000000               0.000000000               0.000000000               0.000000000               0.000000000               0.000000000               0.000000000               0.000000000               0.000000000               0.000000000               0.000000000               0.000000000               0.000000000               0.000000000               0.000000000               0.000000000               0.000000000               0.000000000               0.000000000               0.000000000               0.000000000               0.000000000               0.000000000               0.000000000               0.000000000 </DataArray>
</PointData>
</Piece>
</UnstructuredGrid> </VTKFile>
