<?xml version="1.0"?>
<VTKFile type="UnstructuredGrid" version="0.1">
<UnstructuredGrid>
<Piece NumberOfPoints="      1156" NumberOfCells="      1024">
<Points>
<DataArray type="Float64"                                    Name="coordinates"                                                      NumberOfComponents=" 3" format="ascii">
              0.133000000               0.000000000               0.000000000               0.155937500               0.000000000               0.000000000               0.178875000               0.000000000               0.000000000               0.201812500               0.000000000               0.000000000               0.224750000               0.000000000               0.000000000               0.247687500               0.000000000               0.000000000               0.270625000               0.000000000               0.000000000               0.293562500               0.000000000               0.000000000               0.316500000               0.000000000               0.000000000               0.339437500               0.000000000               0.000000000               0.362375000               0.000000000               0.000000000               0.385312500               0.000000000               0.000000000               0.408250000               0.000000000               0.000000000               0.431187500               0.000000000               0.000000000               0.454125000               0.000000000               0.000000000               0.477062500               0.000000000               0.000000000               0.500000000               0.000000000               0.000000000               0.132359569               0.013036280               0.000000000               0.155337096               0.016127762               0.000000000               0.178314623               0.019219245               0.000000000               0.201292150               0.022310727               0.000000000               0.224269676               0.025402210               0.000000000               0.247247203               0.028493692               0.000000000               0.270224730               0.031585175               0.000000000               0.293202257               0.034676657               0.000000000               0.316179784               0.037768140               0.000000000               0.339157311               0.040859622               0.000000000               0.362134838               0.043951105               0.000000000               0.385112365               0.047042587               0.000000000               0.408089892               0.050134070               0.000000000               0.431067419               0.053225552               0.000000000               0.454044946               0.056317035               0.000000000               0.477022473               0.059408517               0.000000000               0.500000000               0.062500000               0.000000000               0.130444442               0.025947013               0.000000000               0.153541665               0.032137825               0.000000000               0.176638887               0.038328636               0.000000000               0.199736109               0.044519448               0.000000000               0.222833332               0.050710260               0.000000000               0.245930554               0.056901071               0.000000000               0.269027776               0.063091883               0.000000000               0.292124999               0.069282695               0.000000000               0.315222221               0.075473506               0.000000000               0.338319444               0.081664318               0.000000000               0.361416666               0.087855130               0.000000000               0.384513888               0.094045942               0.000000000               0.407611111               0.100236753               0.000000000               0.430708333               0.106427565               0.000000000               0.453805555               0.112618377               0.000000000               0.476902778               0.118809188               0.000000000               0.500000000               0.125000000               0.000000000               0.127273065               0.038607862               0.000000000               0.150568498               0.047913621               0.000000000               0.173863932               0.057219379               0.000000000               0.197159365               0.066525138               0.000000000               0.220454798               0.075830897               0.000000000               0.243750232               0.085136655               0.000000000               0.267045665               0.094442414               0.000000000               0.290341099               0.103748172               0.000000000               0.313636532               0.113053931               0.000000000               0.336931966               0.122359690               0.000000000               0.360227399               0.131665448               0.000000000               0.383522833               0.140971207               0.000000000               0.406818266               0.150276966               0.000000000               0.430113700               0.159582724               0.000000000               0.453409133               0.168888483               0.000000000               0.476704567               0.178194241               0.000000000               0.500000000               0.187500000               0.000000000               0.122875978               0.050896897               0.000000000               0.146446229               0.063340840               0.000000000               0.170016481               0.075784784               0.000000000               0.193586732               0.088228728               0.000000000               0.217156983               0.100672672               0.000000000               0.240727235               0.113116616               0.000000000               0.264297486               0.125560560               0.000000000               0.287867738               0.138004504               0.000000000               0.311437989               0.150448448               0.000000000               0.335008240               0.162892392               0.000000000               0.358578492               0.175336336               0.000000000               0.382148743               0.187780280               0.000000000               0.405718994               0.200224224               0.000000000               0.429289246               0.212668168               0.000000000               0.452859497               0.225112112               0.000000000               0.476429749               0.237556056               0.000000000               0.500000000               0.250000000               0.000000000               0.117295528               0.062695766               0.000000000               0.141214558               0.078308531               0.000000000               0.165133587               0.093921295               0.000000000               0.189052617               0.109534060               0.000000000               0.212971646               0.125146824               0.000000000               0.236890676               0.140759589               0.000000000               0.260809705               0.156372354               0.000000000               0.284728735               0.171985118               0.000000000               0.308647764               0.187597883               0.000000000               0.332566794               0.203210648               0.000000000               0.356485823               0.218823412               0.000000000               0.380404853               0.234436177               0.000000000               0.404323882               0.250048941               0.000000000               0.428242912               0.265661706               0.000000000               0.452161941               0.281274471               0.000000000               0.476080971               0.296887235               0.000000000               0.500000000               0.312500000               0.000000000               0.110585458               0.073890841               0.000000000               0.134923867               0.092710163               0.000000000               0.159262276               0.111529486               0.000000000               0.183600685               0.130348808               0.000000000               0.207939094               0.149168131               0.000000000               0.232277503               0.167987453               0.000000000               0.256615912               0.186806776               0.000000000               0.280954320               0.205626098               0.000000000               0.305292729               0.224445420               0.000000000               0.329631138               0.243264743               0.000000000               0.353969547               0.262084065               0.000000000               0.378307956               0.280903388               0.000000000               0.402646365               0.299722710               0.000000000               0.426984773               0.318542033               0.000000000               0.451323182               0.337361355               0.000000000               0.475661591               0.356180678               0.000000000               0.500000000               0.375000000               0.000000000               0.102810390               0.084374307               0.000000000               0.127634741               0.106444663               0.000000000               0.152459092               0.128515018               0.000000000               0.177283442               0.150585374               0.000000000               0.202107793               0.172655730               0.000000000               0.226932143               0.194726086               0.000000000               0.251756494               0.216796442               0.000000000               0.276580845               0.238866798               0.000000000               0.301405195               0.260937153               0.000000000               0.326229546               0.283007509               0.000000000               0.351053896               0.305077865               0.000000000               0.375878247               0.327148221               0.000000000               0.400702598               0.349218577               0.000000000               0.425526948               0.371288933               0.000000000               0.450351299               0.393359288               0.000000000               0.475175649               0.415429644               0.000000000               0.500000000               0.437500000               0.000000000               0.094045202               0.094045202               0.000000000               0.119417377               0.119417377               0.000000000               0.144789552               0.144789552               0.000000000               0.170161727               0.170161727               0.000000000               0.195533901               0.195533901               0.000000000               0.220906076               0.220906076               0.000000000               0.246278251               0.246278251               0.000000000               0.271650426               0.271650426               0.000000000               0.297022601               0.297022601               0.000000000               0.322394776               0.322394776               0.000000000               0.347766951               0.347766951               0.000000000               0.373139126               0.373139126               0.000000000               0.398511300               0.398511300               0.000000000               0.423883475               0.423883475               0.000000000               0.449255650               0.449255650               0.000000000               0.474627825               0.474627825               0.000000000               0.500000000               0.500000000               0.000000000               0.084374307               0.102810390               0.000000000               0.106444663               0.127634741               0.000000000               0.128515018               0.152459092               0.000000000               0.150585374               0.177283442               0.000000000               0.172655730               0.202107793               0.000000000               0.194726086               0.226932143               0.000000000               0.216796442               0.251756494               0.000000000               0.238866798               0.276580845               0.000000000               0.260937153               0.301405195               0.000000000               0.283007509               0.326229546               0.000000000               0.305077865               0.351053896               0.000000000               0.327148221               0.375878247               0.000000000               0.349218577               0.400702598               0.000000000               0.371288933               0.425526948               0.000000000               0.393359288               0.450351299               0.000000000               0.415429644               0.475175649               0.000000000               0.437500000               0.500000000               0.000000000               0.073890841               0.110585458               0.000000000               0.092710163               0.134923867               0.000000000               0.111529486               0.159262276               0.000000000               0.130348808               0.183600685               0.000000000               0.149168131               0.207939094               0.000000000               0.167987453               0.232277503               0.000000000               0.186806776               0.256615912               0.000000000               0.205626098               0.280954320               0.000000000               0.224445420               0.305292729               0.000000000               0.243264743               0.329631138               0.000000000               0.262084065               0.353969547               0.000000000               0.280903388               0.378307956               0.000000000               0.299722710               0.402646365               0.000000000               0.318542033               0.426984773               0.000000000               0.337361355               0.451323182               0.000000000               0.356180678               0.475661591               0.000000000               0.375000000               0.500000000               0.000000000               0.062695766               0.117295528               0.000000000               0.078308531               0.141214558               0.000000000               0.093921295               0.165133587               0.000000000               0.109534060               0.189052617               0.000000000               0.125146824               0.212971646               0.000000000               0.140759589               0.236890676               0.000000000               0.156372354               0.260809705               0.000000000               0.171985118               0.284728735               0.000000000               0.187597883               0.308647764               0.000000000               0.203210648               0.332566794               0.000000000               0.218823412               0.356485823               0.000000000               0.234436177               0.380404853               0.000000000               0.250048941               0.404323882               0.000000000               0.265661706               0.428242912               0.000000000               0.281274471               0.452161941               0.000000000               0.296887235               0.476080971               0.000000000               0.312500000               0.500000000               0.000000000               0.050896897               0.122875978               0.000000000               0.063340840               0.146446229               0.000000000               0.075784784               0.170016481               0.000000000               0.088228728               0.193586732               0.000000000               0.100672672               0.217156983               0.000000000               0.113116616               0.240727235               0.000000000               0.125560560               0.264297486               0.000000000               0.138004504               0.287867738               0.000000000               0.150448448               0.311437989               0.000000000               0.162892392               0.335008240               0.000000000               0.175336336               0.358578492               0.000000000               0.187780280               0.382148743               0.000000000               0.200224224               0.405718994               0.000000000               0.212668168               0.429289246               0.000000000               0.225112112               0.452859497               0.000000000               0.237556056               0.476429749               0.000000000               0.250000000               0.500000000               0.000000000               0.038607862               0.127273065               0.000000000               0.047913621               0.150568498               0.000000000               0.057219379               0.173863932               0.000000000               0.066525138               0.197159365               0.000000000               0.075830897               0.220454798               0.000000000               0.085136655               0.243750232               0.000000000               0.094442414               0.267045665               0.000000000               0.103748172               0.290341099               0.000000000               0.113053931               0.313636532               0.000000000               0.122359690               0.336931966               0.000000000               0.131665448               0.360227399               0.000000000               0.140971207               0.383522833               0.000000000               0.150276966               0.406818266               0.000000000               0.159582724               0.430113700               0.000000000               0.168888483               0.453409133               0.000000000               0.178194241               0.476704567               0.000000000               0.187500000               0.500000000               0.000000000               0.025947013               0.130444442               0.000000000               0.032137825               0.153541665               0.000000000               0.038328636               0.176638887               0.000000000               0.044519448               0.199736109               0.000000000               0.050710260               0.222833332               0.000000000               0.056901071               0.245930554               0.000000000               0.063091883               0.269027776               0.000000000               0.069282695               0.292124999               0.000000000               0.075473506               0.315222221               0.000000000               0.081664318               0.338319444               0.000000000               0.087855130               0.361416666               0.000000000               0.094045942               0.384513888               0.000000000               0.100236753               0.407611111               0.000000000               0.106427565               0.430708333               0.000000000               0.112618377               0.453805555               0.000000000               0.118809188               0.476902778               0.000000000               0.125000000               0.500000000               0.000000000               0.013036280               0.132359569               0.000000000               0.016127762               0.155337096               0.000000000               0.019219245               0.178314623               0.000000000               0.022310727               0.201292150               0.000000000               0.025402210               0.224269676               0.000000000               0.028493692               0.247247203               0.000000000               0.031585175               0.270224730               0.000000000               0.034676657               0.293202257               0.000000000               0.037768140               0.316179784               0.000000000               0.040859622               0.339157311               0.000000000               0.043951105               0.362134838               0.000000000               0.047042587               0.385112365               0.000000000               0.050134070               0.408089892               0.000000000               0.053225552               0.431067419               0.000000000               0.056317035               0.454044946               0.000000000               0.059408517               0.477022473               0.000000000               0.062500000               0.500000000               0.000000000               0.000000000               0.133000000               0.000000000               0.000000000               0.155937500               0.000000000               0.000000000               0.178875000               0.000000000               0.000000000               0.201812500               0.000000000               0.000000000               0.224750000               0.000000000               0.000000000               0.247687500               0.000000000               0.000000000               0.270625000               0.000000000               0.000000000               0.293562500               0.000000000               0.000000000               0.316500000               0.000000000               0.000000000               0.339437500               0.000000000               0.000000000               0.362375000               0.000000000               0.000000000               0.385312500               0.000000000               0.000000000               0.408250000               0.000000000               0.000000000               0.431187500               0.000000000               0.000000000               0.454125000               0.000000000               0.000000000               0.477062500               0.000000000               0.000000000               0.500000000               0.000000000               0.133000000               0.000000000               0.000000000               0.155937500               0.000000000               0.000000000               0.178875000               0.000000000               0.000000000               0.201812500               0.000000000               0.000000000               0.224750000               0.000000000               0.000000000               0.247687500               0.000000000               0.000000000               0.270625000               0.000000000               0.000000000               0.293562500               0.000000000               0.000000000               0.316500000               0.000000000               0.000000000               0.339437500               0.000000000               0.000000000               0.362375000               0.000000000               0.000000000               0.385312500               0.000000000               0.000000000               0.408250000               0.000000000               0.000000000               0.431187500               0.000000000               0.000000000               0.454125000               0.000000000               0.000000000               0.477062500               0.000000000               0.000000000               0.500000000               0.000000000               0.000000000               0.132359569              -0.013036280               0.000000000               0.155337096              -0.016127762               0.000000000               0.178314623              -0.019219245               0.000000000               0.201292150              -0.022310727               0.000000000               0.224269676              -0.025402210               0.000000000               0.247247203              -0.028493692               0.000000000               0.270224730              -0.031585175               0.000000000               0.293202257              -0.034676657               0.000000000               0.316179784              -0.037768140               0.000000000               0.339157311              -0.040859622               0.000000000               0.362134838              -0.043951105               0.000000000               0.385112365              -0.047042587               0.000000000               0.408089892              -0.050134070               0.000000000               0.431067419              -0.053225552               0.000000000               0.454044946              -0.056317035               0.000000000               0.477022473              -0.059408517               0.000000000               0.500000000              -0.062500000               0.000000000               0.130444442              -0.025947013               0.000000000               0.153541665              -0.032137825               0.000000000               0.176638887              -0.038328636               0.000000000               0.199736109              -0.044519448               0.000000000               0.222833332              -0.050710260               0.000000000               0.245930554              -0.056901071               0.000000000               0.269027776              -0.063091883               0.000000000               0.292124999              -0.069282695               0.000000000               0.315222221              -0.075473506               0.000000000               0.338319444              -0.081664318               0.000000000               0.361416666              -0.087855130               0.000000000               0.384513888              -0.094045942               0.000000000               0.407611111              -0.100236753               0.000000000               0.430708333              -0.106427565               0.000000000               0.453805555              -0.112618377               0.000000000               0.476902778              -0.118809188               0.000000000               0.500000000              -0.125000000               0.000000000               0.127273065              -0.038607862               0.000000000               0.150568498              -0.047913621               0.000000000               0.173863932              -0.057219379               0.000000000               0.197159365              -0.066525138               0.000000000               0.220454798              -0.075830897               0.000000000               0.243750232              -0.085136655               0.000000000               0.267045665              -0.094442414               0.000000000               0.290341099              -0.103748172               0.000000000               0.313636532              -0.113053931               0.000000000               0.336931966              -0.122359690               0.000000000               0.360227399              -0.131665448               0.000000000               0.383522833              -0.140971207               0.000000000               0.406818266              -0.150276966               0.000000000               0.430113700              -0.159582724               0.000000000               0.453409133              -0.168888483               0.000000000               0.476704567              -0.178194241               0.000000000               0.500000000              -0.187500000               0.000000000               0.122875978              -0.050896897               0.000000000               0.146446229              -0.063340840               0.000000000               0.170016481              -0.075784784               0.000000000               0.193586732              -0.088228728               0.000000000               0.217156983              -0.100672672               0.000000000               0.240727235              -0.113116616               0.000000000               0.264297486              -0.125560560               0.000000000               0.287867738              -0.138004504               0.000000000               0.311437989              -0.150448448               0.000000000               0.335008240              -0.162892392               0.000000000               0.358578492              -0.175336336               0.000000000               0.382148743              -0.187780280               0.000000000               0.405718994              -0.200224224               0.000000000               0.429289246              -0.212668168               0.000000000               0.452859497              -0.225112112               0.000000000               0.476429749              -0.237556056               0.000000000               0.500000000              -0.250000000               0.000000000               0.117295528              -0.062695766               0.000000000               0.141214558              -0.078308531               0.000000000               0.165133587              -0.093921295               0.000000000               0.189052617              -0.109534060               0.000000000               0.212971646              -0.125146824               0.000000000               0.236890676              -0.140759589               0.000000000               0.260809705              -0.156372354               0.000000000               0.284728735              -0.171985118               0.000000000               0.308647764              -0.187597883               0.000000000               0.332566794              -0.203210648               0.000000000               0.356485823              -0.218823412               0.000000000               0.380404853              -0.234436177               0.000000000               0.404323882              -0.250048941               0.000000000               0.428242912              -0.265661706               0.000000000               0.452161941              -0.281274471               0.000000000               0.476080971              -0.296887235               0.000000000               0.500000000              -0.312500000               0.000000000               0.110585458              -0.073890841               0.000000000               0.134923867              -0.092710163               0.000000000               0.159262276              -0.111529486               0.000000000               0.183600685              -0.130348808               0.000000000               0.207939094              -0.149168131               0.000000000               0.232277503              -0.167987453               0.000000000               0.256615912              -0.186806776               0.000000000               0.280954320              -0.205626098               0.000000000               0.305292729              -0.224445420               0.000000000               0.329631138              -0.243264743               0.000000000               0.353969547              -0.262084065               0.000000000               0.378307956              -0.280903388               0.000000000               0.402646365              -0.299722710               0.000000000               0.426984773              -0.318542033               0.000000000               0.451323182              -0.337361355               0.000000000               0.475661591              -0.356180678               0.000000000               0.500000000              -0.375000000               0.000000000               0.102810390              -0.084374307               0.000000000               0.127634741              -0.106444663               0.000000000               0.152459092              -0.128515018               0.000000000               0.177283442              -0.150585374               0.000000000               0.202107793              -0.172655730               0.000000000               0.226932143              -0.194726086               0.000000000               0.251756494              -0.216796442               0.000000000               0.276580845              -0.238866798               0.000000000               0.301405195              -0.260937153               0.000000000               0.326229546              -0.283007509               0.000000000               0.351053896              -0.305077865               0.000000000               0.375878247              -0.327148221               0.000000000               0.400702598              -0.349218577               0.000000000               0.425526948              -0.371288933               0.000000000               0.450351299              -0.393359288               0.000000000               0.475175649              -0.415429644               0.000000000               0.500000000              -0.437500000               0.000000000               0.094045202              -0.094045202               0.000000000               0.119417377              -0.119417377               0.000000000               0.144789552              -0.144789552               0.000000000               0.170161727              -0.170161727               0.000000000               0.195533901              -0.195533901               0.000000000               0.220906076              -0.220906076               0.000000000               0.246278251              -0.246278251               0.000000000               0.271650426              -0.271650426               0.000000000               0.297022601              -0.297022601               0.000000000               0.322394776              -0.322394776               0.000000000               0.347766951              -0.347766951               0.000000000               0.373139126              -0.373139126               0.000000000               0.398511300              -0.398511300               0.000000000               0.423883475              -0.423883475               0.000000000               0.449255650              -0.449255650               0.000000000               0.474627825              -0.474627825               0.000000000               0.500000000              -0.500000000               0.000000000               0.084374307              -0.102810390               0.000000000               0.106444663              -0.127634741               0.000000000               0.128515018              -0.152459092               0.000000000               0.150585374              -0.177283442               0.000000000               0.172655730              -0.202107793               0.000000000               0.194726086              -0.226932143               0.000000000               0.216796442              -0.251756494               0.000000000               0.238866798              -0.276580845               0.000000000               0.260937153              -0.301405195               0.000000000               0.283007509              -0.326229546               0.000000000               0.305077865              -0.351053896               0.000000000               0.327148221              -0.375878247               0.000000000               0.349218577              -0.400702598               0.000000000               0.371288933              -0.425526948               0.000000000               0.393359288              -0.450351299               0.000000000               0.415429644              -0.475175649               0.000000000               0.437500000              -0.500000000               0.000000000               0.073890841              -0.110585458               0.000000000               0.092710163              -0.134923867               0.000000000               0.111529486              -0.159262276               0.000000000               0.130348808              -0.183600685               0.000000000               0.149168131              -0.207939094               0.000000000               0.167987453              -0.232277503               0.000000000               0.186806776              -0.256615912               0.000000000               0.205626098              -0.280954320               0.000000000               0.224445420              -0.305292729               0.000000000               0.243264743              -0.329631138               0.000000000               0.262084065              -0.353969547               0.000000000               0.280903388              -0.378307956               0.000000000               0.299722710              -0.402646365               0.000000000               0.318542033              -0.426984773               0.000000000               0.337361355              -0.451323182               0.000000000               0.356180678              -0.475661591               0.000000000               0.375000000              -0.500000000               0.000000000               0.062695766              -0.117295528               0.000000000               0.078308531              -0.141214558               0.000000000               0.093921295              -0.165133587               0.000000000               0.109534060              -0.189052617               0.000000000               0.125146824              -0.212971646               0.000000000               0.140759589              -0.236890676               0.000000000               0.156372354              -0.260809705               0.000000000               0.171985118              -0.284728735               0.000000000               0.187597883              -0.308647764               0.000000000               0.203210648              -0.332566794               0.000000000               0.218823412              -0.356485823               0.000000000               0.234436177              -0.380404853               0.000000000               0.250048941              -0.404323882               0.000000000               0.265661706              -0.428242912               0.000000000               0.281274471              -0.452161941               0.000000000               0.296887235              -0.476080971               0.000000000               0.312500000              -0.500000000               0.000000000               0.050896897              -0.122875978               0.000000000               0.063340840              -0.146446229               0.000000000               0.075784784              -0.170016481               0.000000000               0.088228728              -0.193586732               0.000000000               0.100672672              -0.217156983               0.000000000               0.113116616              -0.240727235               0.000000000               0.125560560              -0.264297486               0.000000000               0.138004504              -0.287867738               0.000000000               0.150448448              -0.311437989               0.000000000               0.162892392              -0.335008240               0.000000000               0.175336336              -0.358578492               0.000000000               0.187780280              -0.382148743               0.000000000               0.200224224              -0.405718994               0.000000000               0.212668168              -0.429289246               0.000000000               0.225112112              -0.452859497               0.000000000               0.237556056              -0.476429749               0.000000000               0.250000000              -0.500000000               0.000000000               0.038607862              -0.127273065               0.000000000               0.047913621              -0.150568498               0.000000000               0.057219379              -0.173863932               0.000000000               0.066525138              -0.197159365               0.000000000               0.075830897              -0.220454798               0.000000000               0.085136655              -0.243750232               0.000000000               0.094442414              -0.267045665               0.000000000               0.103748172              -0.290341099               0.000000000               0.113053931              -0.313636532               0.000000000               0.122359690              -0.336931966               0.000000000               0.131665448              -0.360227399               0.000000000               0.140971207              -0.383522833               0.000000000               0.150276966              -0.406818266               0.000000000               0.159582724              -0.430113700               0.000000000               0.168888483              -0.453409133               0.000000000               0.178194241              -0.476704567               0.000000000               0.187500000              -0.500000000               0.000000000               0.025947013              -0.130444442               0.000000000               0.032137825              -0.153541665               0.000000000               0.038328636              -0.176638887               0.000000000               0.044519448              -0.199736109               0.000000000               0.050710260              -0.222833332               0.000000000               0.056901071              -0.245930554               0.000000000               0.063091883              -0.269027776               0.000000000               0.069282695              -0.292124999               0.000000000               0.075473506              -0.315222221               0.000000000               0.081664318              -0.338319444               0.000000000               0.087855130              -0.361416666               0.000000000               0.094045942              -0.384513888               0.000000000               0.100236753              -0.407611111               0.000000000               0.106427565              -0.430708333               0.000000000               0.112618377              -0.453805555               0.000000000               0.118809188              -0.476902778               0.000000000               0.125000000              -0.500000000               0.000000000               0.013036280              -0.132359569               0.000000000               0.016127762              -0.155337096               0.000000000               0.019219245              -0.178314623               0.000000000               0.022310727              -0.201292150               0.000000000               0.025402210              -0.224269676               0.000000000               0.028493692              -0.247247203               0.000000000               0.031585175              -0.270224730               0.000000000               0.034676657              -0.293202257               0.000000000               0.037768140              -0.316179784               0.000000000               0.040859622              -0.339157311               0.000000000               0.043951105              -0.362134838               0.000000000               0.047042587              -0.385112365               0.000000000               0.050134070              -0.408089892               0.000000000               0.053225552              -0.431067419               0.000000000               0.056317035              -0.454044946               0.000000000               0.059408517              -0.477022473               0.000000000               0.062500000              -0.500000000               0.000000000               0.000000000              -0.133000000               0.000000000               0.000000000              -0.155937500               0.000000000               0.000000000              -0.178875000               0.000000000               0.000000000              -0.201812500               0.000000000               0.000000000              -0.224750000               0.000000000               0.000000000              -0.247687500               0.000000000               0.000000000              -0.270625000               0.000000000               0.000000000              -0.293562500               0.000000000               0.000000000              -0.316500000               0.000000000               0.000000000              -0.339437500               0.000000000               0.000000000              -0.362375000               0.000000000               0.000000000              -0.385312500               0.000000000               0.000000000              -0.408250000               0.000000000               0.000000000              -0.431187500               0.000000000               0.000000000              -0.454125000               0.000000000               0.000000000              -0.477062500               0.000000000               0.000000000              -0.500000000               0.000000000              -0.133000000               0.000000000               0.000000000              -0.155937500               0.000000000               0.000000000              -0.178875000               0.000000000               0.000000000              -0.201812500               0.000000000               0.000000000              -0.224750000               0.000000000               0.000000000              -0.247687500               0.000000000               0.000000000              -0.270625000               0.000000000               0.000000000              -0.293562500               0.000000000               0.000000000              -0.316500000               0.000000000               0.000000000              -0.339437500               0.000000000               0.000000000              -0.362375000               0.000000000               0.000000000              -0.385312500               0.000000000               0.000000000              -0.408250000               0.000000000               0.000000000              -0.431187500               0.000000000               0.000000000              -0.454125000               0.000000000               0.000000000              -0.477062500               0.000000000               0.000000000              -0.500000000               0.000000000               0.000000000              -0.132359569              -0.013036280               0.000000000              -0.155337096              -0.016127762               0.000000000              -0.178314623              -0.019219245               0.000000000              -0.201292150              -0.022310727               0.000000000              -0.224269676              -0.025402210               0.000000000              -0.247247203              -0.028493692               0.000000000              -0.270224730              -0.031585175               0.000000000              -0.293202257              -0.034676657               0.000000000              -0.316179784              -0.037768140               0.000000000              -0.339157311              -0.040859622               0.000000000              -0.362134838              -0.043951105               0.000000000              -0.385112365              -0.047042587               0.000000000              -0.408089892              -0.050134070               0.000000000              -0.431067419              -0.053225552               0.000000000              -0.454044946              -0.056317035               0.000000000              -0.477022473              -0.059408517               0.000000000              -0.500000000              -0.062500000               0.000000000              -0.130444442              -0.025947013               0.000000000              -0.153541665              -0.032137825               0.000000000              -0.176638887              -0.038328636               0.000000000              -0.199736109              -0.044519448               0.000000000              -0.222833332              -0.050710260               0.000000000              -0.245930554              -0.056901071               0.000000000              -0.269027776              -0.063091883               0.000000000              -0.292124999              -0.069282695               0.000000000              -0.315222221              -0.075473506               0.000000000              -0.338319444              -0.081664318               0.000000000              -0.361416666              -0.087855130               0.000000000              -0.384513888              -0.094045942               0.000000000              -0.407611111              -0.100236753               0.000000000              -0.430708333              -0.106427565               0.000000000              -0.453805555              -0.112618377               0.000000000              -0.476902778              -0.118809188               0.000000000              -0.500000000              -0.125000000               0.000000000              -0.127273065              -0.038607862               0.000000000              -0.150568498              -0.047913621               0.000000000              -0.173863932              -0.057219379               0.000000000              -0.197159365              -0.066525138               0.000000000              -0.220454798              -0.075830897               0.000000000              -0.243750232              -0.085136655               0.000000000              -0.267045665              -0.094442414               0.000000000              -0.290341099              -0.103748172               0.000000000              -0.313636532              -0.113053931               0.000000000              -0.336931966              -0.122359690               0.000000000              -0.360227399              -0.131665448               0.000000000              -0.383522833              -0.140971207               0.000000000              -0.406818266              -0.150276966               0.000000000              -0.430113700              -0.159582724               0.000000000              -0.453409133              -0.168888483               0.000000000              -0.476704567              -0.178194241               0.000000000              -0.500000000              -0.187500000               0.000000000              -0.122875978              -0.050896897               0.000000000              -0.146446229              -0.063340840               0.000000000              -0.170016481              -0.075784784               0.000000000              -0.193586732              -0.088228728               0.000000000              -0.217156983              -0.100672672               0.000000000              -0.240727235              -0.113116616               0.000000000              -0.264297486              -0.125560560               0.000000000              -0.287867738              -0.138004504               0.000000000              -0.311437989              -0.150448448               0.000000000              -0.335008240              -0.162892392               0.000000000              -0.358578492              -0.175336336               0.000000000              -0.382148743              -0.187780280               0.000000000              -0.405718994              -0.200224224               0.000000000              -0.429289246              -0.212668168               0.000000000              -0.452859497              -0.225112112               0.000000000              -0.476429749              -0.237556056               0.000000000              -0.500000000              -0.250000000               0.000000000              -0.117295528              -0.062695766               0.000000000              -0.141214558              -0.078308531               0.000000000              -0.165133587              -0.093921295               0.000000000              -0.189052617              -0.109534060               0.000000000              -0.212971646              -0.125146824               0.000000000              -0.236890676              -0.140759589               0.000000000              -0.260809705              -0.156372354               0.000000000              -0.284728735              -0.171985118               0.000000000              -0.308647764              -0.187597883               0.000000000              -0.332566794              -0.203210648               0.000000000              -0.356485823              -0.218823412               0.000000000              -0.380404853              -0.234436177               0.000000000              -0.404323882              -0.250048941               0.000000000              -0.428242912              -0.265661706               0.000000000              -0.452161941              -0.281274471               0.000000000              -0.476080971              -0.296887235               0.000000000              -0.500000000              -0.312500000               0.000000000              -0.110585458              -0.073890841               0.000000000              -0.134923867              -0.092710163               0.000000000              -0.159262276              -0.111529486               0.000000000              -0.183600685              -0.130348808               0.000000000              -0.207939094              -0.149168131               0.000000000              -0.232277503              -0.167987453               0.000000000              -0.256615912              -0.186806776               0.000000000              -0.280954320              -0.205626098               0.000000000              -0.305292729              -0.224445420               0.000000000              -0.329631138              -0.243264743               0.000000000              -0.353969547              -0.262084065               0.000000000              -0.378307956              -0.280903388               0.000000000              -0.402646365              -0.299722710               0.000000000              -0.426984773              -0.318542033               0.000000000              -0.451323182              -0.337361355               0.000000000              -0.475661591              -0.356180678               0.000000000              -0.500000000              -0.375000000               0.000000000              -0.102810390              -0.084374307               0.000000000              -0.127634741              -0.106444663               0.000000000              -0.152459092              -0.128515018               0.000000000              -0.177283442              -0.150585374               0.000000000              -0.202107793              -0.172655730               0.000000000              -0.226932143              -0.194726086               0.000000000              -0.251756494              -0.216796442               0.000000000              -0.276580845              -0.238866798               0.000000000              -0.301405195              -0.260937153               0.000000000              -0.326229546              -0.283007509               0.000000000              -0.351053896              -0.305077865               0.000000000              -0.375878247              -0.327148221               0.000000000              -0.400702598              -0.349218577               0.000000000              -0.425526948              -0.371288933               0.000000000              -0.450351299              -0.393359288               0.000000000              -0.475175649              -0.415429644               0.000000000              -0.500000000              -0.437500000               0.000000000              -0.094045202              -0.094045202               0.000000000              -0.119417377              -0.119417377               0.000000000              -0.144789552              -0.144789552               0.000000000              -0.170161727              -0.170161727               0.000000000              -0.195533901              -0.195533901               0.000000000              -0.220906076              -0.220906076               0.000000000              -0.246278251              -0.246278251               0.000000000              -0.271650426              -0.271650426               0.000000000              -0.297022601              -0.297022601               0.000000000              -0.322394776              -0.322394776               0.000000000              -0.347766951              -0.347766951               0.000000000              -0.373139126              -0.373139126               0.000000000              -0.398511300              -0.398511300               0.000000000              -0.423883475              -0.423883475               0.000000000              -0.449255650              -0.449255650               0.000000000              -0.474627825              -0.474627825               0.000000000              -0.500000000              -0.500000000               0.000000000              -0.084374307              -0.102810390               0.000000000              -0.106444663              -0.127634741               0.000000000              -0.128515018              -0.152459092               0.000000000              -0.150585374              -0.177283442               0.000000000              -0.172655730              -0.202107793               0.000000000              -0.194726086              -0.226932143               0.000000000              -0.216796442              -0.251756494               0.000000000              -0.238866798              -0.276580845               0.000000000              -0.260937153              -0.301405195               0.000000000              -0.283007509              -0.326229546               0.000000000              -0.305077865              -0.351053896               0.000000000              -0.327148221              -0.375878247               0.000000000              -0.349218577              -0.400702598               0.000000000              -0.371288933              -0.425526948               0.000000000              -0.393359288              -0.450351299               0.000000000              -0.415429644              -0.475175649               0.000000000              -0.437500000              -0.500000000               0.000000000              -0.073890841              -0.110585458               0.000000000              -0.092710163              -0.134923867               0.000000000              -0.111529486              -0.159262276               0.000000000              -0.130348808              -0.183600685               0.000000000              -0.149168131              -0.207939094               0.000000000              -0.167987453              -0.232277503               0.000000000              -0.186806776              -0.256615912               0.000000000              -0.205626098              -0.280954320               0.000000000              -0.224445420              -0.305292729               0.000000000              -0.243264743              -0.329631138               0.000000000              -0.262084065              -0.353969547               0.000000000              -0.280903388              -0.378307956               0.000000000              -0.299722710              -0.402646365               0.000000000              -0.318542033              -0.426984773               0.000000000              -0.337361355              -0.451323182               0.000000000              -0.356180678              -0.475661591               0.000000000              -0.375000000              -0.500000000               0.000000000              -0.062695766              -0.117295528               0.000000000              -0.078308531              -0.141214558               0.000000000              -0.093921295              -0.165133587               0.000000000              -0.109534060              -0.189052617               0.000000000              -0.125146824              -0.212971646               0.000000000              -0.140759589              -0.236890676               0.000000000              -0.156372354              -0.260809705               0.000000000              -0.171985118              -0.284728735               0.000000000              -0.187597883              -0.308647764               0.000000000              -0.203210648              -0.332566794               0.000000000              -0.218823412              -0.356485823               0.000000000              -0.234436177              -0.380404853               0.000000000              -0.250048941              -0.404323882               0.000000000              -0.265661706              -0.428242912               0.000000000              -0.281274471              -0.452161941               0.000000000              -0.296887235              -0.476080971               0.000000000              -0.312500000              -0.500000000               0.000000000              -0.050896897              -0.122875978               0.000000000              -0.063340840              -0.146446229               0.000000000              -0.075784784              -0.170016481               0.000000000              -0.088228728              -0.193586732               0.000000000              -0.100672672              -0.217156983               0.000000000              -0.113116616              -0.240727235               0.000000000              -0.125560560              -0.264297486               0.000000000              -0.138004504              -0.287867738               0.000000000              -0.150448448              -0.311437989               0.000000000              -0.162892392              -0.335008240               0.000000000              -0.175336336              -0.358578492               0.000000000              -0.187780280              -0.382148743               0.000000000              -0.200224224              -0.405718994               0.000000000              -0.212668168              -0.429289246               0.000000000              -0.225112112              -0.452859497               0.000000000              -0.237556056              -0.476429749               0.000000000              -0.250000000              -0.500000000               0.000000000              -0.038607862              -0.127273065               0.000000000              -0.047913621              -0.150568498               0.000000000              -0.057219379              -0.173863932               0.000000000              -0.066525138              -0.197159365               0.000000000              -0.075830897              -0.220454798               0.000000000              -0.085136655              -0.243750232               0.000000000              -0.094442414              -0.267045665               0.000000000              -0.103748172              -0.290341099               0.000000000              -0.113053931              -0.313636532               0.000000000              -0.122359690              -0.336931966               0.000000000              -0.131665448              -0.360227399               0.000000000              -0.140971207              -0.383522833               0.000000000              -0.150276966              -0.406818266               0.000000000              -0.159582724              -0.430113700               0.000000000              -0.168888483              -0.453409133               0.000000000              -0.178194241              -0.476704567               0.000000000              -0.187500000              -0.500000000               0.000000000              -0.025947013              -0.130444442               0.000000000              -0.032137825              -0.153541665               0.000000000              -0.038328636              -0.176638887               0.000000000              -0.044519448              -0.199736109               0.000000000              -0.050710260              -0.222833332               0.000000000              -0.056901071              -0.245930554               0.000000000              -0.063091883              -0.269027776               0.000000000              -0.069282695              -0.292124999               0.000000000              -0.075473506              -0.315222221               0.000000000              -0.081664318              -0.338319444               0.000000000              -0.087855130              -0.361416666               0.000000000              -0.094045942              -0.384513888               0.000000000              -0.100236753              -0.407611111               0.000000000              -0.106427565              -0.430708333               0.000000000              -0.112618377              -0.453805555               0.000000000              -0.118809188              -0.476902778               0.000000000              -0.125000000              -0.500000000               0.000000000              -0.013036280              -0.132359569               0.000000000              -0.016127762              -0.155337096               0.000000000              -0.019219245              -0.178314623               0.000000000              -0.022310727              -0.201292150               0.000000000              -0.025402210              -0.224269676               0.000000000              -0.028493692              -0.247247203               0.000000000              -0.031585175              -0.270224730               0.000000000              -0.034676657              -0.293202257               0.000000000              -0.037768140              -0.316179784               0.000000000              -0.040859622              -0.339157311               0.000000000              -0.043951105              -0.362134838               0.000000000              -0.047042587              -0.385112365               0.000000000              -0.050134070              -0.408089892               0.000000000              -0.053225552              -0.431067419               0.000000000              -0.056317035              -0.454044946               0.000000000              -0.059408517              -0.477022473               0.000000000              -0.062500000              -0.500000000               0.000000000               0.000000000              -0.133000000               0.000000000               0.000000000              -0.155937500               0.000000000               0.000000000              -0.178875000               0.000000000               0.000000000              -0.201812500               0.000000000               0.000000000              -0.224750000               0.000000000               0.000000000              -0.247687500               0.000000000               0.000000000              -0.270625000               0.000000000               0.000000000              -0.293562500               0.000000000               0.000000000              -0.316500000               0.000000000               0.000000000              -0.339437500               0.000000000               0.000000000              -0.362375000               0.000000000               0.000000000              -0.385312500               0.000000000               0.000000000              -0.408250000               0.000000000               0.000000000              -0.431187500               0.000000000               0.000000000              -0.454125000               0.000000000               0.000000000              -0.477062500               0.000000000               0.000000000              -0.500000000               0.000000000              -0.133000000               0.000000000               0.000000000              -0.155937500               0.000000000               0.000000000              -0.178875000               0.000000000               0.000000000              -0.201812500               0.000000000               0.000000000              -0.224750000               0.000000000               0.000000000              -0.247687500               0.000000000               0.000000000              -0.270625000               0.000000000               0.000000000              -0.293562500               0.000000000               0.000000000              -0.316500000               0.000000000               0.000000000              -0.339437500               0.000000000               0.000000000              -0.362375000               0.000000000               0.000000000              -0.385312500               0.000000000               0.000000000              -0.408250000               0.000000000               0.000000000              -0.431187500               0.000000000               0.000000000              -0.454125000               0.000000000               0.000000000              -0.477062500               0.000000000               0.000000000              -0.500000000               0.000000000               0.000000000              -0.132359569               0.013036280               0.000000000              -0.155337096               0.016127762               0.000000000              -0.178314623               0.019219245               0.000000000              -0.201292150               0.022310727               0.000000000              -0.224269676               0.025402210               0.000000000              -0.247247203               0.028493692               0.000000000              -0.270224730               0.031585175               0.000000000              -0.293202257               0.034676657               0.000000000              -0.316179784               0.037768140               0.000000000              -0.339157311               0.040859622               0.000000000              -0.362134838               0.043951105               0.000000000              -0.385112365               0.047042587               0.000000000              -0.408089892               0.050134070               0.000000000              -0.431067419               0.053225552               0.000000000              -0.454044946               0.056317035               0.000000000              -0.477022473               0.059408517               0.000000000              -0.500000000               0.062500000               0.000000000              -0.130444442               0.025947013               0.000000000              -0.153541665               0.032137825               0.000000000              -0.176638887               0.038328636               0.000000000              -0.199736109               0.044519448               0.000000000              -0.222833332               0.050710260               0.000000000              -0.245930554               0.056901071               0.000000000              -0.269027776               0.063091883               0.000000000              -0.292124999               0.069282695               0.000000000              -0.315222221               0.075473506               0.000000000              -0.338319444               0.081664318               0.000000000              -0.361416666               0.087855130               0.000000000              -0.384513888               0.094045942               0.000000000              -0.407611111               0.100236753               0.000000000              -0.430708333               0.106427565               0.000000000              -0.453805555               0.112618377               0.000000000              -0.476902778               0.118809188               0.000000000              -0.500000000               0.125000000               0.000000000              -0.127273065               0.038607862               0.000000000              -0.150568498               0.047913621               0.000000000              -0.173863932               0.057219379               0.000000000              -0.197159365               0.066525138               0.000000000              -0.220454798               0.075830897               0.000000000              -0.243750232               0.085136655               0.000000000              -0.267045665               0.094442414               0.000000000              -0.290341099               0.103748172               0.000000000              -0.313636532               0.113053931               0.000000000              -0.336931966               0.122359690               0.000000000              -0.360227399               0.131665448               0.000000000              -0.383522833               0.140971207               0.000000000              -0.406818266               0.150276966               0.000000000              -0.430113700               0.159582724               0.000000000              -0.453409133               0.168888483               0.000000000              -0.476704567               0.178194241               0.000000000              -0.500000000               0.187500000               0.000000000              -0.122875978               0.050896897               0.000000000              -0.146446229               0.063340840               0.000000000              -0.170016481               0.075784784               0.000000000              -0.193586732               0.088228728               0.000000000              -0.217156983               0.100672672               0.000000000              -0.240727235               0.113116616               0.000000000              -0.264297486               0.125560560               0.000000000              -0.287867738               0.138004504               0.000000000              -0.311437989               0.150448448               0.000000000              -0.335008240               0.162892392               0.000000000              -0.358578492               0.175336336               0.000000000              -0.382148743               0.187780280               0.000000000              -0.405718994               0.200224224               0.000000000              -0.429289246               0.212668168               0.000000000              -0.452859497               0.225112112               0.000000000              -0.476429749               0.237556056               0.000000000              -0.500000000               0.250000000               0.000000000              -0.117295528               0.062695766               0.000000000              -0.141214558               0.078308531               0.000000000              -0.165133587               0.093921295               0.000000000              -0.189052617               0.109534060               0.000000000              -0.212971646               0.125146824               0.000000000              -0.236890676               0.140759589               0.000000000              -0.260809705               0.156372354               0.000000000              -0.284728735               0.171985118               0.000000000              -0.308647764               0.187597883               0.000000000              -0.332566794               0.203210648               0.000000000              -0.356485823               0.218823412               0.000000000              -0.380404853               0.234436177               0.000000000              -0.404323882               0.250048941               0.000000000              -0.428242912               0.265661706               0.000000000              -0.452161941               0.281274471               0.000000000              -0.476080971               0.296887235               0.000000000              -0.500000000               0.312500000               0.000000000              -0.110585458               0.073890841               0.000000000              -0.134923867               0.092710163               0.000000000              -0.159262276               0.111529486               0.000000000              -0.183600685               0.130348808               0.000000000              -0.207939094               0.149168131               0.000000000              -0.232277503               0.167987453               0.000000000              -0.256615912               0.186806776               0.000000000              -0.280954320               0.205626098               0.000000000              -0.305292729               0.224445420               0.000000000              -0.329631138               0.243264743               0.000000000              -0.353969547               0.262084065               0.000000000              -0.378307956               0.280903388               0.000000000              -0.402646365               0.299722710               0.000000000              -0.426984773               0.318542033               0.000000000              -0.451323182               0.337361355               0.000000000              -0.475661591               0.356180678               0.000000000              -0.500000000               0.375000000               0.000000000              -0.102810390               0.084374307               0.000000000              -0.127634741               0.106444663               0.000000000              -0.152459092               0.128515018               0.000000000              -0.177283442               0.150585374               0.000000000              -0.202107793               0.172655730               0.000000000              -0.226932143               0.194726086               0.000000000              -0.251756494               0.216796442               0.000000000              -0.276580845               0.238866798               0.000000000              -0.301405195               0.260937153               0.000000000              -0.326229546               0.283007509               0.000000000              -0.351053896               0.305077865               0.000000000              -0.375878247               0.327148221               0.000000000              -0.400702598               0.349218577               0.000000000              -0.425526948               0.371288933               0.000000000              -0.450351299               0.393359288               0.000000000              -0.475175649               0.415429644               0.000000000              -0.500000000               0.437500000               0.000000000              -0.094045202               0.094045202               0.000000000              -0.119417377               0.119417377               0.000000000              -0.144789552               0.144789552               0.000000000              -0.170161727               0.170161727               0.000000000              -0.195533901               0.195533901               0.000000000              -0.220906076               0.220906076               0.000000000              -0.246278251               0.246278251               0.000000000              -0.271650426               0.271650426               0.000000000              -0.297022601               0.297022601               0.000000000              -0.322394776               0.322394776               0.000000000              -0.347766951               0.347766951               0.000000000              -0.373139126               0.373139126               0.000000000              -0.398511300               0.398511300               0.000000000              -0.423883475               0.423883475               0.000000000              -0.449255650               0.449255650               0.000000000              -0.474627825               0.474627825               0.000000000              -0.500000000               0.500000000               0.000000000              -0.084374307               0.102810390               0.000000000              -0.106444663               0.127634741               0.000000000              -0.128515018               0.152459092               0.000000000              -0.150585374               0.177283442               0.000000000              -0.172655730               0.202107793               0.000000000              -0.194726086               0.226932143               0.000000000              -0.216796442               0.251756494               0.000000000              -0.238866798               0.276580845               0.000000000              -0.260937153               0.301405195               0.000000000              -0.283007509               0.326229546               0.000000000              -0.305077865               0.351053896               0.000000000              -0.327148221               0.375878247               0.000000000              -0.349218577               0.400702598               0.000000000              -0.371288933               0.425526948               0.000000000              -0.393359288               0.450351299               0.000000000              -0.415429644               0.475175649               0.000000000              -0.437500000               0.500000000               0.000000000              -0.073890841               0.110585458               0.000000000              -0.092710163               0.134923867               0.000000000              -0.111529486               0.159262276               0.000000000              -0.130348808               0.183600685               0.000000000              -0.149168131               0.207939094               0.000000000              -0.167987453               0.232277503               0.000000000              -0.186806776               0.256615912               0.000000000              -0.205626098               0.280954320               0.000000000              -0.224445420               0.305292729               0.000000000              -0.243264743               0.329631138               0.000000000              -0.262084065               0.353969547               0.000000000              -0.280903388               0.378307956               0.000000000              -0.299722710               0.402646365               0.000000000              -0.318542033               0.426984773               0.000000000              -0.337361355               0.451323182               0.000000000              -0.356180678               0.475661591               0.000000000              -0.375000000               0.500000000               0.000000000              -0.062695766               0.117295528               0.000000000              -0.078308531               0.141214558               0.000000000              -0.093921295               0.165133587               0.000000000              -0.109534060               0.189052617               0.000000000              -0.125146824               0.212971646               0.000000000              -0.140759589               0.236890676               0.000000000              -0.156372354               0.260809705               0.000000000              -0.171985118               0.284728735               0.000000000              -0.187597883               0.308647764               0.000000000              -0.203210648               0.332566794               0.000000000              -0.218823412               0.356485823               0.000000000              -0.234436177               0.380404853               0.000000000              -0.250048941               0.404323882               0.000000000              -0.265661706               0.428242912               0.000000000              -0.281274471               0.452161941               0.000000000              -0.296887235               0.476080971               0.000000000              -0.312500000               0.500000000               0.000000000              -0.050896897               0.122875978               0.000000000              -0.063340840               0.146446229               0.000000000              -0.075784784               0.170016481               0.000000000              -0.088228728               0.193586732               0.000000000              -0.100672672               0.217156983               0.000000000              -0.113116616               0.240727235               0.000000000              -0.125560560               0.264297486               0.000000000              -0.138004504               0.287867738               0.000000000              -0.150448448               0.311437989               0.000000000              -0.162892392               0.335008240               0.000000000              -0.175336336               0.358578492               0.000000000              -0.187780280               0.382148743               0.000000000              -0.200224224               0.405718994               0.000000000              -0.212668168               0.429289246               0.000000000              -0.225112112               0.452859497               0.000000000              -0.237556056               0.476429749               0.000000000              -0.250000000               0.500000000               0.000000000              -0.038607862               0.127273065               0.000000000              -0.047913621               0.150568498               0.000000000              -0.057219379               0.173863932               0.000000000              -0.066525138               0.197159365               0.000000000              -0.075830897               0.220454798               0.000000000              -0.085136655               0.243750232               0.000000000              -0.094442414               0.267045665               0.000000000              -0.103748172               0.290341099               0.000000000              -0.113053931               0.313636532               0.000000000              -0.122359690               0.336931966               0.000000000              -0.131665448               0.360227399               0.000000000              -0.140971207               0.383522833               0.000000000              -0.150276966               0.406818266               0.000000000              -0.159582724               0.430113700               0.000000000              -0.168888483               0.453409133               0.000000000              -0.178194241               0.476704567               0.000000000              -0.187500000               0.500000000               0.000000000              -0.025947013               0.130444442               0.000000000              -0.032137825               0.153541665               0.000000000              -0.038328636               0.176638887               0.000000000              -0.044519448               0.199736109               0.000000000              -0.050710260               0.222833332               0.000000000              -0.056901071               0.245930554               0.000000000              -0.063091883               0.269027776               0.000000000              -0.069282695               0.292124999               0.000000000              -0.075473506               0.315222221               0.000000000              -0.081664318               0.338319444               0.000000000              -0.087855130               0.361416666               0.000000000              -0.094045942               0.384513888               0.000000000              -0.100236753               0.407611111               0.000000000              -0.106427565               0.430708333               0.000000000              -0.112618377               0.453805555               0.000000000              -0.118809188               0.476902778               0.000000000              -0.125000000               0.500000000               0.000000000              -0.013036280               0.132359569               0.000000000              -0.016127762               0.155337096               0.000000000              -0.019219245               0.178314623               0.000000000              -0.022310727               0.201292150               0.000000000              -0.025402210               0.224269676               0.000000000              -0.028493692               0.247247203               0.000000000              -0.031585175               0.270224730               0.000000000              -0.034676657               0.293202257               0.000000000              -0.037768140               0.316179784               0.000000000              -0.040859622               0.339157311               0.000000000              -0.043951105               0.362134838               0.000000000              -0.047042587               0.385112365               0.000000000              -0.050134070               0.408089892               0.000000000              -0.053225552               0.431067419               0.000000000              -0.056317035               0.454044946               0.000000000              -0.059408517               0.477022473               0.000000000              -0.062500000               0.500000000               0.000000000               0.000000000               0.133000000               0.000000000               0.000000000               0.155937500               0.000000000               0.000000000               0.178875000               0.000000000               0.000000000               0.201812500               0.000000000               0.000000000               0.224750000               0.000000000               0.000000000               0.247687500               0.000000000               0.000000000               0.270625000               0.000000000               0.000000000               0.293562500               0.000000000               0.000000000               0.316500000               0.000000000               0.000000000               0.339437500               0.000000000               0.000000000               0.362375000               0.000000000               0.000000000               0.385312500               0.000000000               0.000000000               0.408250000               0.000000000               0.000000000               0.431187500               0.000000000               0.000000000               0.454125000               0.000000000               0.000000000               0.477062500               0.000000000               0.000000000               0.500000000               0.000000000 </DataArray>
</Points>
<Cells>
<DataArray type="Int32"                                    Name="connectivity"                                                      NumberOfComponents=" 1" format="ascii">
         0          1         18         17          1          2         19         18          2          3         20         19          3          4         21         20          4          5         22         21          5          6         23         22          6          7         24         23          7          8         25         24          8          9         26         25          9         10         27         26         10         11         28         27         11         12         29         28         12         13         30         29         13         14         31         30         14         15         32         31         15         16         33         32         17         18         35         34         18         19         36         35         19         20         37         36         20         21         38         37         21         22         39         38         22         23         40         39         23         24         41         40         24         25         42         41         25         26         43         42         26         27         44         43         27         28         45         44         28         29         46         45         29         30         47         46         30         31         48         47         31         32         49         48         32         33         50         49         34         35         52         51         35         36         53         52         36         37         54         53         37         38         55         54         38         39         56         55         39         40         57         56         40         41         58         57         41         42         59         58         42         43         60         59         43         44         61         60         44         45         62         61         45         46         63         62         46         47         64         63         47         48         65         64         48         49         66         65         49         50         67         66         51         52         69         68         52         53         70         69         53         54         71         70         54         55         72         71         55         56         73         72         56         57         74         73         57         58         75         74         58         59         76         75         59         60         77         76         60         61         78         77         61         62         79         78         62         63         80         79         63         64         81         80         64         65         82         81         65         66         83         82         66         67         84         83         68         69         86         85         69         70         87         86         70         71         88         87         71         72         89         88         72         73         90         89         73         74         91         90         74         75         92         91         75         76         93         92         76         77         94         93         77         78         95         94         78         79         96         95         79         80         97         96         80         81         98         97         81         82         99         98         82         83        100         99         83         84        101        100         85         86        103        102         86         87        104        103         87         88        105        104         88         89        106        105         89         90        107        106         90         91        108        107         91         92        109        108         92         93        110        109         93         94        111        110         94         95        112        111         95         96        113        112         96         97        114        113         97         98        115        114         98         99        116        115         99        100        117        116        100        101        118        117        102        103        120        119        103        104        121        120        104        105        122        121        105        106        123        122        106        107        124        123        107        108        125        124        108        109        126        125        109        110        127        126        110        111        128        127        111        112        129        128        112        113        130        129        113        114        131        130        114        115        132        131        115        116        133        132        116        117        134        133        117        118        135        134        119        120        137        136        120        121        138        137        121        122        139        138        122        123        140        139        123        124        141        140        124        125        142        141        125        126        143        142        126        127        144        143        127        128        145        144        128        129        146        145        129        130        147        146        130        131        148        147        131        132        149        148        132        133        150        149        133        134        151        150        134        135        152        151        136        137        154        153        137        138        155        154        138        139        156        155        139        140        157        156        140        141        158        157        141        142        159        158        142        143        160        159        143        144        161        160        144        145        162        161        145        146        163        162        146        147        164        163        147        148        165        164        148        149        166        165        149        150        167        166        150        151        168        167        151        152        169        168        153        154        171        170        154        155        172        171        155        156        173        172        156        157        174        173        157        158        175        174        158        159        176        175        159        160        177        176        160        161        178        177        161        162        179        178        162        163        180        179        163        164        181        180        164        165        182        181        165        166        183        182        166        167        184        183        167        168        185        184        168        169        186        185        170        171        188        187        171        172        189        188        172        173        190        189        173        174        191        190        174        175        192        191        175        176        193        192        176        177        194        193        177        178        195        194        178        179        196        195        179        180        197        196        180        181        198        197        181        182        199        198        182        183        200        199        183        184        201        200        184        185        202        201        185        186        203        202        187        188        205        204        188        189        206        205        189        190        207        206        190        191        208        207        191        192        209        208        192        193        210        209        193        194        211        210        194        195        212        211        195        196        213        212        196        197        214        213        197        198        215        214        198        199        216        215        199        200        217        216        200        201        218        217        201        202        219        218        202        203        220        219        204        205        222        221        205        206        223        222        206        207        224        223        207        208        225        224        208        209        226        225        209        210        227        226        210        211        228        227        211        212        229        228        212        213        230        229        213        214        231        230        214        215        232        231        215        216        233        232        216        217        234        233        217        218        235        234        218        219        236        235        219        220        237        236        221        222        239        238        222        223        240        239        223        224        241        240        224        225        242        241        225        226        243        242        226        227        244        243        227        228        245        244        228        229        246        245        229        230        247        246        230        231        248        247        231        232        249        248        232        233        250        249        233        234        251        250        234        235        252        251        235        236        253        252        236        237        254        253        238        239        256        255        239        240        257        256        240        241        258        257        241        242        259        258        242        243        260        259        243        244        261        260        244        245        262        261        245        246        263        262        246        247        264        263        247        248        265        264        248        249        266        265        249        250        267        266        250        251        268        267        251        252        269        268        252        253        270        269        253        254        271        270        255        256        273        272        256        257        274        273        257        258        275        274        258        259        276        275        259        260        277        276        260        261        278        277        261        262        279        278        262        263        280        279        263        264        281        280        264        265        282        281        265        266        283        282        266        267        284        283        267        268        285        284        268        269        286        285        269        270        287        286        270        271        288        287        306        307          1          0        307        308          2          1        308        309          3          2        309        310          4          3        310        311          5          4        311        312          6          5        312        313          7          6        313        314          8          7        314        315          9          8        315        316         10          9        316        317         11         10        317        318         12         11        318        319         13         12        319        320         14         13        320        321         15         14        321        322         16         15        323        324        307        306        324        325        308        307        325        326        309        308        326        327        310        309        327        328        311        310        328        329        312        311        329        330        313        312        330        331        314        313        331        332        315        314        332        333        316        315        333        334        317        316        334        335        318        317        335        336        319        318        336        337        320        319        337        338        321        320        338        339        322        321        340        341        324        323        341        342        325        324        342        343        326        325        343        344        327        326        344        345        328        327        345        346        329        328        346        347        330        329        347        348        331        330        348        349        332        331        349        350        333        332        350        351        334        333        351        352        335        334        352        353        336        335        353        354        337        336        354        355        338        337        355        356        339        338        357        358        341        340        358        359        342        341        359        360        343        342        360        361        344        343        361        362        345        344        362        363        346        345        363        364        347        346        364        365        348        347        365        366        349        348        366        367        350        349        367        368        351        350        368        369        352        351        369        370        353        352        370        371        354        353        371        372        355        354        372        373        356        355        374        375        358        357        375        376        359        358        376        377        360        359        377        378        361        360        378        379        362        361        379        380        363        362        380        381        364        363        381        382        365        364        382        383        366        365        383        384        367        366        384        385        368        367        385        386        369        368        386        387        370        369        387        388        371        370        388        389        372        371        389        390        373        372        391        392        375        374        392        393        376        375        393        394        377        376        394        395        378        377        395        396        379        378        396        397        380        379        397        398        381        380        398        399        382        381        399        400        383        382        400        401        384        383        401        402        385        384        402        403        386        385        403        404        387        386        404        405        388        387        405        406        389        388        406        407        390        389        408        409        392        391        409        410        393        392        410        411        394        393        411        412        395        394        412        413        396        395        413        414        397        396        414        415        398        397        415        416        399        398        416        417        400        399        417        418        401        400        418        419        402        401        419        420        403        402        420        421        404        403        421        422        405        404        422        423        406        405        423        424        407        406        425        426        409        408        426        427        410        409        427        428        411        410        428        429        412        411        429        430        413        412        430        431        414        413        431        432        415        414        432        433        416        415        433        434        417        416        434        435        418        417        435        436        419        418        436        437        420        419        437        438        421        420        438        439        422        421        439        440        423        422        440        441        424        423        442        443        426        425        443        444        427        426        444        445        428        427        445        446        429        428        446        447        430        429        447        448        431        430        448        449        432        431        449        450        433        432        450        451        434        433        451        452        435        434        452        453        436        435        453        454        437        436        454        455        438        437        455        456        439        438        456        457        440        439        457        458        441        440        459        460        443        442        460        461        444        443        461        462        445        444        462        463        446        445        463        464        447        446        464        465        448        447        465        466        449        448        466        467        450        449        467        468        451        450        468        469        452        451        469        470        453        452        470        471        454        453        471        472        455        454        472        473        456        455        473        474        457        456        474        475        458        457        476        477        460        459        477        478        461        460        478        479        462        461        479        480        463        462        480        481        464        463        481        482        465        464        482        483        466        465        483        484        467        466        484        485        468        467        485        486        469        468        486        487        470        469        487        488        471        470        488        489        472        471        489        490        473        472        490        491        474        473        491        492        475        474        493        494        477        476        494        495        478        477        495        496        479        478        496        497        480        479        497        498        481        480        498        499        482        481        499        500        483        482        500        501        484        483        501        502        485        484        502        503        486        485        503        504        487        486        504        505        488        487        505        506        489        488        506        507        490        489        507        508        491        490        508        509        492        491        510        511        494        493        511        512        495        494        512        513        496        495        513        514        497        496        514        515        498        497        515        516        499        498        516        517        500        499        517        518        501        500        518        519        502        501        519        520        503        502        520        521        504        503        521        522        505        504        522        523        506        505        523        524        507        506        524        525        508        507        525        526        509        508        527        528        511        510        528        529        512        511        529        530        513        512        530        531        514        513        531        532        515        514        532        533        516        515        533        534        517        516        534        535        518        517        535        536        519        518        536        537        520        519        537        538        521        520        538        539        522        521        539        540        523        522        540        541        524        523        541        542        525        524        542        543        526        525        544        545        528        527        545        546        529        528        546        547        530        529        547        548        531        530        548        549        532        531        549        550        533        532        550        551        534        533        551        552        535        534        552        553        536        535        553        554        537        536        554        555        538        537        555        556        539        538        556        557        540        539        557        558        541        540        558        559        542        541        559        560        543        542        561        562        545        544        562        563        546        545        563        564        547        546        564        565        548        547        565        566        549        548        566        567        550        549        567        568        551        550        568        569        552        551        569        570        553        552        570        571        554        553        571        572        555        554        572        573        556        555        573        574        557        556        574        575        558        557        575        576        559        558        576        577        560        559        578        579        596        595        579        580        597        596        580        581        598        597        581        582        599        598        582        583        600        599        583        584        601        600        584        585        602        601        585        586        603        602        586        587        604        603        587        588        605        604        588        589        606        605        589        590        607        606        590        591        608        607        591        592        609        608        592        593        610        609        593        594        611        610        595        596        613        612        596        597        614        613        597        598        615        614        598        599        616        615        599        600        617        616        600        601        618        617        601        602        619        618        602        603        620        619        603        604        621        620        604        605        622        621        605        606        623        622        606        607        624        623        607        608        625        624        608        609        626        625        609        610        627        626        610        611        628        627        612        613        630        629        613        614        631        630        614        615        632        631        615        616        633        632        616        617        634        633        617        618        635        634        618        619        636        635        619        620        637        636        620        621        638        637        621        622        639        638        622        623        640        639        623        624        641        640        624        625        642        641        625        626        643        642        626        627        644        643        627        628        645        644        629        630        647        646        630        631        648        647        631        632        649        648        632        633        650        649        633        634        651        650        634        635        652        651        635        636        653        652        636        637        654        653        637        638        655        654        638        639        656        655        639        640        657        656        640        641        658        657        641        642        659        658        642        643        660        659        643        644        661        660        644        645        662        661        646        647        664        663        647        648        665        664        648        649        666        665        649        650        667        666        650        651        668        667        651        652        669        668        652        653        670        669        653        654        671        670        654        655        672        671        655        656        673        672        656        657        674        673        657        658        675        674        658        659        676        675        659        660        677        676        660        661        678        677        661        662        679        678        663        664        681        680        664        665        682        681        665        666        683        682        666        667        684        683        667        668        685        684        668        669        686        685        669        670        687        686        670        671        688        687        671        672        689        688        672        673        690        689        673        674        691        690        674        675        692        691        675        676        693        692        676        677        694        693        677        678        695        694        678        679        696        695        680        681        698        697        681        682        699        698        682        683        700        699        683        684        701        700        684        685        702        701        685        686        703        702        686        687        704        703        687        688        705        704        688        689        706        705        689        690        707        706        690        691        708        707        691        692        709        708        692        693        710        709        693        694        711        710        694        695        712        711        695        696        713        712        697        698        715        714        698        699        716        715        699        700        717        716        700        701        718        717        701        702        719        718        702        703        720        719        703        704        721        720        704        705        722        721        705        706        723        722        706        707        724        723        707        708        725        724        708        709        726        725        709        710        727        726        710        711        728        727        711        712        729        728        712        713        730        729        714        715        732        731        715        716        733        732        716        717        734        733        717        718        735        734        718        719        736        735        719        720        737        736        720        721        738        737        721        722        739        738        722        723        740        739        723        724        741        740        724        725        742        741        725        726        743        742        726        727        744        743        727        728        745        744        728        729        746        745        729        730        747        746        731        732        749        748        732        733        750        749        733        734        751        750        734        735        752        751        735        736        753        752        736        737        754        753        737        738        755        754        738        739        756        755        739        740        757        756        740        741        758        757        741        742        759        758        742        743        760        759        743        744        761        760        744        745        762        761        745        746        763        762        746        747        764        763        748        749        766        765        749        750        767        766        750        751        768        767        751        752        769        768        752        753        770        769        753        754        771        770        754        755        772        771        755        756        773        772        756        757        774        773        757        758        775        774        758        759        776        775        759        760        777        776        760        761        778        777        761        762        779        778        762        763        780        779        763        764        781        780        765        766        783        782        766        767        784        783        767        768        785        784        768        769        786        785        769        770        787        786        770        771        788        787        771        772        789        788        772        773        790        789        773        774        791        790        774        775        792        791        775        776        793        792        776        777        794        793        777        778        795        794        778        779        796        795        779        780        797        796        780        781        798        797        782        783        800        799        783        784        801        800        784        785        802        801        785        786        803        802        786        787        804        803        787        788        805        804        788        789        806        805        789        790        807        806        790        791        808        807        791        792        809        808        792        793        810        809        793        794        811        810        794        795        812        811        795        796        813        812        796        797        814        813        797        798        815        814        799        800        817        816        800        801        818        817        801        802        819        818        802        803        820        819        803        804        821        820        804        805        822        821        805        806        823        822        806        807        824        823        807        808        825        824        808        809        826        825        809        810        827        826        810        811        828        827        811        812        829        828        812        813        830        829        813        814        831        830        814        815        832        831        816        817        834        833        817        818        835        834        818        819        836        835        819        820        837        836        820        821        838        837        821        822        839        838        822        823        840        839        823        824        841        840        824        825        842        841        825        826        843        842        826        827        844        843        827        828        845        844        828        829        846        845        829        830        847        846        830        831        848        847        831        832        849        848        833        834        562        561        834        835        563        562        835        836        564        563        836        837        565        564        837        838        566        565        838        839        567        566        839        840        568        567        840        841        569        568        841        842        570        569        842        843        571        570        843        844        572        571        844        845        573        572        845        846        574        573        846        847        575        574        847        848        576        575        848        849        577        576        884        885        579        578        885        886        580        579        886        887        581        580        887        888        582        581        888        889        583        582        889        890        584        583        890        891        585        584        891        892        586        585        892        893        587        586        893        894        588        587        894        895        589        588        895        896        590        589        896        897        591        590        897        898        592        591        898        899        593        592        899        900        594        593        901        902        885        884        902        903        886        885        903        904        887        886        904        905        888        887        905        906        889        888        906        907        890        889        907        908        891        890        908        909        892        891        909        910        893        892        910        911        894        893        911        912        895        894        912        913        896        895        913        914        897        896        914        915        898        897        915        916        899        898        916        917        900        899        918        919        902        901        919        920        903        902        920        921        904        903        921        922        905        904        922        923        906        905        923        924        907        906        924        925        908        907        925        926        909        908        926        927        910        909        927        928        911        910        928        929        912        911        929        930        913        912        930        931        914        913        931        932        915        914        932        933        916        915        933        934        917        916        935        936        919        918        936        937        920        919        937        938        921        920        938        939        922        921        939        940        923        922        940        941        924        923        941        942        925        924        942        943        926        925        943        944        927        926        944        945        928        927        945        946        929        928        946        947        930        929        947        948        931        930        948        949        932        931        949        950        933        932        950        951        934        933        952        953        936        935        953        954        937        936        954        955        938        937        955        956        939        938        956        957        940        939        957        958        941        940        958        959        942        941        959        960        943        942        960        961        944        943        961        962        945        944        962        963        946        945        963        964        947        946        964        965        948        947        965        966        949        948        966        967        950        949        967        968        951        950        969        970        953        952        970        971        954        953        971        972        955        954        972        973        956        955        973        974        957        956        974        975        958        957        975        976        959        958        976        977        960        959        977        978        961        960        978        979        962        961        979        980        963        962        980        981        964        963        981        982        965        964        982        983        966        965        983        984        967        966        984        985        968        967        986        987        970        969        987        988        971        970        988        989        972        971        989        990        973        972        990        991        974        973        991        992        975        974        992        993        976        975        993        994        977        976        994        995        978        977        995        996        979        978        996        997        980        979        997        998        981        980        998        999        982        981        999       1000        983        982       1000       1001        984        983       1001       1002        985        984       1003       1004        987        986       1004       1005        988        987       1005       1006        989        988       1006       1007        990        989       1007       1008        991        990       1008       1009        992        991       1009       1010        993        992       1010       1011        994        993       1011       1012        995        994       1012       1013        996        995       1013       1014        997        996       1014       1015        998        997       1015       1016        999        998       1016       1017       1000        999       1017       1018       1001       1000       1018       1019       1002       1001       1020       1021       1004       1003       1021       1022       1005       1004       1022       1023       1006       1005       1023       1024       1007       1006       1024       1025       1008       1007       1025       1026       1009       1008       1026       1027       1010       1009       1027       1028       1011       1010       1028       1029       1012       1011       1029       1030       1013       1012       1030       1031       1014       1013       1031       1032       1015       1014       1032       1033       1016       1015       1033       1034       1017       1016       1034       1035       1018       1017       1035       1036       1019       1018       1037       1038       1021       1020       1038       1039       1022       1021       1039       1040       1023       1022       1040       1041       1024       1023       1041       1042       1025       1024       1042       1043       1026       1025       1043       1044       1027       1026       1044       1045       1028       1027       1045       1046       1029       1028       1046       1047       1030       1029       1047       1048       1031       1030       1048       1049       1032       1031       1049       1050       1033       1032       1050       1051       1034       1033       1051       1052       1035       1034       1052       1053       1036       1035       1054       1055       1038       1037       1055       1056       1039       1038       1056       1057       1040       1039       1057       1058       1041       1040       1058       1059       1042       1041       1059       1060       1043       1042       1060       1061       1044       1043       1061       1062       1045       1044       1062       1063       1046       1045       1063       1064       1047       1046       1064       1065       1048       1047       1065       1066       1049       1048       1066       1067       1050       1049       1067       1068       1051       1050       1068       1069       1052       1051       1069       1070       1053       1052       1071       1072       1055       1054       1072       1073       1056       1055       1073       1074       1057       1056       1074       1075       1058       1057       1075       1076       1059       1058       1076       1077       1060       1059       1077       1078       1061       1060       1078       1079       1062       1061       1079       1080       1063       1062       1080       1081       1064       1063       1081       1082       1065       1064       1082       1083       1066       1065       1083       1084       1067       1066       1084       1085       1068       1067       1085       1086       1069       1068       1086       1087       1070       1069       1088       1089       1072       1071       1089       1090       1073       1072       1090       1091       1074       1073       1091       1092       1075       1074       1092       1093       1076       1075       1093       1094       1077       1076       1094       1095       1078       1077       1095       1096       1079       1078       1096       1097       1080       1079       1097       1098       1081       1080       1098       1099       1082       1081       1099       1100       1083       1082       1100       1101       1084       1083       1101       1102       1085       1084       1102       1103       1086       1085       1103       1104       1087       1086       1105       1106       1089       1088       1106       1107       1090       1089       1107       1108       1091       1090       1108       1109       1092       1091       1109       1110       1093       1092       1110       1111       1094       1093       1111       1112       1095       1094       1112       1113       1096       1095       1113       1114       1097       1096       1114       1115       1098       1097       1115       1116       1099       1098       1116       1117       1100       1099       1117       1118       1101       1100       1118       1119       1102       1101       1119       1120       1103       1102       1120       1121       1104       1103       1122       1123       1106       1105       1123       1124       1107       1106       1124       1125       1108       1107       1125       1126       1109       1108       1126       1127       1110       1109       1127       1128       1111       1110       1128       1129       1112       1111       1129       1130       1113       1112       1130       1131       1114       1113       1131       1132       1115       1114       1132       1133       1116       1115       1133       1134       1117       1116       1134       1135       1118       1117       1135       1136       1119       1118       1136       1137       1120       1119       1137       1138       1121       1120        272        273       1123       1122        273        274       1124       1123        274        275       1125       1124        275        276       1126       1125        276        277       1127       1126        277        278       1128       1127        278        279       1129       1128        279        280       1130       1129        280        281       1131       1130        281        282       1132       1131        282        283       1133       1132        283        284       1134       1133        284        285       1135       1134        285        286       1136       1135        286        287       1137       1136        287        288       1138       1137 </DataArray>
<DataArray type="Int32"                                    Name="offsets"                                                      NumberOfComponents=" 1" format="ascii">
         4          8         12         16         20         24         28         32         36         40         44         48         52         56         60         64         68         72         76         80         84         88         92         96        100        104        108        112        116        120        124        128        132        136        140        144        148        152        156        160        164        168        172        176        180        184        188        192        196        200        204        208        212        216        220        224        228        232        236        240        244        248        252        256        260        264        268        272        276        280        284        288        292        296        300        304        308        312        316        320        324        328        332        336        340        344        348        352        356        360        364        368        372        376        380        384        388        392        396        400        404        408        412        416        420        424        428        432        436        440        444        448        452        456        460        464        468        472        476        480        484        488        492        496        500        504        508        512        516        520        524        528        532        536        540        544        548        552        556        560        564        568        572        576        580        584        588        592        596        600        604        608        612        616        620        624        628        632        636        640        644        648        652        656        660        664        668        672        676        680        684        688        692        696        700        704        708        712        716        720        724        728        732        736        740        744        748        752        756        760        764        768        772        776        780        784        788        792        796        800        804        808        812        816        820        824        828        832        836        840        844        848        852        856        860        864        868        872        876        880        884        888        892        896        900        904        908        912        916        920        924        928        932        936        940        944        948        952        956        960        964        968        972        976        980        984        988        992        996       1000       1004       1008       1012       1016       1020       1024       1028       1032       1036       1040       1044       1048       1052       1056       1060       1064       1068       1072       1076       1080       1084       1088       1092       1096       1100       1104       1108       1112       1116       1120       1124       1128       1132       1136       1140       1144       1148       1152       1156       1160       1164       1168       1172       1176       1180       1184       1188       1192       1196       1200       1204       1208       1212       1216       1220       1224       1228       1232       1236       1240       1244       1248       1252       1256       1260       1264       1268       1272       1276       1280       1284       1288       1292       1296       1300       1304       1308       1312       1316       1320       1324       1328       1332       1336       1340       1344       1348       1352       1356       1360       1364       1368       1372       1376       1380       1384       1388       1392       1396       1400       1404       1408       1412       1416       1420       1424       1428       1432       1436       1440       1444       1448       1452       1456       1460       1464       1468       1472       1476       1480       1484       1488       1492       1496       1500       1504       1508       1512       1516       1520       1524       1528       1532       1536       1540       1544       1548       1552       1556       1560       1564       1568       1572       1576       1580       1584       1588       1592       1596       1600       1604       1608       1612       1616       1620       1624       1628       1632       1636       1640       1644       1648       1652       1656       1660       1664       1668       1672       1676       1680       1684       1688       1692       1696       1700       1704       1708       1712       1716       1720       1724       1728       1732       1736       1740       1744       1748       1752       1756       1760       1764       1768       1772       1776       1780       1784       1788       1792       1796       1800       1804       1808       1812       1816       1820       1824       1828       1832       1836       1840       1844       1848       1852       1856       1860       1864       1868       1872       1876       1880       1884       1888       1892       1896       1900       1904       1908       1912       1916       1920       1924       1928       1932       1936       1940       1944       1948       1952       1956       1960       1964       1968       1972       1976       1980       1984       1988       1992       1996       2000       2004       2008       2012       2016       2020       2024       2028       2032       2036       2040       2044       2048       2052       2056       2060       2064       2068       2072       2076       2080       2084       2088       2092       2096       2100       2104       2108       2112       2116       2120       2124       2128       2132       2136       2140       2144       2148       2152       2156       2160       2164       2168       2172       2176       2180       2184       2188       2192       2196       2200       2204       2208       2212       2216       2220       2224       2228       2232       2236       2240       2244       2248       2252       2256       2260       2264       2268       2272       2276       2280       2284       2288       2292       2296       2300       2304       2308       2312       2316       2320       2324       2328       2332       2336       2340       2344       2348       2352       2356       2360       2364       2368       2372       2376       2380       2384       2388       2392       2396       2400       2404       2408       2412       2416       2420       2424       2428       2432       2436       2440       2444       2448       2452       2456       2460       2464       2468       2472       2476       2480       2484       2488       2492       2496       2500       2504       2508       2512       2516       2520       2524       2528       2532       2536       2540       2544       2548       2552       2556       2560       2564       2568       2572       2576       2580       2584       2588       2592       2596       2600       2604       2608       2612       2616       2620       2624       2628       2632       2636       2640       2644       2648       2652       2656       2660       2664       2668       2672       2676       2680       2684       2688       2692       2696       2700       2704       2708       2712       2716       2720       2724       2728       2732       2736       2740       2744       2748       2752       2756       2760       2764       2768       2772       2776       2780       2784       2788       2792       2796       2800       2804       2808       2812       2816       2820       2824       2828       2832       2836       2840       2844       2848       2852       2856       2860       2864       2868       2872       2876       2880       2884       2888       2892       2896       2900       2904       2908       2912       2916       2920       2924       2928       2932       2936       2940       2944       2948       2952       2956       2960       2964       2968       2972       2976       2980       2984       2988       2992       2996       3000       3004       3008       3012       3016       3020       3024       3028       3032       3036       3040       3044       3048       3052       3056       3060       3064       3068       3072       3076       3080       3084       3088       3092       3096       3100       3104       3108       3112       3116       3120       3124       3128       3132       3136       3140       3144       3148       3152       3156       3160       3164       3168       3172       3176       3180       3184       3188       3192       3196       3200       3204       3208       3212       3216       3220       3224       3228       3232       3236       3240       3244       3248       3252       3256       3260       3264       3268       3272       3276       3280       3284       3288       3292       3296       3300       3304       3308       3312       3316       3320       3324       3328       3332       3336       3340       3344       3348       3352       3356       3360       3364       3368       3372       3376       3380       3384       3388       3392       3396       3400       3404       3408       3412       3416       3420       3424       3428       3432       3436       3440       3444       3448       3452       3456       3460       3464       3468       3472       3476       3480       3484       3488       3492       3496       3500       3504       3508       3512       3516       3520       3524       3528       3532       3536       3540       3544       3548       3552       3556       3560       3564       3568       3572       3576       3580       3584       3588       3592       3596       3600       3604       3608       3612       3616       3620       3624       3628       3632       3636       3640       3644       3648       3652       3656       3660       3664       3668       3672       3676       3680       3684       3688       3692       3696       3700       3704       3708       3712       3716       3720       3724       3728       3732       3736       3740       3744       3748       3752       3756       3760       3764       3768       3772       3776       3780       3784       3788       3792       3796       3800       3804       3808       3812       3816       3820       3824       3828       3832       3836       3840       3844       3848       3852       3856       3860       3864       3868       3872       3876       3880       3884       3888       3892       3896       3900       3904       3908       3912       3916       3920       3924       3928       3932       3936       3940       3944       3948       3952       3956       3960       3964       3968       3972       3976       3980       3984       3988       3992       3996       4000       4004       4008       4012       4016       4020       4024       4028       4032       4036       4040       4044       4048       4052       4056       4060       4064       4068       4072       4076       4080       4084       4088       4092       4096 </DataArray>
<DataArray type="UInt8"                                    Name="types"                                                      NumberOfComponents=" 1" format="ascii">
         9          9          9          9          9          9          9          9          9          9          9          9          9          9          9          9          9          9          9          9          9          9          9          9          9          9          9          9          9          9          9          9          9          9          9          9          9          9          9          9          9          9          9          9          9          9          9          9          9          9          9          9          9          9          9          9          9          9          9          9          9          9          9          9          9          9          9          9          9          9          9          9          9          9          9          9          9          9          9          9          9          9          9          9          9          9          9          9          9          9          9          9          9          9          9          9          9          9          9          9          9          9          9          9          9          9          9          9          9          9          9          9          9          9          9          9          9          9          9          9          9          9          9          9          9          9          9          9          9          9          9          9          9          9          9          9          9          9          9          9          9          9          9          9          9          9          9          9          9          9          9          9          9          9          9          9          9          9          9          9          9          9          9          9          9          9          9          9          9          9          9          9          9          9          9          9          9          9          9          9          9          9          9          9          9          9          9          9          9          9          9          9          9          9          9          9          9          9          9          9          9          9          9          9          9          9          9          9          9          9          9          9          9          9          9          9          9          9          9          9          9          9          9          9          9          9          9          9          9          9          9          9          9          9          9          9          9          9          9          9          9          9          9          9          9          9          9          9          9          9          9          9          9          9          9          9          9          9          9          9          9          9          9          9          9          9          9          9          9          9          9          9          9          9          9          9          9          9          9          9          9          9          9          9          9          9          9          9          9          9          9          9          9          9          9          9          9          9          9          9          9          9          9          9          9          9          9          9          9          9          9          9          9          9          9          9          9          9          9          9          9          9          9          9          9          9          9          9          9          9          9          9          9          9          9          9          9          9          9          9          9          9          9          9          9          9          9          9          9          9          9          9          9          9          9          9          9          9          9          9          9          9          9          9          9          9          9          9          9          9          9          9          9          9          9          9          9          9          9          9          9          9          9          9          9          9          9          9          9          9          9          9          9          9          9          9          9          9          9          9          9          9          9          9          9          9          9          9          9          9          9          9          9          9          9          9          9          9          9          9          9          9          9          9          9          9          9          9          9          9          9          9          9          9          9          9          9          9          9          9          9          9          9          9          9          9          9          9          9          9          9          9          9          9          9          9          9          9          9          9          9          9          9          9          9          9          9          9          9          9          9          9          9          9          9          9          9          9          9          9          9          9          9          9          9          9          9          9          9          9          9          9          9          9          9          9          9          9          9          9          9          9          9          9          9          9          9          9          9          9          9          9          9          9          9          9          9          9          9          9          9          9          9          9          9          9          9          9          9          9          9          9          9          9          9          9          9          9          9          9          9          9          9          9          9          9          9          9          9          9          9          9          9          9          9          9          9          9          9          9          9          9          9          9          9          9          9          9          9          9          9          9          9          9          9          9          9          9          9          9          9          9          9          9          9          9          9          9          9          9          9          9          9          9          9          9          9          9          9          9          9          9          9          9          9          9          9          9          9          9          9          9          9          9          9          9          9          9          9          9          9          9          9          9          9          9          9          9          9          9          9          9          9          9          9          9          9          9          9          9          9          9          9          9          9          9          9          9          9          9          9          9          9          9          9          9          9          9          9          9          9          9          9          9          9          9          9          9          9          9          9          9          9          9          9          9          9          9          9          9          9          9          9          9          9          9          9          9          9          9          9          9          9          9          9          9          9          9          9          9          9          9          9          9          9          9          9          9          9          9          9          9          9          9          9          9          9          9          9          9          9          9          9          9          9          9          9          9          9          9          9          9          9          9          9          9          9          9          9          9          9          9          9          9          9          9          9          9          9          9          9          9          9          9          9          9          9          9          9          9          9          9          9          9          9          9          9          9          9          9          9          9          9          9          9          9          9          9          9          9          9          9          9          9          9          9          9          9          9          9          9          9          9          9          9          9          9          9          9          9          9          9          9          9          9          9          9          9          9          9          9          9          9          9          9          9          9          9          9          9          9          9          9          9          9          9          9          9          9          9          9          9          9          9          9          9          9          9          9          9          9          9          9          9          9          9          9          9          9          9          9          9          9          9          9          9          9          9          9          9          9          9          9          9          9          9          9          9          9          9          9          9          9          9          9          9          9          9          9          9          9          9          9          9          9          9          9          9          9          9          9          9          9          9          9          9          9          9          9          9          9          9          9          9          9          9          9          9          9          9          9          9          9          9          9          9          9          9          9          9          9          9          9          9          9          9          9          9          9          9          9          9          9          9          9          9          9          9          9          9          9          9          9          9          9          9          9          9          9          9          9          9          9          9          9          9          9          9          9          9          9          9          9          9          9          9          9          9          9          9          9          9          9          9          9          9          9          9          9          9          9          9          9          9          9          9          9          9          9          9          9          9          9          9          9          9          9          9          9          9          9          9          9          9          9          9          9          9          9          9          9          9          9          9          9          9          9          9          9          9          9          9          9          9 </DataArray>
</Cells>
<CellData>
<DataArray type="Int32"                                    Name="material"                                                      NumberOfComponents=" 1" format="ascii">
         1          1          1          1          1          1          1          1          1          1          1          1          1          1          1          1          1          1          1          1          1          1          1          1          1          1          1          1          1          1          1          1          1          1          1          1          1          1          1          1          1          1          1          1          1          1          1          1          1          1          1          1          1          1          1          1          1          1          1          1          1          1          1          1          1          1          1          1          1          1          1          1          1          1          1          1          1          1          1          1          1          1          1          1          1          1          1          1          1          1          1          1          1          1          1          1          1          1          1          1          1          1          1          1          1          1          1          1          1          1          1          1          1          1          1          1          1          1          1          1          1          1          1          1          1          1          1          1          1          1          1          1          1          1          1          1          1          1          1          1          1          1          1          1          1          1          1          1          1          1          1          1          1          1          1          1          1          1          1          1          1          1          1          1          1          1          1          1          1          1          1          1          1          1          1          1          1          1          1          1          1          1          1          1          1          1          1          1          1          1          1          1          1          1          1          1          1          1          1          1          1          1          1          1          1          1          1          1          1          1          1          1          1          1          1          1          1          1          1          1          1          1          1          1          1          1          1          1          1          1          1          1          1          1          1          1          1          1          1          1          1          1          1          1          1          1          1          1          1          1          1          1          1          1          1          1          1          1          1          1          1          1          1          1          1          1          1          1          1          1          1          1          1          1          1          1          1          1          1          1          1          1          1          1          1          1          1          1          1          1          1          1          1          1          1          1          1          1          1          1          1          1          1          1          1          1          1          1          1          1          1          1          1          1          1          1          1          1          1          1          1          1          1          1          1          1          1          1          1          1          1          1          1          1          1          1          1          1          1          1          1          1          1          1          1          1          1          1          1          1          1          1          1          1          1          1          1          1          1          1          1          1          1          1          1          1          1          1          1          1          1          1          1          1          1          1          1          1          1          1          1          1          1          1          1          1          1          1          1          1          1          1          1          1          1          1          1          1          1          1          1          1          1          1          1          1          1          1          1          1          1          1          1          1          1          1          1          1          1          1          1          1          1          1          1          1          1          1          1          1          1          1          1          1          1          1          1          1          1          1          1          1          1          1          1          1          1          1          1          1          1          1          1          1          1          1          1          1          1          1          1          1          1          1          1          1          1          1          1          1          1          1          1          1          1          1          1          1          1          1          1          1          1          1          1          1          1          1          1          1          1          1          1          1          1          1          1          1          1          1          1          1          1          1          1          1          1          1          1          1          1          1          1          1          1          1          1          1          1          1          1          1          1          1          1          1          1          1          1          1          1          1          1          1          1          1          1          1          1          1          1          1          1          1          1          1          1          1          1          1          1          1          1          1          1          1          1          1          1          1          1          1          1          1          1          1          1          1          1          1          1          1          1          1          1          1          1          1          1          1          1          1          1          1          1          1          1          1          1          1          1          1          1          1          1          1          1          1          1          1          1          1          1          1          1          1          1          1          1          1          1          1          1          1          1          1          1          1          1          1          1          1          1          1          1          1          1          1          1          1          1          1          1          1          1          1          1          1          1          1          1          1          1          1          1          1          1          1          1          1          1          1          1          1          1          1          1          1          1          1          1          1          1          1          1          1          1          1          1          1          1          1          1          1          1          1          1          1          1          1          1          1          1          1          1          1          1          1          1          1          1          1          1          1          1          1          1          1          1          1          1          1          1          1          1          1          1          1          1          1          1          1          1          1          1          1          1          1          1          1          1          1          1          1          1          1          1          1          1          1          1          1          1          1          1          1          1          1          1          1          1          1          1          1          1          1          1          1          1          1          1          1          1          1          1          1          1          1          1          1          1          1          1          1          1          1          1          1          1          1          1          1          1          1          1          1          1          1          1          1          1          1          1          1          1          1          1          1          1          1          1          1          1          1          1          1          1          1          1          1          1          1          1          1          1          1          1          1          1          1          1          1          1          1          1          1          1          1          1          1          1          1          1          1          1          1          1          1          1          1          1          1          1          1          1          1          1          1          1          1          1          1          1          1          1          1          1          1          1          1          1          1          1          1          1          1          1          1          1          1          1          1          1          1          1          1          1          1          1          1          1          1          1          1          1          1          1          1          1          1          1          1          1          1          1          1          1          1          1          1          1          1          1          1          1          1          1          1          1          1          1          1          1          1          1          1          1          1          1          1          1          1          1          1          1          1          1          1          1          1          1          1          1          1          1          1          1          1          1          1          1          1          1          1          1          1          1          1          1          1          1          1          1          1          1          1          1          1          1          1          1          1          1          1          1          1          1          1          1          1          1          1          1          1          1          1          1          1          1          1          1          1          1          1          1          1          1          1          1          1          1          1          1          1          1          1          1          1          1          1          1          1          1          1          1          1          1          1          1          1          1          1          1          1          1          1          1          1          1          1          1          1          1          1          1          1          1          1          1          1          1          1          1          1 </DataArray>
</CellData>
<PointData>
<DataArray type="Float64"                                    Name="u"                                                      NumberOfComponents=" 3" format="ascii">
              0.000001904               0.000000000               1.000000000               0.000000516               0.000000000               1.000000000               0.000000055               0.000000000               1.000000000               0.000000024               0.000000000               1.000000000               0.000000063               0.000000000               1.000000000               0.000000050               0.000000000               1.000000000              -0.000000068               0.000000000               1.000000000              -0.000000179               0.000000000               1.000000000              -0.000000172               0.000000000               1.000000000              -0.000000056               0.000000000               1.000000000               0.000000119               0.000000000               1.000000000               0.000000302               0.000000000               1.000000000               0.000000417               0.000000000               1.000000000               0.000000344               0.000000000               1.000000000              -0.000000007               0.000000000               1.000000000              -0.000000708               0.000000000               1.000000000              -0.000001827               0.000000000               1.000000000               0.000001800               0.000003578               1.000000000               0.000000481               0.000003323               1.000000000               0.000000080               0.000003298               1.000000000               0.000000040               0.000003595               1.000000000               0.000000048               0.000004052               1.000000000              -0.000000015               0.000004686               1.000000000              -0.000000078               0.000005171               1.000000000              -0.000000092               0.000005419               1.000000000              -0.000000113               0.000005680               1.000000000              -0.000000105               0.000005866               1.000000000              -0.000000051               0.000006071               1.000000000              -0.000000044               0.000006403               1.000000000              -0.000000142               0.000006902               1.000000000              -0.000000419               0.000007636               1.000000000              -0.000000985               0.000008625               1.000000000              -0.000001902               0.000009856               1.000000000              -0.000003230               0.000011307               1.000000000               0.000001697               0.000007173               1.000000000               0.000000495               0.000006598               1.000000000               0.000000122               0.000006610               1.000000000               0.000000055               0.000007152               1.000000000               0.000000060               0.000008144               1.000000000              -0.000000029               0.000009324               1.000000000              -0.000000135               0.000010248               1.000000000              -0.000000187               0.000010830               1.000000000              -0.000000220               0.000011475               1.000000000              -0.000000259               0.000012051               1.000000000              -0.000000421               0.000012685               1.000000000              -0.000000798               0.000013567               1.000000000              -0.000001406               0.000014764               1.000000000              -0.000002287               0.000016374               1.000000000              -0.000003502               0.000018446               1.000000000              -0.000005093               0.000021000               1.000000000              -0.000007098               0.000024041               1.000000000               0.000001515               0.000010706               1.000000000               0.000000493               0.000009798               1.000000000               0.000000260               0.000009858               1.000000000               0.000000194               0.000010735               1.000000000               0.000000049               0.000012211               1.000000000              -0.000000138               0.000013934               1.000000000              -0.000000254               0.000015331               1.000000000              -0.000000283               0.000016391               1.000000000              -0.000000390               0.000017623               1.000000000              -0.000000723               0.000018873               1.000000000              -0.000001342               0.000020365               1.000000000              -0.000002340               0.000022210               1.000000000              -0.000003744               0.000024500               1.000000000              -0.000005525               0.000027338               1.000000000              -0.000007727               0.000030785               1.000000000              -0.000010351               0.000034897               1.000000000              -0.000013377               0.000039729               1.000000000               0.000001250               0.000014156               1.000000000               0.000000596               0.000012916               1.000000000               0.000000522               0.000013068               1.000000000               0.000000369               0.000014400               1.000000000               0.000000083               0.000016380               1.000000000              -0.000000206               0.000018706               1.000000000              -0.000000497               0.000020597               1.000000000              -0.000000783               0.000022390               1.000000000              -0.000001244               0.000024456               1.000000000              -0.000002002               0.000026818               1.000000000              -0.000003173               0.000029595               1.000000000              -0.000004876               0.000032930               1.000000000              -0.000007073               0.000036869               1.000000000              -0.000009748               0.000041472               1.000000000              -0.000012935               0.000046775               1.000000000              -0.000016595               0.000052823               1.000000000              -0.000020677               0.000059644               1.000000000               0.000001087               0.000017600               1.000000000               0.000000855               0.000015987               1.000000000               0.000000846               0.000016314               1.000000000               0.000000611               0.000018153               1.000000000               0.000000120               0.000020829               1.000000000              -0.000000473               0.000023787               1.000000000              -0.000000961               0.000026549               1.000000000              -0.000001463               0.000029392               1.000000000              -0.000002311               0.000032722               1.000000000              -0.000003629               0.000036611               1.000000000              -0.000005517               0.000041070               1.000000000              -0.000007998               0.000046288               1.000000000              -0.000011016               0.000052253               1.000000000              -0.000014563               0.000059000               1.000000000              -0.000018648               0.000066537               1.000000000              -0.000023231               0.000074838               1.000000000              -0.000028252               0.000083892               1.000000000               0.000000938               0.000020995               1.000000000               0.000001205               0.000018983               1.000000000               0.000001284               0.000019678               1.000000000               0.000000785               0.000022103               1.000000000               0.000000019               0.000025595               1.000000000              -0.000000688               0.000029610               1.000000000              -0.000001355               0.000033594               1.000000000              -0.000002203               0.000037805               1.000000000              -0.000003560               0.000042827               1.000000000              -0.000005521               0.000048515               1.000000000              -0.000008149               0.000055004               1.000000000              -0.000011422               0.000062334               1.000000000              -0.000015228               0.000070571               1.000000000              -0.000019595               0.000079665               1.000000000              -0.000024531               0.000089586               1.000000000              -0.000029948               0.000100303               1.000000000              -0.000035812               0.000111748               1.000000000               0.000000839               0.000024294               1.000000000               0.000001666               0.000021975               1.000000000               0.000001647               0.000023133               1.000000000               0.000000915               0.000026420               1.000000000              -0.000000052               0.000030971               1.000000000              -0.000001044               0.000036221               1.000000000              -0.000002007               0.000041579               1.000000000              -0.000003236               0.000047518               1.000000000              -0.000005086               0.000054496               1.000000000              -0.000007663               0.000062242               1.000000000              -0.000010944               0.000070935               1.000000000              -0.000014844               0.000080695               1.000000000              -0.000019333               0.000091414               1.000000000              -0.000024454               0.000103122               1.000000000              -0.000030125               0.000115732               1.000000000              -0.000036311               0.000129189               1.000000000              -0.000042968               0.000143436               1.000000000               0.000000777               0.000027396               1.000000000               0.000002135               0.000025020               1.000000000               0.000001929               0.000026776               1.000000000               0.000000909               0.000031020               1.000000000              -0.000000382               0.000036846               1.000000000              -0.000001624               0.000043446               1.000000000              -0.000002714               0.000050464               1.000000000              -0.000004260               0.000058374               1.000000000              -0.000006645               0.000067404               1.000000000              -0.000009802               0.000077448               1.000000000              -0.000013594               0.000088639               1.000000000              -0.000018009               0.000101118               1.000000000              -0.000023096               0.000114754               1.000000000              -0.000028803               0.000129509               1.000000000              -0.000035046               0.000145407               1.000000000              -0.000041821               0.000162244               1.000000000              -0.000048930               0.000179754               1.000000000               0.000000677               0.000030472               1.000000000               0.000002418               0.000028238               1.000000000               0.000002349               0.000029681               1.000000000               0.000001363               0.000033521               1.000000000               0.000000042               0.000039099               1.000000000              -0.000001247               0.000045675               1.000000000              -0.000002266               0.000052773               1.000000000              -0.000003272               0.000060524               1.000000000              -0.000004926               0.000069207               1.000000000              -0.000007210               0.000078798               1.000000000              -0.000009982               0.000089328               1.000000000              -0.000013320               0.000100891               1.000000000              -0.000017141               0.000113597               1.000000000              -0.000021441               0.000127312               1.000000000              -0.000026223               0.000142080               1.000000000              -0.000031448               0.000157890               1.000000000              -0.000037111               0.000174732               1.000000000               0.000000615               0.000033460               1.000000000               0.000002570               0.000031486               1.000000000               0.000002576               0.000032665               1.000000000               0.000001779               0.000036188               1.000000000               0.000000596               0.000041447               1.000000000              -0.000000675               0.000047810               1.000000000              -0.000001668               0.000054887               1.000000000              -0.000002442               0.000062604               1.000000000              -0.000003503               0.000071098               1.000000000              -0.000005079               0.000080417               1.000000000              -0.000007033               0.000090521               1.000000000              -0.000009438               0.000101440               1.000000000              -0.000012180               0.000113306               1.000000000              -0.000015245               0.000126142               1.000000000              -0.000018674               0.000139883               1.000000000              -0.000022450               0.000154565               1.000000000              -0.000026635               0.000170208               1.000000000               0.000000507               0.000036176               1.000000000               0.000002499               0.000034597               1.000000000               0.000002677               0.000035713               1.000000000               0.000002126               0.000038954               1.000000000               0.000001106               0.000043780               1.000000000              -0.000000047               0.000049823               1.000000000              -0.000001049               0.000056768               1.000000000              -0.000001767               0.000064486               1.000000000              -0.000002466               0.000072910               1.000000000              -0.000003431               0.000082120               1.000000000              -0.000004712               0.000092017               1.000000000              -0.000006271               0.000102571               1.000000000              -0.000008123               0.000113841               1.000000000              -0.000010172               0.000125946               1.000000000              -0.000012432               0.000138894               1.000000000              -0.000014908               0.000152628               1.000000000              -0.000017641               0.000167156               1.000000000               0.000000379               0.000038547               1.000000000               0.000002268               0.000037506               1.000000000               0.000002602               0.000038640               1.000000000               0.000002206               0.000041572               1.000000000               0.000001433               0.000046009               1.000000000               0.000000481               0.000051755               1.000000000              -0.000000437               0.000058590               1.000000000              -0.000001146               0.000066243               1.000000000              -0.000001651               0.000074617               1.000000000              -0.000002210               0.000083684               1.000000000              -0.000002960               0.000093466               1.000000000              -0.000003860               0.000103831               1.000000000              -0.000004971               0.000114810               1.000000000              -0.000006245               0.000126466               1.000000000              -0.000007585               0.000138840               1.000000000              -0.000009020               0.000151964               1.000000000              -0.000010520               0.000165818               1.000000000               0.000000271               0.000040485               1.000000000               0.000001874               0.000040012               1.000000000               0.000002240               0.000041181               1.000000000               0.000002041               0.000043940               1.000000000               0.000001532               0.000048139               1.000000000               0.000000771               0.000053595               1.000000000              -0.000000012               0.000060189               1.000000000              -0.000000647               0.000067675               1.000000000              -0.000001019               0.000075954               1.000000000              -0.000001315               0.000084955               1.000000000              -0.000001716               0.000094657               1.000000000              -0.000002183               0.000104985               1.000000000              -0.000002748               0.000115876               1.000000000              -0.000003416               0.000127283               1.000000000              -0.000004129               0.000139322               1.000000000              -0.000004844               0.000152032               1.000000000              -0.000005494               0.000165419               1.000000000               0.000000168               0.000041905               1.000000000               0.000001329               0.000041895               1.000000000               0.000001661               0.000043185               1.000000000               0.000001598               0.000045883               1.000000000               0.000001260               0.000049879               1.000000000               0.000000746               0.000055133               1.000000000               0.000000209               0.000061483               1.000000000              -0.000000257               0.000068782               1.000000000              -0.000000559               0.000076946               1.000000000              -0.000000723               0.000085887               1.000000000              -0.000000890               0.000095532               1.000000000              -0.000001086               0.000105806               1.000000000              -0.000001312               0.000116646               1.000000000              -0.000001595               0.000127924               1.000000000              -0.000001932               0.000139794               1.000000000              -0.000002263               0.000152238               1.000000000              -0.000002543               0.000165245               1.000000000               0.000000075               0.000042800               1.000000000               0.000000696               0.000043097               1.000000000               0.000000905               0.000044469               1.000000000               0.000000861               0.000047142               1.000000000               0.000000702               0.000051030               1.000000000               0.000000472               0.000056125               1.000000000               0.000000176               0.000062298               1.000000000              -0.000000077               0.000069497               1.000000000              -0.000000234               0.000077604               1.000000000              -0.000000306               0.000086455               1.000000000              -0.000000359               0.000096019               1.000000000              -0.000000418               0.000106225               1.000000000              -0.000000486               0.000116980               1.000000000              -0.000000585               0.000128190               1.000000000              -0.000000714               0.000139930               1.000000000              -0.000000846               0.000152170               1.000000000              -0.000000999               0.000164949               1.000000000              -0.000000000               0.000043110               1.000000000              -0.000000000               0.000043516               1.000000000               0.000000000               0.000044902               1.000000000               0.000000000               0.000047568               1.000000000               0.000000000               0.000051433               1.000000000              -0.000000000               0.000056478               1.000000000               0.000000000               0.000062600               1.000000000              -0.000000000               0.000069741               1.000000000              -0.000000000               0.000077788               1.000000000              -0.000000000               0.000086614               1.000000000              -0.000000000               0.000096176               1.000000000              -0.000000000               0.000106351               1.000000000              -0.000000000               0.000117053               1.000000000              -0.000000000               0.000128228               1.000000000               0.000000000               0.000139901               1.000000000               0.000000000               0.000152055               1.000000000              -0.000000000               0.000164757               1.000000000               0.000001904               0.000000000               1.000000000               0.000000516               0.000000000               1.000000000               0.000000055               0.000000000               1.000000000               0.000000024               0.000000000               1.000000000               0.000000063               0.000000000               1.000000000               0.000000050               0.000000000               1.000000000              -0.000000068               0.000000000               1.000000000              -0.000000179               0.000000000               1.000000000              -0.000000172               0.000000000               1.000000000              -0.000000056               0.000000000               1.000000000               0.000000119               0.000000000               1.000000000               0.000000302               0.000000000               1.000000000               0.000000417               0.000000000               1.000000000               0.000000344               0.000000000               1.000000000              -0.000000007               0.000000000               1.000000000              -0.000000708               0.000000000               1.000000000              -0.000001827               0.000000000               1.000000000               0.000001800              -0.000003578               1.000000000               0.000000481              -0.000003323               1.000000000               0.000000080              -0.000003298               1.000000000               0.000000040              -0.000003595               1.000000000               0.000000048              -0.000004052               1.000000000              -0.000000015              -0.000004686               1.000000000              -0.000000078              -0.000005171               1.000000000              -0.000000092              -0.000005419               1.000000000              -0.000000113              -0.000005680               1.000000000              -0.000000105              -0.000005866               1.000000000              -0.000000051              -0.000006071               1.000000000              -0.000000044              -0.000006403               1.000000000              -0.000000142              -0.000006902               1.000000000              -0.000000419              -0.000007636               1.000000000              -0.000000985              -0.000008625               1.000000000              -0.000001902              -0.000009856               1.000000000              -0.000003230              -0.000011307               1.000000000               0.000001697              -0.000007173               1.000000000               0.000000495              -0.000006598               1.000000000               0.000000122              -0.000006610               1.000000000               0.000000055              -0.000007152               1.000000000               0.000000060              -0.000008144               1.000000000              -0.000000029              -0.000009324               1.000000000              -0.000000135              -0.000010248               1.000000000              -0.000000187              -0.000010830               1.000000000              -0.000000220              -0.000011475               1.000000000              -0.000000259              -0.000012051               1.000000000              -0.000000421              -0.000012685               1.000000000              -0.000000798              -0.000013567               1.000000000              -0.000001406              -0.000014764               1.000000000              -0.000002287              -0.000016374               1.000000000              -0.000003502              -0.000018446               1.000000000              -0.000005093              -0.000021000               1.000000000              -0.000007098              -0.000024041               1.000000000               0.000001515              -0.000010706               1.000000000               0.000000493              -0.000009798               1.000000000               0.000000260              -0.000009858               1.000000000               0.000000194              -0.000010735               1.000000000               0.000000049              -0.000012211               1.000000000              -0.000000138              -0.000013934               1.000000000              -0.000000254              -0.000015331               1.000000000              -0.000000283              -0.000016391               1.000000000              -0.000000390              -0.000017623               1.000000000              -0.000000723              -0.000018873               1.000000000              -0.000001342              -0.000020365               1.000000000              -0.000002340              -0.000022210               1.000000000              -0.000003744              -0.000024500               1.000000000              -0.000005525              -0.000027338               1.000000000              -0.000007727              -0.000030785               1.000000000              -0.000010351              -0.000034897               1.000000000              -0.000013377              -0.000039729               1.000000000               0.000001250              -0.000014156               1.000000000               0.000000596              -0.000012916               1.000000000               0.000000522              -0.000013068               1.000000000               0.000000369              -0.000014400               1.000000000               0.000000083              -0.000016380               1.000000000              -0.000000206              -0.000018706               1.000000000              -0.000000497              -0.000020597               1.000000000              -0.000000783              -0.000022390               1.000000000              -0.000001244              -0.000024456               1.000000000              -0.000002002              -0.000026818               1.000000000              -0.000003173              -0.000029595               1.000000000              -0.000004876              -0.000032930               1.000000000              -0.000007073              -0.000036869               1.000000000              -0.000009748              -0.000041472               1.000000000              -0.000012935              -0.000046775               1.000000000              -0.000016595              -0.000052823               1.000000000              -0.000020677              -0.000059644               1.000000000               0.000001087              -0.000017600               1.000000000               0.000000855              -0.000015987               1.000000000               0.000000846              -0.000016314               1.000000000               0.000000611              -0.000018153               1.000000000               0.000000120              -0.000020829               1.000000000              -0.000000473              -0.000023787               1.000000000              -0.000000961              -0.000026549               1.000000000              -0.000001463              -0.000029392               1.000000000              -0.000002311              -0.000032722               1.000000000              -0.000003629              -0.000036611               1.000000000              -0.000005517              -0.000041070               1.000000000              -0.000007998              -0.000046288               1.000000000              -0.000011016              -0.000052253               1.000000000              -0.000014563              -0.000059000               1.000000000              -0.000018648              -0.000066537               1.000000000              -0.000023231              -0.000074838               1.000000000              -0.000028252              -0.000083892               1.000000000               0.000000938              -0.000020995               1.000000000               0.000001205              -0.000018983               1.000000000               0.000001284              -0.000019678               1.000000000               0.000000785              -0.000022103               1.000000000               0.000000019              -0.000025595               1.000000000              -0.000000688              -0.000029610               1.000000000              -0.000001355              -0.000033594               1.000000000              -0.000002203              -0.000037805               1.000000000              -0.000003560              -0.000042827               1.000000000              -0.000005521              -0.000048515               1.000000000              -0.000008149              -0.000055004               1.000000000              -0.000011422              -0.000062334               1.000000000              -0.000015228              -0.000070571               1.000000000              -0.000019595              -0.000079665               1.000000000              -0.000024531              -0.000089586               1.000000000              -0.000029948              -0.000100303               1.000000000              -0.000035812              -0.000111748               1.000000000               0.000000839              -0.000024294               1.000000000               0.000001666              -0.000021975               1.000000000               0.000001647              -0.000023133               1.000000000               0.000000915              -0.000026420               1.000000000              -0.000000052              -0.000030971               1.000000000              -0.000001044              -0.000036221               1.000000000              -0.000002007              -0.000041579               1.000000000              -0.000003236              -0.000047518               1.000000000              -0.000005086              -0.000054496               1.000000000              -0.000007663              -0.000062242               1.000000000              -0.000010944              -0.000070935               1.000000000              -0.000014844              -0.000080695               1.000000000              -0.000019333              -0.000091414               1.000000000              -0.000024454              -0.000103122               1.000000000              -0.000030125              -0.000115732               1.000000000              -0.000036311              -0.000129189               1.000000000              -0.000042968              -0.000143436               1.000000000               0.000000777              -0.000027396               1.000000000               0.000002135              -0.000025020               1.000000000               0.000001929              -0.000026776               1.000000000               0.000000909              -0.000031020               1.000000000              -0.000000382              -0.000036846               1.000000000              -0.000001624              -0.000043446               1.000000000              -0.000002714              -0.000050464               1.000000000              -0.000004260              -0.000058374               1.000000000              -0.000006645              -0.000067404               1.000000000              -0.000009802              -0.000077448               1.000000000              -0.000013594              -0.000088639               1.000000000              -0.000018009              -0.000101118               1.000000000              -0.000023096              -0.000114754               1.000000000              -0.000028803              -0.000129509               1.000000000              -0.000035046              -0.000145407               1.000000000              -0.000041821              -0.000162244               1.000000000              -0.000048930              -0.000179754               1.000000000               0.000000677              -0.000030472               1.000000000               0.000002418              -0.000028238               1.000000000               0.000002349              -0.000029681               1.000000000               0.000001363              -0.000033521               1.000000000               0.000000042              -0.000039099               1.000000000              -0.000001247              -0.000045675               1.000000000              -0.000002266              -0.000052773               1.000000000              -0.000003272              -0.000060524               1.000000000              -0.000004926              -0.000069207               1.000000000              -0.000007210              -0.000078798               1.000000000              -0.000009982              -0.000089328               1.000000000              -0.000013320              -0.000100891               1.000000000              -0.000017141              -0.000113597               1.000000000              -0.000021441              -0.000127312               1.000000000              -0.000026223              -0.000142080               1.000000000              -0.000031448              -0.000157890               1.000000000              -0.000037111              -0.000174732               1.000000000               0.000000615              -0.000033460               1.000000000               0.000002570              -0.000031486               1.000000000               0.000002576              -0.000032665               1.000000000               0.000001779              -0.000036188               1.000000000               0.000000596              -0.000041447               1.000000000              -0.000000675              -0.000047810               1.000000000              -0.000001668              -0.000054887               1.000000000              -0.000002442              -0.000062604               1.000000000              -0.000003503              -0.000071098               1.000000000              -0.000005079              -0.000080417               1.000000000              -0.000007033              -0.000090521               1.000000000              -0.000009438              -0.000101440               1.000000000              -0.000012180              -0.000113306               1.000000000              -0.000015245              -0.000126142               1.000000000              -0.000018674              -0.000139883               1.000000000              -0.000022450              -0.000154565               1.000000000              -0.000026635              -0.000170208               1.000000000               0.000000507              -0.000036176               1.000000000               0.000002499              -0.000034597               1.000000000               0.000002677              -0.000035713               1.000000000               0.000002126              -0.000038954               1.000000000               0.000001106              -0.000043780               1.000000000              -0.000000047              -0.000049823               1.000000000              -0.000001049              -0.000056768               1.000000000              -0.000001767              -0.000064486               1.000000000              -0.000002466              -0.000072910               1.000000000              -0.000003431              -0.000082120               1.000000000              -0.000004712              -0.000092017               1.000000000              -0.000006271              -0.000102571               1.000000000              -0.000008123              -0.000113841               1.000000000              -0.000010172              -0.000125946               1.000000000              -0.000012432              -0.000138894               1.000000000              -0.000014908              -0.000152628               1.000000000              -0.000017641              -0.000167156               1.000000000               0.000000379              -0.000038547               1.000000000               0.000002268              -0.000037506               1.000000000               0.000002602              -0.000038640               1.000000000               0.000002206              -0.000041572               1.000000000               0.000001433              -0.000046009               1.000000000               0.000000481              -0.000051755               1.000000000              -0.000000437              -0.000058590               1.000000000              -0.000001146              -0.000066243               1.000000000              -0.000001651              -0.000074617               1.000000000              -0.000002210              -0.000083684               1.000000000              -0.000002960              -0.000093466               1.000000000              -0.000003860              -0.000103831               1.000000000              -0.000004971              -0.000114810               1.000000000              -0.000006245              -0.000126466               1.000000000              -0.000007585              -0.000138840               1.000000000              -0.000009020              -0.000151964               1.000000000              -0.000010520              -0.000165818               1.000000000               0.000000271              -0.000040485               1.000000000               0.000001874              -0.000040012               1.000000000               0.000002240              -0.000041181               1.000000000               0.000002041              -0.000043940               1.000000000               0.000001532              -0.000048139               1.000000000               0.000000771              -0.000053595               1.000000000              -0.000000012              -0.000060189               1.000000000              -0.000000647              -0.000067675               1.000000000              -0.000001019              -0.000075954               1.000000000              -0.000001315              -0.000084955               1.000000000              -0.000001716              -0.000094657               1.000000000              -0.000002183              -0.000104985               1.000000000              -0.000002748              -0.000115876               1.000000000              -0.000003416              -0.000127283               1.000000000              -0.000004129              -0.000139322               1.000000000              -0.000004844              -0.000152032               1.000000000              -0.000005494              -0.000165419               1.000000000               0.000000168              -0.000041905               1.000000000               0.000001329              -0.000041895               1.000000000               0.000001661              -0.000043185               1.000000000               0.000001598              -0.000045883               1.000000000               0.000001260              -0.000049879               1.000000000               0.000000746              -0.000055133               1.000000000               0.000000209              -0.000061483               1.000000000              -0.000000257              -0.000068782               1.000000000              -0.000000559              -0.000076946               1.000000000              -0.000000723              -0.000085887               1.000000000              -0.000000890              -0.000095532               1.000000000              -0.000001086              -0.000105806               1.000000000              -0.000001312              -0.000116646               1.000000000              -0.000001595              -0.000127924               1.000000000              -0.000001932              -0.000139794               1.000000000              -0.000002263              -0.000152238               1.000000000              -0.000002543              -0.000165245               1.000000000               0.000000075              -0.000042800               1.000000000               0.000000696              -0.000043097               1.000000000               0.000000905              -0.000044469               1.000000000               0.000000861              -0.000047142               1.000000000               0.000000702              -0.000051030               1.000000000               0.000000472              -0.000056125               1.000000000               0.000000176              -0.000062298               1.000000000              -0.000000077              -0.000069497               1.000000000              -0.000000234              -0.000077604               1.000000000              -0.000000306              -0.000086455               1.000000000              -0.000000359              -0.000096019               1.000000000              -0.000000418              -0.000106225               1.000000000              -0.000000486              -0.000116980               1.000000000              -0.000000585              -0.000128190               1.000000000              -0.000000714              -0.000139930               1.000000000              -0.000000846              -0.000152170               1.000000000              -0.000000999              -0.000164949               1.000000000              -0.000000000              -0.000043110               1.000000000              -0.000000000              -0.000043516               1.000000000              -0.000000000              -0.000044902               1.000000000               0.000000000              -0.000047568               1.000000000               0.000000000              -0.000051433               1.000000000              -0.000000000              -0.000056478               1.000000000               0.000000000              -0.000062600               1.000000000               0.000000000              -0.000069741               1.000000000              -0.000000000              -0.000077788               1.000000000              -0.000000000              -0.000086614               1.000000000              -0.000000000              -0.000096176               1.000000000              -0.000000000              -0.000106351               1.000000000              -0.000000000              -0.000117053               1.000000000              -0.000000000              -0.000128228               1.000000000               0.000000000              -0.000139901               1.000000000               0.000000000              -0.000152055               1.000000000              -0.000000000              -0.000164757               1.000000000              -0.000001904               0.000000000               1.000000000              -0.000000516               0.000000000               1.000000000              -0.000000055               0.000000000               1.000000000              -0.000000024               0.000000000               1.000000000              -0.000000063               0.000000000               1.000000000              -0.000000050               0.000000000               1.000000000               0.000000068               0.000000000               1.000000000               0.000000179              -0.000000000               1.000000000               0.000000172               0.000000000               1.000000000               0.000000056               0.000000000               1.000000000              -0.000000119               0.000000000               1.000000000              -0.000000302               0.000000000               1.000000000              -0.000000417              -0.000000000               1.000000000              -0.000000344              -0.000000000               1.000000000               0.000000007              -0.000000000               1.000000000               0.000000708              -0.000000000               1.000000000               0.000001827              -0.000000000               1.000000000              -0.000001800              -0.000003578               1.000000000              -0.000000481              -0.000003323               1.000000000              -0.000000080              -0.000003298               1.000000000              -0.000000040              -0.000003595               1.000000000              -0.000000048              -0.000004052               1.000000000               0.000000015              -0.000004686               1.000000000               0.000000078              -0.000005171               1.000000000               0.000000092              -0.000005419               1.000000000               0.000000113              -0.000005680               1.000000000               0.000000105              -0.000005866               1.000000000               0.000000051              -0.000006071               1.000000000               0.000000044              -0.000006403               1.000000000               0.000000142              -0.000006902               1.000000000               0.000000419              -0.000007636               1.000000000               0.000000985              -0.000008625               1.000000000               0.000001902              -0.000009856               1.000000000               0.000003230              -0.000011307               1.000000000              -0.000001697              -0.000007173               1.000000000              -0.000000495              -0.000006598               1.000000000              -0.000000122              -0.000006610               1.000000000              -0.000000055              -0.000007152               1.000000000              -0.000000060              -0.000008144               1.000000000               0.000000029              -0.000009324               1.000000000               0.000000135              -0.000010248               1.000000000               0.000000187              -0.000010830               1.000000000               0.000000220              -0.000011475               1.000000000               0.000000259              -0.000012051               1.000000000               0.000000421              -0.000012685               1.000000000               0.000000798              -0.000013567               1.000000000               0.000001406              -0.000014764               1.000000000               0.000002287              -0.000016374               1.000000000               0.000003502              -0.000018446               1.000000000               0.000005093              -0.000021000               1.000000000               0.000007098              -0.000024041               1.000000000              -0.000001515              -0.000010706               1.000000000              -0.000000493              -0.000009798               1.000000000              -0.000000260              -0.000009858               1.000000000              -0.000000194              -0.000010735               1.000000000              -0.000000049              -0.000012211               1.000000000               0.000000138              -0.000013934               1.000000000               0.000000254              -0.000015331               1.000000000               0.000000283              -0.000016391               1.000000000               0.000000390              -0.000017623               1.000000000               0.000000723              -0.000018873               1.000000000               0.000001342              -0.000020365               1.000000000               0.000002340              -0.000022210               1.000000000               0.000003744              -0.000024500               1.000000000               0.000005525              -0.000027338               1.000000000               0.000007727              -0.000030785               1.000000000               0.000010351              -0.000034897               1.000000000               0.000013377              -0.000039729               1.000000000              -0.000001250              -0.000014156               1.000000000              -0.000000596              -0.000012916               1.000000000              -0.000000522              -0.000013068               1.000000000              -0.000000369              -0.000014400               1.000000000              -0.000000083              -0.000016380               1.000000000               0.000000206              -0.000018706               1.000000000               0.000000497              -0.000020597               1.000000000               0.000000783              -0.000022390               1.000000000               0.000001244              -0.000024456               1.000000000               0.000002002              -0.000026818               1.000000000               0.000003173              -0.000029595               1.000000000               0.000004876              -0.000032930               1.000000000               0.000007073              -0.000036869               1.000000000               0.000009748              -0.000041472               1.000000000               0.000012935              -0.000046775               1.000000000               0.000016595              -0.000052823               1.000000000               0.000020677              -0.000059644               1.000000000              -0.000001087              -0.000017600               1.000000000              -0.000000855              -0.000015987               1.000000000              -0.000000846              -0.000016314               1.000000000              -0.000000611              -0.000018153               1.000000000              -0.000000120              -0.000020829               1.000000000               0.000000473              -0.000023787               1.000000000               0.000000961              -0.000026549               1.000000000               0.000001463              -0.000029392               1.000000000               0.000002311              -0.000032722               1.000000000               0.000003629              -0.000036611               1.000000000               0.000005517              -0.000041070               1.000000000               0.000007998              -0.000046288               1.000000000               0.000011016              -0.000052253               1.000000000               0.000014563              -0.000059000               1.000000000               0.000018648              -0.000066537               1.000000000               0.000023231              -0.000074838               1.000000000               0.000028252              -0.000083892               1.000000000              -0.000000938              -0.000020995               1.000000000              -0.000001205              -0.000018983               1.000000000              -0.000001284              -0.000019678               1.000000000              -0.000000785              -0.000022103               1.000000000              -0.000000019              -0.000025595               1.000000000               0.000000688              -0.000029610               1.000000000               0.000001355              -0.000033594               1.000000000               0.000002203              -0.000037805               1.000000000               0.000003560              -0.000042827               1.000000000               0.000005521              -0.000048515               1.000000000               0.000008149              -0.000055004               1.000000000               0.000011422              -0.000062334               1.000000000               0.000015228              -0.000070571               1.000000000               0.000019595              -0.000079665               1.000000000               0.000024531              -0.000089586               1.000000000               0.000029948              -0.000100303               1.000000000               0.000035812              -0.000111748               1.000000000              -0.000000839              -0.000024294               1.000000000              -0.000001666              -0.000021975               1.000000000              -0.000001647              -0.000023133               1.000000000              -0.000000915              -0.000026420               1.000000000               0.000000052              -0.000030971               1.000000000               0.000001044              -0.000036221               1.000000000               0.000002007              -0.000041579               1.000000000               0.000003236              -0.000047518               1.000000000               0.000005086              -0.000054496               1.000000000               0.000007663              -0.000062242               1.000000000               0.000010944              -0.000070935               1.000000000               0.000014844              -0.000080695               1.000000000               0.000019333              -0.000091414               1.000000000               0.000024454              -0.000103122               1.000000000               0.000030125              -0.000115732               1.000000000               0.000036311              -0.000129189               1.000000000               0.000042968              -0.000143436               1.000000000              -0.000000777              -0.000027396               1.000000000              -0.000002135              -0.000025020               1.000000000              -0.000001929              -0.000026776               1.000000000              -0.000000909              -0.000031020               1.000000000               0.000000382              -0.000036846               1.000000000               0.000001624              -0.000043446               1.000000000               0.000002714              -0.000050464               1.000000000               0.000004260              -0.000058374               1.000000000               0.000006645              -0.000067404               1.000000000               0.000009802              -0.000077448               1.000000000               0.000013594              -0.000088639               1.000000000               0.000018009              -0.000101118               1.000000000               0.000023096              -0.000114754               1.000000000               0.000028803              -0.000129509               1.000000000               0.000035046              -0.000145407               1.000000000               0.000041821              -0.000162244               1.000000000               0.000048930              -0.000179754               1.000000000              -0.000000677              -0.000030472               1.000000000              -0.000002418              -0.000028238               1.000000000              -0.000002349              -0.000029681               1.000000000              -0.000001363              -0.000033521               1.000000000              -0.000000042              -0.000039099               1.000000000               0.000001247              -0.000045675               1.000000000               0.000002266              -0.000052773               1.000000000               0.000003272              -0.000060524               1.000000000               0.000004926              -0.000069207               1.000000000               0.000007210              -0.000078798               1.000000000               0.000009982              -0.000089328               1.000000000               0.000013320              -0.000100891               1.000000000               0.000017141              -0.000113597               1.000000000               0.000021441              -0.000127312               1.000000000               0.000026223              -0.000142080               1.000000000               0.000031448              -0.000157890               1.000000000               0.000037111              -0.000174732               1.000000000              -0.000000615              -0.000033460               1.000000000              -0.000002570              -0.000031486               1.000000000              -0.000002576              -0.000032665               1.000000000              -0.000001779              -0.000036188               1.000000000              -0.000000596              -0.000041447               1.000000000               0.000000675              -0.000047810               1.000000000               0.000001668              -0.000054887               1.000000000               0.000002442              -0.000062604               1.000000000               0.000003503              -0.000071098               1.000000000               0.000005079              -0.000080417               1.000000000               0.000007033              -0.000090521               1.000000000               0.000009438              -0.000101440               1.000000000               0.000012180              -0.000113306               1.000000000               0.000015245              -0.000126142               1.000000000               0.000018674              -0.000139883               1.000000000               0.000022450              -0.000154565               1.000000000               0.000026635              -0.000170208               1.000000000              -0.000000507              -0.000036176               1.000000000              -0.000002499              -0.000034597               1.000000000              -0.000002677              -0.000035713               1.000000000              -0.000002126              -0.000038954               1.000000000              -0.000001106              -0.000043780               1.000000000               0.000000047              -0.000049823               1.000000000               0.000001049              -0.000056768               1.000000000               0.000001767              -0.000064486               1.000000000               0.000002466              -0.000072910               1.000000000               0.000003431              -0.000082120               1.000000000               0.000004712              -0.000092017               1.000000000               0.000006271              -0.000102571               1.000000000               0.000008123              -0.000113841               1.000000000               0.000010172              -0.000125946               1.000000000               0.000012432              -0.000138894               1.000000000               0.000014908              -0.000152628               1.000000000               0.000017641              -0.000167156               1.000000000              -0.000000379              -0.000038547               1.000000000              -0.000002268              -0.000037506               1.000000000              -0.000002602              -0.000038640               1.000000000              -0.000002206              -0.000041572               1.000000000              -0.000001433              -0.000046009               1.000000000              -0.000000481              -0.000051755               1.000000000               0.000000437              -0.000058590               1.000000000               0.000001146              -0.000066243               1.000000000               0.000001651              -0.000074617               1.000000000               0.000002210              -0.000083684               1.000000000               0.000002960              -0.000093466               1.000000000               0.000003860              -0.000103831               1.000000000               0.000004971              -0.000114810               1.000000000               0.000006245              -0.000126466               1.000000000               0.000007585              -0.000138840               1.000000000               0.000009020              -0.000151964               1.000000000               0.000010520              -0.000165818               1.000000000              -0.000000271              -0.000040485               1.000000000              -0.000001874              -0.000040012               1.000000000              -0.000002240              -0.000041181               1.000000000              -0.000002041              -0.000043940               1.000000000              -0.000001532              -0.000048139               1.000000000              -0.000000771              -0.000053595               1.000000000               0.000000012              -0.000060189               1.000000000               0.000000647              -0.000067675               1.000000000               0.000001019              -0.000075954               1.000000000               0.000001315              -0.000084955               1.000000000               0.000001716              -0.000094657               1.000000000               0.000002183              -0.000104985               1.000000000               0.000002748              -0.000115876               1.000000000               0.000003416              -0.000127283               1.000000000               0.000004129              -0.000139322               1.000000000               0.000004844              -0.000152032               1.000000000               0.000005494              -0.000165419               1.000000000              -0.000000168              -0.000041905               1.000000000              -0.000001329              -0.000041895               1.000000000              -0.000001661              -0.000043185               1.000000000              -0.000001598              -0.000045883               1.000000000              -0.000001260              -0.000049879               1.000000000              -0.000000746              -0.000055133               1.000000000              -0.000000209              -0.000061483               1.000000000               0.000000257              -0.000068782               1.000000000               0.000000559              -0.000076946               1.000000000               0.000000723              -0.000085887               1.000000000               0.000000890              -0.000095532               1.000000000               0.000001086              -0.000105806               1.000000000               0.000001312              -0.000116646               1.000000000               0.000001595              -0.000127924               1.000000000               0.000001932              -0.000139794               1.000000000               0.000002263              -0.000152238               1.000000000               0.000002543              -0.000165245               1.000000000              -0.000000075              -0.000042800               1.000000000              -0.000000696              -0.000043097               1.000000000              -0.000000905              -0.000044469               1.000000000              -0.000000861              -0.000047142               1.000000000              -0.000000702              -0.000051030               1.000000000              -0.000000472              -0.000056125               1.000000000              -0.000000176              -0.000062298               1.000000000               0.000000077              -0.000069497               1.000000000               0.000000234              -0.000077604               1.000000000               0.000000306              -0.000086455               1.000000000               0.000000359              -0.000096019               1.000000000               0.000000418              -0.000106225               1.000000000               0.000000486              -0.000116980               1.000000000               0.000000585              -0.000128190               1.000000000               0.000000714              -0.000139930               1.000000000               0.000000846              -0.000152170               1.000000000               0.000000999              -0.000164949               1.000000000              -0.000000000              -0.000043110               1.000000000              -0.000000000              -0.000043516               1.000000000              -0.000000000              -0.000044902               1.000000000               0.000000000              -0.000047568               1.000000000               0.000000000              -0.000051433               1.000000000              -0.000000000              -0.000056478               1.000000000               0.000000000              -0.000062600               1.000000000               0.000000000              -0.000069741               1.000000000              -0.000000000              -0.000077788               1.000000000              -0.000000000              -0.000086614               1.000000000              -0.000000000              -0.000096176               1.000000000              -0.000000000              -0.000106351               1.000000000              -0.000000000              -0.000117053               1.000000000              -0.000000000              -0.000128228               1.000000000               0.000000000              -0.000139901               1.000000000               0.000000000              -0.000152055               1.000000000              -0.000000000              -0.000164757               1.000000000              -0.000001904               0.000000000               1.000000000              -0.000000516               0.000000000               1.000000000              -0.000000055               0.000000000               1.000000000              -0.000000024               0.000000000               1.000000000              -0.000000063               0.000000000               1.000000000              -0.000000050               0.000000000               1.000000000               0.000000068               0.000000000               1.000000000               0.000000179              -0.000000000               1.000000000               0.000000172               0.000000000               1.000000000               0.000000056               0.000000000               1.000000000              -0.000000119               0.000000000               1.000000000              -0.000000302               0.000000000               1.000000000              -0.000000417              -0.000000000               1.000000000              -0.000000344              -0.000000000               1.000000000               0.000000007              -0.000000000               1.000000000               0.000000708              -0.000000000               1.000000000               0.000001827              -0.000000000               1.000000000              -0.000001800               0.000003578               1.000000000              -0.000000481               0.000003323               1.000000000              -0.000000080               0.000003298               1.000000000              -0.000000040               0.000003595               1.000000000              -0.000000048               0.000004052               1.000000000               0.000000015               0.000004686               1.000000000               0.000000078               0.000005171               1.000000000               0.000000092               0.000005419               1.000000000               0.000000113               0.000005680               1.000000000               0.000000105               0.000005866               1.000000000               0.000000051               0.000006071               1.000000000               0.000000044               0.000006403               1.000000000               0.000000142               0.000006902               1.000000000               0.000000419               0.000007636               1.000000000               0.000000985               0.000008625               1.000000000               0.000001902               0.000009856               1.000000000               0.000003230               0.000011307               1.000000000              -0.000001697               0.000007173               1.000000000              -0.000000495               0.000006598               1.000000000              -0.000000122               0.000006610               1.000000000              -0.000000055               0.000007152               1.000000000              -0.000000060               0.000008144               1.000000000               0.000000029               0.000009324               1.000000000               0.000000135               0.000010248               1.000000000               0.000000187               0.000010830               1.000000000               0.000000220               0.000011475               1.000000000               0.000000259               0.000012051               1.000000000               0.000000421               0.000012685               1.000000000               0.000000798               0.000013567               1.000000000               0.000001406               0.000014764               1.000000000               0.000002287               0.000016374               1.000000000               0.000003502               0.000018446               1.000000000               0.000005093               0.000021000               1.000000000               0.000007098               0.000024041               1.000000000              -0.000001515               0.000010706               1.000000000              -0.000000493               0.000009798               1.000000000              -0.000000260               0.000009858               1.000000000              -0.000000194               0.000010735               1.000000000              -0.000000049               0.000012211               1.000000000               0.000000138               0.000013934               1.000000000               0.000000254               0.000015331               1.000000000               0.000000283               0.000016391               1.000000000               0.000000390               0.000017623               1.000000000               0.000000723               0.000018873               1.000000000               0.000001342               0.000020365               1.000000000               0.000002340               0.000022210               1.000000000               0.000003744               0.000024500               1.000000000               0.000005525               0.000027338               1.000000000               0.000007727               0.000030785               1.000000000               0.000010351               0.000034897               1.000000000               0.000013377               0.000039729               1.000000000              -0.000001250               0.000014156               1.000000000              -0.000000596               0.000012916               1.000000000              -0.000000522               0.000013068               1.000000000              -0.000000369               0.000014400               1.000000000              -0.000000083               0.000016380               1.000000000               0.000000206               0.000018706               1.000000000               0.000000497               0.000020597               1.000000000               0.000000783               0.000022390               1.000000000               0.000001244               0.000024456               1.000000000               0.000002002               0.000026818               1.000000000               0.000003173               0.000029595               1.000000000               0.000004876               0.000032930               1.000000000               0.000007073               0.000036869               1.000000000               0.000009748               0.000041472               1.000000000               0.000012935               0.000046775               1.000000000               0.000016595               0.000052823               1.000000000               0.000020677               0.000059644               1.000000000              -0.000001087               0.000017600               1.000000000              -0.000000855               0.000015987               1.000000000              -0.000000846               0.000016314               1.000000000              -0.000000611               0.000018153               1.000000000              -0.000000120               0.000020829               1.000000000               0.000000473               0.000023787               1.000000000               0.000000961               0.000026549               1.000000000               0.000001463               0.000029392               1.000000000               0.000002311               0.000032722               1.000000000               0.000003629               0.000036611               1.000000000               0.000005517               0.000041070               1.000000000               0.000007998               0.000046288               1.000000000               0.000011016               0.000052253               1.000000000               0.000014563               0.000059000               1.000000000               0.000018648               0.000066537               1.000000000               0.000023231               0.000074838               1.000000000               0.000028252               0.000083892               1.000000000              -0.000000938               0.000020995               1.000000000              -0.000001205               0.000018983               1.000000000              -0.000001284               0.000019678               1.000000000              -0.000000785               0.000022103               1.000000000              -0.000000019               0.000025595               1.000000000               0.000000688               0.000029610               1.000000000               0.000001355               0.000033594               1.000000000               0.000002203               0.000037805               1.000000000               0.000003560               0.000042827               1.000000000               0.000005521               0.000048515               1.000000000               0.000008149               0.000055004               1.000000000               0.000011422               0.000062334               1.000000000               0.000015228               0.000070571               1.000000000               0.000019595               0.000079665               1.000000000               0.000024531               0.000089586               1.000000000               0.000029948               0.000100303               1.000000000               0.000035812               0.000111748               1.000000000              -0.000000839               0.000024294               1.000000000              -0.000001666               0.000021975               1.000000000              -0.000001647               0.000023133               1.000000000              -0.000000915               0.000026420               1.000000000               0.000000052               0.000030971               1.000000000               0.000001044               0.000036221               1.000000000               0.000002007               0.000041579               1.000000000               0.000003236               0.000047518               1.000000000               0.000005086               0.000054496               1.000000000               0.000007663               0.000062242               1.000000000               0.000010944               0.000070935               1.000000000               0.000014844               0.000080695               1.000000000               0.000019333               0.000091414               1.000000000               0.000024454               0.000103122               1.000000000               0.000030125               0.000115732               1.000000000               0.000036311               0.000129189               1.000000000               0.000042968               0.000143436               1.000000000              -0.000000777               0.000027396               1.000000000              -0.000002135               0.000025020               1.000000000              -0.000001929               0.000026776               1.000000000              -0.000000909               0.000031020               1.000000000               0.000000382               0.000036846               1.000000000               0.000001624               0.000043446               1.000000000               0.000002714               0.000050464               1.000000000               0.000004260               0.000058374               1.000000000               0.000006645               0.000067404               1.000000000               0.000009802               0.000077448               1.000000000               0.000013594               0.000088639               1.000000000               0.000018009               0.000101118               1.000000000               0.000023096               0.000114754               1.000000000               0.000028803               0.000129509               1.000000000               0.000035046               0.000145407               1.000000000               0.000041821               0.000162244               1.000000000               0.000048930               0.000179754               1.000000000              -0.000000677               0.000030472               1.000000000              -0.000002418               0.000028238               1.000000000              -0.000002349               0.000029681               1.000000000              -0.000001363               0.000033521               1.000000000              -0.000000042               0.000039099               1.000000000               0.000001247               0.000045675               1.000000000               0.000002266               0.000052773               1.000000000               0.000003272               0.000060524               1.000000000               0.000004926               0.000069207               1.000000000               0.000007210               0.000078798               1.000000000               0.000009982               0.000089328               1.000000000               0.000013320               0.000100891               1.000000000               0.000017141               0.000113597               1.000000000               0.000021441               0.000127312               1.000000000               0.000026223               0.000142080               1.000000000               0.000031448               0.000157890               1.000000000               0.000037111               0.000174732               1.000000000              -0.000000615               0.000033460               1.000000000              -0.000002570               0.000031486               1.000000000              -0.000002576               0.000032665               1.000000000              -0.000001779               0.000036188               1.000000000              -0.000000596               0.000041447               1.000000000               0.000000675               0.000047810               1.000000000               0.000001668               0.000054887               1.000000000               0.000002442               0.000062604               1.000000000               0.000003503               0.000071098               1.000000000               0.000005079               0.000080417               1.000000000               0.000007033               0.000090521               1.000000000               0.000009438               0.000101440               1.000000000               0.000012180               0.000113306               1.000000000               0.000015245               0.000126142               1.000000000               0.000018674               0.000139883               1.000000000               0.000022450               0.000154565               1.000000000               0.000026635               0.000170208               1.000000000              -0.000000507               0.000036176               1.000000000              -0.000002499               0.000034597               1.000000000              -0.000002677               0.000035713               1.000000000              -0.000002126               0.000038954               1.000000000              -0.000001106               0.000043780               1.000000000               0.000000047               0.000049823               1.000000000               0.000001049               0.000056768               1.000000000               0.000001767               0.000064486               1.000000000               0.000002466               0.000072910               1.000000000               0.000003431               0.000082120               1.000000000               0.000004712               0.000092017               1.000000000               0.000006271               0.000102571               1.000000000               0.000008123               0.000113841               1.000000000               0.000010172               0.000125946               1.000000000               0.000012432               0.000138894               1.000000000               0.000014908               0.000152628               1.000000000               0.000017641               0.000167156               1.000000000              -0.000000379               0.000038547               1.000000000              -0.000002268               0.000037506               1.000000000              -0.000002602               0.000038640               1.000000000              -0.000002206               0.000041572               1.000000000              -0.000001433               0.000046009               1.000000000              -0.000000481               0.000051755               1.000000000               0.000000437               0.000058590               1.000000000               0.000001146               0.000066243               1.000000000               0.000001651               0.000074617               1.000000000               0.000002210               0.000083684               1.000000000               0.000002960               0.000093466               1.000000000               0.000003860               0.000103831               1.000000000               0.000004971               0.000114810               1.000000000               0.000006245               0.000126466               1.000000000               0.000007585               0.000138840               1.000000000               0.000009020               0.000151964               1.000000000               0.000010520               0.000165818               1.000000000              -0.000000271               0.000040485               1.000000000              -0.000001874               0.000040012               1.000000000              -0.000002240               0.000041181               1.000000000              -0.000002041               0.000043940               1.000000000              -0.000001532               0.000048139               1.000000000              -0.000000771               0.000053595               1.000000000               0.000000012               0.000060189               1.000000000               0.000000647               0.000067675               1.000000000               0.000001019               0.000075954               1.000000000               0.000001315               0.000084955               1.000000000               0.000001716               0.000094657               1.000000000               0.000002183               0.000104985               1.000000000               0.000002748               0.000115876               1.000000000               0.000003416               0.000127283               1.000000000               0.000004129               0.000139322               1.000000000               0.000004844               0.000152032               1.000000000               0.000005494               0.000165419               1.000000000              -0.000000168               0.000041905               1.000000000              -0.000001329               0.000041895               1.000000000              -0.000001661               0.000043185               1.000000000              -0.000001598               0.000045883               1.000000000              -0.000001260               0.000049879               1.000000000              -0.000000746               0.000055133               1.000000000              -0.000000209               0.000061483               1.000000000               0.000000257               0.000068782               1.000000000               0.000000559               0.000076946               1.000000000               0.000000723               0.000085887               1.000000000               0.000000890               0.000095532               1.000000000               0.000001086               0.000105806               1.000000000               0.000001312               0.000116646               1.000000000               0.000001595               0.000127924               1.000000000               0.000001932               0.000139794               1.000000000               0.000002263               0.000152238               1.000000000               0.000002543               0.000165245               1.000000000              -0.000000075               0.000042800               1.000000000              -0.000000696               0.000043097               1.000000000              -0.000000905               0.000044469               1.000000000              -0.000000861               0.000047142               1.000000000              -0.000000702               0.000051030               1.000000000              -0.000000472               0.000056125               1.000000000              -0.000000176               0.000062298               1.000000000               0.000000077               0.000069497               1.000000000               0.000000234               0.000077604               1.000000000               0.000000306               0.000086455               1.000000000               0.000000359               0.000096019               1.000000000               0.000000418               0.000106225               1.000000000               0.000000486               0.000116980               1.000000000               0.000000585               0.000128190               1.000000000               0.000000714               0.000139930               1.000000000               0.000000846               0.000152170               1.000000000               0.000000999               0.000164949               1.000000000              -0.000000000               0.000043110               1.000000000              -0.000000000               0.000043516               1.000000000               0.000000000               0.000044902               1.000000000               0.000000000               0.000047568               1.000000000               0.000000000               0.000051433               1.000000000              -0.000000000               0.000056478               1.000000000               0.000000000               0.000062600               1.000000000              -0.000000000               0.000069741               1.000000000              -0.000000000               0.000077788               1.000000000              -0.000000000               0.000086614               1.000000000              -0.000000000               0.000096176               1.000000000              -0.000000000               0.000106351               1.000000000              -0.000000000               0.000117053               1.000000000              -0.000000000               0.000128228               1.000000000               0.000000000               0.000139901               1.000000000               0.000000000               0.000152055               1.000000000              -0.000000000               0.000164757               1.000000000 </DataArray>
<DataArray type="Float64"                                    Name="defo"                                                      NumberOfComponents=" 3" format="ascii">
              0.000001904               0.000000000               1.000000000               0.000000516               0.000000000               1.000000000               0.000000055               0.000000000               1.000000000               0.000000024               0.000000000               1.000000000               0.000000063               0.000000000               1.000000000               0.000000050               0.000000000               1.000000000              -0.000000068               0.000000000               1.000000000              -0.000000179               0.000000000               1.000000000              -0.000000172               0.000000000               1.000000000              -0.000000056               0.000000000               1.000000000               0.000000119               0.000000000               1.000000000               0.000000302               0.000000000               1.000000000               0.000000417               0.000000000               1.000000000               0.000000344               0.000000000               1.000000000              -0.000000007               0.000000000               1.000000000              -0.000000708               0.000000000               1.000000000              -0.000001827               0.000000000               1.000000000               0.000001800               0.000003578               1.000000000               0.000000481               0.000003323               1.000000000               0.000000080               0.000003298               1.000000000               0.000000040               0.000003595               1.000000000               0.000000048               0.000004052               1.000000000              -0.000000015               0.000004686               1.000000000              -0.000000078               0.000005171               1.000000000              -0.000000092               0.000005419               1.000000000              -0.000000113               0.000005680               1.000000000              -0.000000105               0.000005866               1.000000000              -0.000000051               0.000006071               1.000000000              -0.000000044               0.000006403               1.000000000              -0.000000142               0.000006902               1.000000000              -0.000000419               0.000007636               1.000000000              -0.000000985               0.000008625               1.000000000              -0.000001902               0.000009856               1.000000000              -0.000003230               0.000011307               1.000000000               0.000001697               0.000007173               1.000000000               0.000000495               0.000006598               1.000000000               0.000000122               0.000006610               1.000000000               0.000000055               0.000007152               1.000000000               0.000000060               0.000008144               1.000000000              -0.000000029               0.000009324               1.000000000              -0.000000135               0.000010248               1.000000000              -0.000000187               0.000010830               1.000000000              -0.000000220               0.000011475               1.000000000              -0.000000259               0.000012051               1.000000000              -0.000000421               0.000012685               1.000000000              -0.000000798               0.000013567               1.000000000              -0.000001406               0.000014764               1.000000000              -0.000002287               0.000016374               1.000000000              -0.000003502               0.000018446               1.000000000              -0.000005093               0.000021000               1.000000000              -0.000007098               0.000024041               1.000000000               0.000001515               0.000010706               1.000000000               0.000000493               0.000009798               1.000000000               0.000000260               0.000009858               1.000000000               0.000000194               0.000010735               1.000000000               0.000000049               0.000012211               1.000000000              -0.000000138               0.000013934               1.000000000              -0.000000254               0.000015331               1.000000000              -0.000000283               0.000016391               1.000000000              -0.000000390               0.000017623               1.000000000              -0.000000723               0.000018873               1.000000000              -0.000001342               0.000020365               1.000000000              -0.000002340               0.000022210               1.000000000              -0.000003744               0.000024500               1.000000000              -0.000005525               0.000027338               1.000000000              -0.000007727               0.000030785               1.000000000              -0.000010351               0.000034897               1.000000000              -0.000013377               0.000039729               1.000000000               0.000001250               0.000014156               1.000000000               0.000000596               0.000012916               1.000000000               0.000000522               0.000013068               1.000000000               0.000000369               0.000014400               1.000000000               0.000000083               0.000016380               1.000000000              -0.000000206               0.000018706               1.000000000              -0.000000497               0.000020597               1.000000000              -0.000000783               0.000022390               1.000000000              -0.000001244               0.000024456               1.000000000              -0.000002002               0.000026818               1.000000000              -0.000003173               0.000029595               1.000000000              -0.000004876               0.000032930               1.000000000              -0.000007073               0.000036869               1.000000000              -0.000009748               0.000041472               1.000000000              -0.000012935               0.000046775               1.000000000              -0.000016595               0.000052823               1.000000000              -0.000020677               0.000059644               1.000000000               0.000001087               0.000017600               1.000000000               0.000000855               0.000015987               1.000000000               0.000000846               0.000016314               1.000000000               0.000000611               0.000018153               1.000000000               0.000000120               0.000020829               1.000000000              -0.000000473               0.000023787               1.000000000              -0.000000961               0.000026549               1.000000000              -0.000001463               0.000029392               1.000000000              -0.000002311               0.000032722               1.000000000              -0.000003629               0.000036611               1.000000000              -0.000005517               0.000041070               1.000000000              -0.000007998               0.000046288               1.000000000              -0.000011016               0.000052253               1.000000000              -0.000014563               0.000059000               1.000000000              -0.000018648               0.000066537               1.000000000              -0.000023231               0.000074838               1.000000000              -0.000028252               0.000083892               1.000000000               0.000000938               0.000020995               1.000000000               0.000001205               0.000018983               1.000000000               0.000001284               0.000019678               1.000000000               0.000000785               0.000022103               1.000000000               0.000000019               0.000025595               1.000000000              -0.000000688               0.000029610               1.000000000              -0.000001355               0.000033594               1.000000000              -0.000002203               0.000037805               1.000000000              -0.000003560               0.000042827               1.000000000              -0.000005521               0.000048515               1.000000000              -0.000008149               0.000055004               1.000000000              -0.000011422               0.000062334               1.000000000              -0.000015228               0.000070571               1.000000000              -0.000019595               0.000079665               1.000000000              -0.000024531               0.000089586               1.000000000              -0.000029948               0.000100303               1.000000000              -0.000035812               0.000111748               1.000000000               0.000000839               0.000024294               1.000000000               0.000001666               0.000021975               1.000000000               0.000001647               0.000023133               1.000000000               0.000000915               0.000026420               1.000000000              -0.000000052               0.000030971               1.000000000              -0.000001044               0.000036221               1.000000000              -0.000002007               0.000041579               1.000000000              -0.000003236               0.000047518               1.000000000              -0.000005086               0.000054496               1.000000000              -0.000007663               0.000062242               1.000000000              -0.000010944               0.000070935               1.000000000              -0.000014844               0.000080695               1.000000000              -0.000019333               0.000091414               1.000000000              -0.000024454               0.000103122               1.000000000              -0.000030125               0.000115732               1.000000000              -0.000036311               0.000129189               1.000000000              -0.000042968               0.000143436               1.000000000               0.000000777               0.000027396               1.000000000               0.000002135               0.000025020               1.000000000               0.000001929               0.000026776               1.000000000               0.000000909               0.000031020               1.000000000              -0.000000382               0.000036846               1.000000000              -0.000001624               0.000043446               1.000000000              -0.000002714               0.000050464               1.000000000              -0.000004260               0.000058374               1.000000000              -0.000006645               0.000067404               1.000000000              -0.000009802               0.000077448               1.000000000              -0.000013594               0.000088639               1.000000000              -0.000018009               0.000101118               1.000000000              -0.000023096               0.000114754               1.000000000              -0.000028803               0.000129509               1.000000000              -0.000035046               0.000145407               1.000000000              -0.000041821               0.000162244               1.000000000              -0.000048930               0.000179754               1.000000000               0.000000677               0.000030472               1.000000000               0.000002418               0.000028238               1.000000000               0.000002349               0.000029681               1.000000000               0.000001363               0.000033521               1.000000000               0.000000042               0.000039099               1.000000000              -0.000001247               0.000045675               1.000000000              -0.000002266               0.000052773               1.000000000              -0.000003272               0.000060524               1.000000000              -0.000004926               0.000069207               1.000000000              -0.000007210               0.000078798               1.000000000              -0.000009982               0.000089328               1.000000000              -0.000013320               0.000100891               1.000000000              -0.000017141               0.000113597               1.000000000              -0.000021441               0.000127312               1.000000000              -0.000026223               0.000142080               1.000000000              -0.000031448               0.000157890               1.000000000              -0.000037111               0.000174732               1.000000000               0.000000615               0.000033460               1.000000000               0.000002570               0.000031486               1.000000000               0.000002576               0.000032665               1.000000000               0.000001779               0.000036188               1.000000000               0.000000596               0.000041447               1.000000000              -0.000000675               0.000047810               1.000000000              -0.000001668               0.000054887               1.000000000              -0.000002442               0.000062604               1.000000000              -0.000003503               0.000071098               1.000000000              -0.000005079               0.000080417               1.000000000              -0.000007033               0.000090521               1.000000000              -0.000009438               0.000101440               1.000000000              -0.000012180               0.000113306               1.000000000              -0.000015245               0.000126142               1.000000000              -0.000018674               0.000139883               1.000000000              -0.000022450               0.000154565               1.000000000              -0.000026635               0.000170208               1.000000000               0.000000507               0.000036176               1.000000000               0.000002499               0.000034597               1.000000000               0.000002677               0.000035713               1.000000000               0.000002126               0.000038954               1.000000000               0.000001106               0.000043780               1.000000000              -0.000000047               0.000049823               1.000000000              -0.000001049               0.000056768               1.000000000              -0.000001767               0.000064486               1.000000000              -0.000002466               0.000072910               1.000000000              -0.000003431               0.000082120               1.000000000              -0.000004712               0.000092017               1.000000000              -0.000006271               0.000102571               1.000000000              -0.000008123               0.000113841               1.000000000              -0.000010172               0.000125946               1.000000000              -0.000012432               0.000138894               1.000000000              -0.000014908               0.000152628               1.000000000              -0.000017641               0.000167156               1.000000000               0.000000379               0.000038547               1.000000000               0.000002268               0.000037506               1.000000000               0.000002602               0.000038640               1.000000000               0.000002206               0.000041572               1.000000000               0.000001433               0.000046009               1.000000000               0.000000481               0.000051755               1.000000000              -0.000000437               0.000058590               1.000000000              -0.000001146               0.000066243               1.000000000              -0.000001651               0.000074617               1.000000000              -0.000002210               0.000083684               1.000000000              -0.000002960               0.000093466               1.000000000              -0.000003860               0.000103831               1.000000000              -0.000004971               0.000114810               1.000000000              -0.000006245               0.000126466               1.000000000              -0.000007585               0.000138840               1.000000000              -0.000009020               0.000151964               1.000000000              -0.000010520               0.000165818               1.000000000               0.000000271               0.000040485               1.000000000               0.000001874               0.000040012               1.000000000               0.000002240               0.000041181               1.000000000               0.000002041               0.000043940               1.000000000               0.000001532               0.000048139               1.000000000               0.000000771               0.000053595               1.000000000              -0.000000012               0.000060189               1.000000000              -0.000000647               0.000067675               1.000000000              -0.000001019               0.000075954               1.000000000              -0.000001315               0.000084955               1.000000000              -0.000001716               0.000094657               1.000000000              -0.000002183               0.000104985               1.000000000              -0.000002748               0.000115876               1.000000000              -0.000003416               0.000127283               1.000000000              -0.000004129               0.000139322               1.000000000              -0.000004844               0.000152032               1.000000000              -0.000005494               0.000165419               1.000000000               0.000000168               0.000041905               1.000000000               0.000001329               0.000041895               1.000000000               0.000001661               0.000043185               1.000000000               0.000001598               0.000045883               1.000000000               0.000001260               0.000049879               1.000000000               0.000000746               0.000055133               1.000000000               0.000000209               0.000061483               1.000000000              -0.000000257               0.000068782               1.000000000              -0.000000559               0.000076946               1.000000000              -0.000000723               0.000085887               1.000000000              -0.000000890               0.000095532               1.000000000              -0.000001086               0.000105806               1.000000000              -0.000001312               0.000116646               1.000000000              -0.000001595               0.000127924               1.000000000              -0.000001932               0.000139794               1.000000000              -0.000002263               0.000152238               1.000000000              -0.000002543               0.000165245               1.000000000               0.000000075               0.000042800               1.000000000               0.000000696               0.000043097               1.000000000               0.000000905               0.000044469               1.000000000               0.000000861               0.000047142               1.000000000               0.000000702               0.000051030               1.000000000               0.000000472               0.000056125               1.000000000               0.000000176               0.000062298               1.000000000              -0.000000077               0.000069497               1.000000000              -0.000000234               0.000077604               1.000000000              -0.000000306               0.000086455               1.000000000              -0.000000359               0.000096019               1.000000000              -0.000000418               0.000106225               1.000000000              -0.000000486               0.000116980               1.000000000              -0.000000585               0.000128190               1.000000000              -0.000000714               0.000139930               1.000000000              -0.000000846               0.000152170               1.000000000              -0.000000999               0.000164949               1.000000000              -0.000000000               0.000043110               1.000000000              -0.000000000               0.000043516               1.000000000               0.000000000               0.000044902               1.000000000               0.000000000               0.000047568               1.000000000               0.000000000               0.000051433               1.000000000              -0.000000000               0.000056478               1.000000000               0.000000000               0.000062600               1.000000000              -0.000000000               0.000069741               1.000000000              -0.000000000               0.000077788               1.000000000              -0.000000000               0.000086614               1.000000000              -0.000000000               0.000096176               1.000000000              -0.000000000               0.000106351               1.000000000              -0.000000000               0.000117053               1.000000000              -0.000000000               0.000128228               1.000000000               0.000000000               0.000139901               1.000000000               0.000000000               0.000152055               1.000000000              -0.000000000               0.000164757               1.000000000               0.000001904               0.000000000               1.000000000               0.000000516               0.000000000               1.000000000               0.000000055               0.000000000               1.000000000               0.000000024               0.000000000               1.000000000               0.000000063               0.000000000               1.000000000               0.000000050               0.000000000               1.000000000              -0.000000068               0.000000000               1.000000000              -0.000000179               0.000000000               1.000000000              -0.000000172               0.000000000               1.000000000              -0.000000056               0.000000000               1.000000000               0.000000119               0.000000000               1.000000000               0.000000302               0.000000000               1.000000000               0.000000417               0.000000000               1.000000000               0.000000344               0.000000000               1.000000000              -0.000000007               0.000000000               1.000000000              -0.000000708               0.000000000               1.000000000              -0.000001827               0.000000000               1.000000000               0.000001800              -0.000003578               1.000000000               0.000000481              -0.000003323               1.000000000               0.000000080              -0.000003298               1.000000000               0.000000040              -0.000003595               1.000000000               0.000000048              -0.000004052               1.000000000              -0.000000015              -0.000004686               1.000000000              -0.000000078              -0.000005171               1.000000000              -0.000000092              -0.000005419               1.000000000              -0.000000113              -0.000005680               1.000000000              -0.000000105              -0.000005866               1.000000000              -0.000000051              -0.000006071               1.000000000              -0.000000044              -0.000006403               1.000000000              -0.000000142              -0.000006902               1.000000000              -0.000000419              -0.000007636               1.000000000              -0.000000985              -0.000008625               1.000000000              -0.000001902              -0.000009856               1.000000000              -0.000003230              -0.000011307               1.000000000               0.000001697              -0.000007173               1.000000000               0.000000495              -0.000006598               1.000000000               0.000000122              -0.000006610               1.000000000               0.000000055              -0.000007152               1.000000000               0.000000060              -0.000008144               1.000000000              -0.000000029              -0.000009324               1.000000000              -0.000000135              -0.000010248               1.000000000              -0.000000187              -0.000010830               1.000000000              -0.000000220              -0.000011475               1.000000000              -0.000000259              -0.000012051               1.000000000              -0.000000421              -0.000012685               1.000000000              -0.000000798              -0.000013567               1.000000000              -0.000001406              -0.000014764               1.000000000              -0.000002287              -0.000016374               1.000000000              -0.000003502              -0.000018446               1.000000000              -0.000005093              -0.000021000               1.000000000              -0.000007098              -0.000024041               1.000000000               0.000001515              -0.000010706               1.000000000               0.000000493              -0.000009798               1.000000000               0.000000260              -0.000009858               1.000000000               0.000000194              -0.000010735               1.000000000               0.000000049              -0.000012211               1.000000000              -0.000000138              -0.000013934               1.000000000              -0.000000254              -0.000015331               1.000000000              -0.000000283              -0.000016391               1.000000000              -0.000000390              -0.000017623               1.000000000              -0.000000723              -0.000018873               1.000000000              -0.000001342              -0.000020365               1.000000000              -0.000002340              -0.000022210               1.000000000              -0.000003744              -0.000024500               1.000000000              -0.000005525              -0.000027338               1.000000000              -0.000007727              -0.000030785               1.000000000              -0.000010351              -0.000034897               1.000000000              -0.000013377              -0.000039729               1.000000000               0.000001250              -0.000014156               1.000000000               0.000000596              -0.000012916               1.000000000               0.000000522              -0.000013068               1.000000000               0.000000369              -0.000014400               1.000000000               0.000000083              -0.000016380               1.000000000              -0.000000206              -0.000018706               1.000000000              -0.000000497              -0.000020597               1.000000000              -0.000000783              -0.000022390               1.000000000              -0.000001244              -0.000024456               1.000000000              -0.000002002              -0.000026818               1.000000000              -0.000003173              -0.000029595               1.000000000              -0.000004876              -0.000032930               1.000000000              -0.000007073              -0.000036869               1.000000000              -0.000009748              -0.000041472               1.000000000              -0.000012935              -0.000046775               1.000000000              -0.000016595              -0.000052823               1.000000000              -0.000020677              -0.000059644               1.000000000               0.000001087              -0.000017600               1.000000000               0.000000855              -0.000015987               1.000000000               0.000000846              -0.000016314               1.000000000               0.000000611              -0.000018153               1.000000000               0.000000120              -0.000020829               1.000000000              -0.000000473              -0.000023787               1.000000000              -0.000000961              -0.000026549               1.000000000              -0.000001463              -0.000029392               1.000000000              -0.000002311              -0.000032722               1.000000000              -0.000003629              -0.000036611               1.000000000              -0.000005517              -0.000041070               1.000000000              -0.000007998              -0.000046288               1.000000000              -0.000011016              -0.000052253               1.000000000              -0.000014563              -0.000059000               1.000000000              -0.000018648              -0.000066537               1.000000000              -0.000023231              -0.000074838               1.000000000              -0.000028252              -0.000083892               1.000000000               0.000000938              -0.000020995               1.000000000               0.000001205              -0.000018983               1.000000000               0.000001284              -0.000019678               1.000000000               0.000000785              -0.000022103               1.000000000               0.000000019              -0.000025595               1.000000000              -0.000000688              -0.000029610               1.000000000              -0.000001355              -0.000033594               1.000000000              -0.000002203              -0.000037805               1.000000000              -0.000003560              -0.000042827               1.000000000              -0.000005521              -0.000048515               1.000000000              -0.000008149              -0.000055004               1.000000000              -0.000011422              -0.000062334               1.000000000              -0.000015228              -0.000070571               1.000000000              -0.000019595              -0.000079665               1.000000000              -0.000024531              -0.000089586               1.000000000              -0.000029948              -0.000100303               1.000000000              -0.000035812              -0.000111748               1.000000000               0.000000839              -0.000024294               1.000000000               0.000001666              -0.000021975               1.000000000               0.000001647              -0.000023133               1.000000000               0.000000915              -0.000026420               1.000000000              -0.000000052              -0.000030971               1.000000000              -0.000001044              -0.000036221               1.000000000              -0.000002007              -0.000041579               1.000000000              -0.000003236              -0.000047518               1.000000000              -0.000005086              -0.000054496               1.000000000              -0.000007663              -0.000062242               1.000000000              -0.000010944              -0.000070935               1.000000000              -0.000014844              -0.000080695               1.000000000              -0.000019333              -0.000091414               1.000000000              -0.000024454              -0.000103122               1.000000000              -0.000030125              -0.000115732               1.000000000              -0.000036311              -0.000129189               1.000000000              -0.000042968              -0.000143436               1.000000000               0.000000777              -0.000027396               1.000000000               0.000002135              -0.000025020               1.000000000               0.000001929              -0.000026776               1.000000000               0.000000909              -0.000031020               1.000000000              -0.000000382              -0.000036846               1.000000000              -0.000001624              -0.000043446               1.000000000              -0.000002714              -0.000050464               1.000000000              -0.000004260              -0.000058374               1.000000000              -0.000006645              -0.000067404               1.000000000              -0.000009802              -0.000077448               1.000000000              -0.000013594              -0.000088639               1.000000000              -0.000018009              -0.000101118               1.000000000              -0.000023096              -0.000114754               1.000000000              -0.000028803              -0.000129509               1.000000000              -0.000035046              -0.000145407               1.000000000              -0.000041821              -0.000162244               1.000000000              -0.000048930              -0.000179754               1.000000000               0.000000677              -0.000030472               1.000000000               0.000002418              -0.000028238               1.000000000               0.000002349              -0.000029681               1.000000000               0.000001363              -0.000033521               1.000000000               0.000000042              -0.000039099               1.000000000              -0.000001247              -0.000045675               1.000000000              -0.000002266              -0.000052773               1.000000000              -0.000003272              -0.000060524               1.000000000              -0.000004926              -0.000069207               1.000000000              -0.000007210              -0.000078798               1.000000000              -0.000009982              -0.000089328               1.000000000              -0.000013320              -0.000100891               1.000000000              -0.000017141              -0.000113597               1.000000000              -0.000021441              -0.000127312               1.000000000              -0.000026223              -0.000142080               1.000000000              -0.000031448              -0.000157890               1.000000000              -0.000037111              -0.000174732               1.000000000               0.000000615              -0.000033460               1.000000000               0.000002570              -0.000031486               1.000000000               0.000002576              -0.000032665               1.000000000               0.000001779              -0.000036188               1.000000000               0.000000596              -0.000041447               1.000000000              -0.000000675              -0.000047810               1.000000000              -0.000001668              -0.000054887               1.000000000              -0.000002442              -0.000062604               1.000000000              -0.000003503              -0.000071098               1.000000000              -0.000005079              -0.000080417               1.000000000              -0.000007033              -0.000090521               1.000000000              -0.000009438              -0.000101440               1.000000000              -0.000012180              -0.000113306               1.000000000              -0.000015245              -0.000126142               1.000000000              -0.000018674              -0.000139883               1.000000000              -0.000022450              -0.000154565               1.000000000              -0.000026635              -0.000170208               1.000000000               0.000000507              -0.000036176               1.000000000               0.000002499              -0.000034597               1.000000000               0.000002677              -0.000035713               1.000000000               0.000002126              -0.000038954               1.000000000               0.000001106              -0.000043780               1.000000000              -0.000000047              -0.000049823               1.000000000              -0.000001049              -0.000056768               1.000000000              -0.000001767              -0.000064486               1.000000000              -0.000002466              -0.000072910               1.000000000              -0.000003431              -0.000082120               1.000000000              -0.000004712              -0.000092017               1.000000000              -0.000006271              -0.000102571               1.000000000              -0.000008123              -0.000113841               1.000000000              -0.000010172              -0.000125946               1.000000000              -0.000012432              -0.000138894               1.000000000              -0.000014908              -0.000152628               1.000000000              -0.000017641              -0.000167156               1.000000000               0.000000379              -0.000038547               1.000000000               0.000002268              -0.000037506               1.000000000               0.000002602              -0.000038640               1.000000000               0.000002206              -0.000041572               1.000000000               0.000001433              -0.000046009               1.000000000               0.000000481              -0.000051755               1.000000000              -0.000000437              -0.000058590               1.000000000              -0.000001146              -0.000066243               1.000000000              -0.000001651              -0.000074617               1.000000000              -0.000002210              -0.000083684               1.000000000              -0.000002960              -0.000093466               1.000000000              -0.000003860              -0.000103831               1.000000000              -0.000004971              -0.000114810               1.000000000              -0.000006245              -0.000126466               1.000000000              -0.000007585              -0.000138840               1.000000000              -0.000009020              -0.000151964               1.000000000              -0.000010520              -0.000165818               1.000000000               0.000000271              -0.000040485               1.000000000               0.000001874              -0.000040012               1.000000000               0.000002240              -0.000041181               1.000000000               0.000002041              -0.000043940               1.000000000               0.000001532              -0.000048139               1.000000000               0.000000771              -0.000053595               1.000000000              -0.000000012              -0.000060189               1.000000000              -0.000000647              -0.000067675               1.000000000              -0.000001019              -0.000075954               1.000000000              -0.000001315              -0.000084955               1.000000000              -0.000001716              -0.000094657               1.000000000              -0.000002183              -0.000104985               1.000000000              -0.000002748              -0.000115876               1.000000000              -0.000003416              -0.000127283               1.000000000              -0.000004129              -0.000139322               1.000000000              -0.000004844              -0.000152032               1.000000000              -0.000005494              -0.000165419               1.000000000               0.000000168              -0.000041905               1.000000000               0.000001329              -0.000041895               1.000000000               0.000001661              -0.000043185               1.000000000               0.000001598              -0.000045883               1.000000000               0.000001260              -0.000049879               1.000000000               0.000000746              -0.000055133               1.000000000               0.000000209              -0.000061483               1.000000000              -0.000000257              -0.000068782               1.000000000              -0.000000559              -0.000076946               1.000000000              -0.000000723              -0.000085887               1.000000000              -0.000000890              -0.000095532               1.000000000              -0.000001086              -0.000105806               1.000000000              -0.000001312              -0.000116646               1.000000000              -0.000001595              -0.000127924               1.000000000              -0.000001932              -0.000139794               1.000000000              -0.000002263              -0.000152238               1.000000000              -0.000002543              -0.000165245               1.000000000               0.000000075              -0.000042800               1.000000000               0.000000696              -0.000043097               1.000000000               0.000000905              -0.000044469               1.000000000               0.000000861              -0.000047142               1.000000000               0.000000702              -0.000051030               1.000000000               0.000000472              -0.000056125               1.000000000               0.000000176              -0.000062298               1.000000000              -0.000000077              -0.000069497               1.000000000              -0.000000234              -0.000077604               1.000000000              -0.000000306              -0.000086455               1.000000000              -0.000000359              -0.000096019               1.000000000              -0.000000418              -0.000106225               1.000000000              -0.000000486              -0.000116980               1.000000000              -0.000000585              -0.000128190               1.000000000              -0.000000714              -0.000139930               1.000000000              -0.000000846              -0.000152170               1.000000000              -0.000000999              -0.000164949               1.000000000              -0.000000000              -0.000043110               1.000000000              -0.000000000              -0.000043516               1.000000000              -0.000000000              -0.000044902               1.000000000               0.000000000              -0.000047568               1.000000000               0.000000000              -0.000051433               1.000000000              -0.000000000              -0.000056478               1.000000000               0.000000000              -0.000062600               1.000000000               0.000000000              -0.000069741               1.000000000              -0.000000000              -0.000077788               1.000000000              -0.000000000              -0.000086614               1.000000000              -0.000000000              -0.000096176               1.000000000              -0.000000000              -0.000106351               1.000000000              -0.000000000              -0.000117053               1.000000000              -0.000000000              -0.000128228               1.000000000               0.000000000              -0.000139901               1.000000000               0.000000000              -0.000152055               1.000000000              -0.000000000              -0.000164757               1.000000000              -0.000001904               0.000000000               1.000000000              -0.000000516               0.000000000               1.000000000              -0.000000055               0.000000000               1.000000000              -0.000000024               0.000000000               1.000000000              -0.000000063               0.000000000               1.000000000              -0.000000050               0.000000000               1.000000000               0.000000068               0.000000000               1.000000000               0.000000179              -0.000000000               1.000000000               0.000000172               0.000000000               1.000000000               0.000000056               0.000000000               1.000000000              -0.000000119               0.000000000               1.000000000              -0.000000302               0.000000000               1.000000000              -0.000000417              -0.000000000               1.000000000              -0.000000344              -0.000000000               1.000000000               0.000000007              -0.000000000               1.000000000               0.000000708              -0.000000000               1.000000000               0.000001827              -0.000000000               1.000000000              -0.000001800              -0.000003578               1.000000000              -0.000000481              -0.000003323               1.000000000              -0.000000080              -0.000003298               1.000000000              -0.000000040              -0.000003595               1.000000000              -0.000000048              -0.000004052               1.000000000               0.000000015              -0.000004686               1.000000000               0.000000078              -0.000005171               1.000000000               0.000000092              -0.000005419               1.000000000               0.000000113              -0.000005680               1.000000000               0.000000105              -0.000005866               1.000000000               0.000000051              -0.000006071               1.000000000               0.000000044              -0.000006403               1.000000000               0.000000142              -0.000006902               1.000000000               0.000000419              -0.000007636               1.000000000               0.000000985              -0.000008625               1.000000000               0.000001902              -0.000009856               1.000000000               0.000003230              -0.000011307               1.000000000              -0.000001697              -0.000007173               1.000000000              -0.000000495              -0.000006598               1.000000000              -0.000000122              -0.000006610               1.000000000              -0.000000055              -0.000007152               1.000000000              -0.000000060              -0.000008144               1.000000000               0.000000029              -0.000009324               1.000000000               0.000000135              -0.000010248               1.000000000               0.000000187              -0.000010830               1.000000000               0.000000220              -0.000011475               1.000000000               0.000000259              -0.000012051               1.000000000               0.000000421              -0.000012685               1.000000000               0.000000798              -0.000013567               1.000000000               0.000001406              -0.000014764               1.000000000               0.000002287              -0.000016374               1.000000000               0.000003502              -0.000018446               1.000000000               0.000005093              -0.000021000               1.000000000               0.000007098              -0.000024041               1.000000000              -0.000001515              -0.000010706               1.000000000              -0.000000493              -0.000009798               1.000000000              -0.000000260              -0.000009858               1.000000000              -0.000000194              -0.000010735               1.000000000              -0.000000049              -0.000012211               1.000000000               0.000000138              -0.000013934               1.000000000               0.000000254              -0.000015331               1.000000000               0.000000283              -0.000016391               1.000000000               0.000000390              -0.000017623               1.000000000               0.000000723              -0.000018873               1.000000000               0.000001342              -0.000020365               1.000000000               0.000002340              -0.000022210               1.000000000               0.000003744              -0.000024500               1.000000000               0.000005525              -0.000027338               1.000000000               0.000007727              -0.000030785               1.000000000               0.000010351              -0.000034897               1.000000000               0.000013377              -0.000039729               1.000000000              -0.000001250              -0.000014156               1.000000000              -0.000000596              -0.000012916               1.000000000              -0.000000522              -0.000013068               1.000000000              -0.000000369              -0.000014400               1.000000000              -0.000000083              -0.000016380               1.000000000               0.000000206              -0.000018706               1.000000000               0.000000497              -0.000020597               1.000000000               0.000000783              -0.000022390               1.000000000               0.000001244              -0.000024456               1.000000000               0.000002002              -0.000026818               1.000000000               0.000003173              -0.000029595               1.000000000               0.000004876              -0.000032930               1.000000000               0.000007073              -0.000036869               1.000000000               0.000009748              -0.000041472               1.000000000               0.000012935              -0.000046775               1.000000000               0.000016595              -0.000052823               1.000000000               0.000020677              -0.000059644               1.000000000              -0.000001087              -0.000017600               1.000000000              -0.000000855              -0.000015987               1.000000000              -0.000000846              -0.000016314               1.000000000              -0.000000611              -0.000018153               1.000000000              -0.000000120              -0.000020829               1.000000000               0.000000473              -0.000023787               1.000000000               0.000000961              -0.000026549               1.000000000               0.000001463              -0.000029392               1.000000000               0.000002311              -0.000032722               1.000000000               0.000003629              -0.000036611               1.000000000               0.000005517              -0.000041070               1.000000000               0.000007998              -0.000046288               1.000000000               0.000011016              -0.000052253               1.000000000               0.000014563              -0.000059000               1.000000000               0.000018648              -0.000066537               1.000000000               0.000023231              -0.000074838               1.000000000               0.000028252              -0.000083892               1.000000000              -0.000000938              -0.000020995               1.000000000              -0.000001205              -0.000018983               1.000000000              -0.000001284              -0.000019678               1.000000000              -0.000000785              -0.000022103               1.000000000              -0.000000019              -0.000025595               1.000000000               0.000000688              -0.000029610               1.000000000               0.000001355              -0.000033594               1.000000000               0.000002203              -0.000037805               1.000000000               0.000003560              -0.000042827               1.000000000               0.000005521              -0.000048515               1.000000000               0.000008149              -0.000055004               1.000000000               0.000011422              -0.000062334               1.000000000               0.000015228              -0.000070571               1.000000000               0.000019595              -0.000079665               1.000000000               0.000024531              -0.000089586               1.000000000               0.000029948              -0.000100303               1.000000000               0.000035812              -0.000111748               1.000000000              -0.000000839              -0.000024294               1.000000000              -0.000001666              -0.000021975               1.000000000              -0.000001647              -0.000023133               1.000000000              -0.000000915              -0.000026420               1.000000000               0.000000052              -0.000030971               1.000000000               0.000001044              -0.000036221               1.000000000               0.000002007              -0.000041579               1.000000000               0.000003236              -0.000047518               1.000000000               0.000005086              -0.000054496               1.000000000               0.000007663              -0.000062242               1.000000000               0.000010944              -0.000070935               1.000000000               0.000014844              -0.000080695               1.000000000               0.000019333              -0.000091414               1.000000000               0.000024454              -0.000103122               1.000000000               0.000030125              -0.000115732               1.000000000               0.000036311              -0.000129189               1.000000000               0.000042968              -0.000143436               1.000000000              -0.000000777              -0.000027396               1.000000000              -0.000002135              -0.000025020               1.000000000              -0.000001929              -0.000026776               1.000000000              -0.000000909              -0.000031020               1.000000000               0.000000382              -0.000036846               1.000000000               0.000001624              -0.000043446               1.000000000               0.000002714              -0.000050464               1.000000000               0.000004260              -0.000058374               1.000000000               0.000006645              -0.000067404               1.000000000               0.000009802              -0.000077448               1.000000000               0.000013594              -0.000088639               1.000000000               0.000018009              -0.000101118               1.000000000               0.000023096              -0.000114754               1.000000000               0.000028803              -0.000129509               1.000000000               0.000035046              -0.000145407               1.000000000               0.000041821              -0.000162244               1.000000000               0.000048930              -0.000179754               1.000000000              -0.000000677              -0.000030472               1.000000000              -0.000002418              -0.000028238               1.000000000              -0.000002349              -0.000029681               1.000000000              -0.000001363              -0.000033521               1.000000000              -0.000000042              -0.000039099               1.000000000               0.000001247              -0.000045675               1.000000000               0.000002266              -0.000052773               1.000000000               0.000003272              -0.000060524               1.000000000               0.000004926              -0.000069207               1.000000000               0.000007210              -0.000078798               1.000000000               0.000009982              -0.000089328               1.000000000               0.000013320              -0.000100891               1.000000000               0.000017141              -0.000113597               1.000000000               0.000021441              -0.000127312               1.000000000               0.000026223              -0.000142080               1.000000000               0.000031448              -0.000157890               1.000000000               0.000037111              -0.000174732               1.000000000              -0.000000615              -0.000033460               1.000000000              -0.000002570              -0.000031486               1.000000000              -0.000002576              -0.000032665               1.000000000              -0.000001779              -0.000036188               1.000000000              -0.000000596              -0.000041447               1.000000000               0.000000675              -0.000047810               1.000000000               0.000001668              -0.000054887               1.000000000               0.000002442              -0.000062604               1.000000000               0.000003503              -0.000071098               1.000000000               0.000005079              -0.000080417               1.000000000               0.000007033              -0.000090521               1.000000000               0.000009438              -0.000101440               1.000000000               0.000012180              -0.000113306               1.000000000               0.000015245              -0.000126142               1.000000000               0.000018674              -0.000139883               1.000000000               0.000022450              -0.000154565               1.000000000               0.000026635              -0.000170208               1.000000000              -0.000000507              -0.000036176               1.000000000              -0.000002499              -0.000034597               1.000000000              -0.000002677              -0.000035713               1.000000000              -0.000002126              -0.000038954               1.000000000              -0.000001106              -0.000043780               1.000000000               0.000000047              -0.000049823               1.000000000               0.000001049              -0.000056768               1.000000000               0.000001767              -0.000064486               1.000000000               0.000002466              -0.000072910               1.000000000               0.000003431              -0.000082120               1.000000000               0.000004712              -0.000092017               1.000000000               0.000006271              -0.000102571               1.000000000               0.000008123              -0.000113841               1.000000000               0.000010172              -0.000125946               1.000000000               0.000012432              -0.000138894               1.000000000               0.000014908              -0.000152628               1.000000000               0.000017641              -0.000167156               1.000000000              -0.000000379              -0.000038547               1.000000000              -0.000002268              -0.000037506               1.000000000              -0.000002602              -0.000038640               1.000000000              -0.000002206              -0.000041572               1.000000000              -0.000001433              -0.000046009               1.000000000              -0.000000481              -0.000051755               1.000000000               0.000000437              -0.000058590               1.000000000               0.000001146              -0.000066243               1.000000000               0.000001651              -0.000074617               1.000000000               0.000002210              -0.000083684               1.000000000               0.000002960              -0.000093466               1.000000000               0.000003860              -0.000103831               1.000000000               0.000004971              -0.000114810               1.000000000               0.000006245              -0.000126466               1.000000000               0.000007585              -0.000138840               1.000000000               0.000009020              -0.000151964               1.000000000               0.000010520              -0.000165818               1.000000000              -0.000000271              -0.000040485               1.000000000              -0.000001874              -0.000040012               1.000000000              -0.000002240              -0.000041181               1.000000000              -0.000002041              -0.000043940               1.000000000              -0.000001532              -0.000048139               1.000000000              -0.000000771              -0.000053595               1.000000000               0.000000012              -0.000060189               1.000000000               0.000000647              -0.000067675               1.000000000               0.000001019              -0.000075954               1.000000000               0.000001315              -0.000084955               1.000000000               0.000001716              -0.000094657               1.000000000               0.000002183              -0.000104985               1.000000000               0.000002748              -0.000115876               1.000000000               0.000003416              -0.000127283               1.000000000               0.000004129              -0.000139322               1.000000000               0.000004844              -0.000152032               1.000000000               0.000005494              -0.000165419               1.000000000              -0.000000168              -0.000041905               1.000000000              -0.000001329              -0.000041895               1.000000000              -0.000001661              -0.000043185               1.000000000              -0.000001598              -0.000045883               1.000000000              -0.000001260              -0.000049879               1.000000000              -0.000000746              -0.000055133               1.000000000              -0.000000209              -0.000061483               1.000000000               0.000000257              -0.000068782               1.000000000               0.000000559              -0.000076946               1.000000000               0.000000723              -0.000085887               1.000000000               0.000000890              -0.000095532               1.000000000               0.000001086              -0.000105806               1.000000000               0.000001312              -0.000116646               1.000000000               0.000001595              -0.000127924               1.000000000               0.000001932              -0.000139794               1.000000000               0.000002263              -0.000152238               1.000000000               0.000002543              -0.000165245               1.000000000              -0.000000075              -0.000042800               1.000000000              -0.000000696              -0.000043097               1.000000000              -0.000000905              -0.000044469               1.000000000              -0.000000861              -0.000047142               1.000000000              -0.000000702              -0.000051030               1.000000000              -0.000000472              -0.000056125               1.000000000              -0.000000176              -0.000062298               1.000000000               0.000000077              -0.000069497               1.000000000               0.000000234              -0.000077604               1.000000000               0.000000306              -0.000086455               1.000000000               0.000000359              -0.000096019               1.000000000               0.000000418              -0.000106225               1.000000000               0.000000486              -0.000116980               1.000000000               0.000000585              -0.000128190               1.000000000               0.000000714              -0.000139930               1.000000000               0.000000846              -0.000152170               1.000000000               0.000000999              -0.000164949               1.000000000              -0.000000000              -0.000043110               1.000000000              -0.000000000              -0.000043516               1.000000000              -0.000000000              -0.000044902               1.000000000               0.000000000              -0.000047568               1.000000000               0.000000000              -0.000051433               1.000000000              -0.000000000              -0.000056478               1.000000000               0.000000000              -0.000062600               1.000000000               0.000000000              -0.000069741               1.000000000              -0.000000000              -0.000077788               1.000000000              -0.000000000              -0.000086614               1.000000000              -0.000000000              -0.000096176               1.000000000              -0.000000000              -0.000106351               1.000000000              -0.000000000              -0.000117053               1.000000000              -0.000000000              -0.000128228               1.000000000               0.000000000              -0.000139901               1.000000000               0.000000000              -0.000152055               1.000000000              -0.000000000              -0.000164757               1.000000000              -0.000001904               0.000000000               1.000000000              -0.000000516               0.000000000               1.000000000              -0.000000055               0.000000000               1.000000000              -0.000000024               0.000000000               1.000000000              -0.000000063               0.000000000               1.000000000              -0.000000050               0.000000000               1.000000000               0.000000068               0.000000000               1.000000000               0.000000179              -0.000000000               1.000000000               0.000000172               0.000000000               1.000000000               0.000000056               0.000000000               1.000000000              -0.000000119               0.000000000               1.000000000              -0.000000302               0.000000000               1.000000000              -0.000000417              -0.000000000               1.000000000              -0.000000344              -0.000000000               1.000000000               0.000000007              -0.000000000               1.000000000               0.000000708              -0.000000000               1.000000000               0.000001827              -0.000000000               1.000000000              -0.000001800               0.000003578               1.000000000              -0.000000481               0.000003323               1.000000000              -0.000000080               0.000003298               1.000000000              -0.000000040               0.000003595               1.000000000              -0.000000048               0.000004052               1.000000000               0.000000015               0.000004686               1.000000000               0.000000078               0.000005171               1.000000000               0.000000092               0.000005419               1.000000000               0.000000113               0.000005680               1.000000000               0.000000105               0.000005866               1.000000000               0.000000051               0.000006071               1.000000000               0.000000044               0.000006403               1.000000000               0.000000142               0.000006902               1.000000000               0.000000419               0.000007636               1.000000000               0.000000985               0.000008625               1.000000000               0.000001902               0.000009856               1.000000000               0.000003230               0.000011307               1.000000000              -0.000001697               0.000007173               1.000000000              -0.000000495               0.000006598               1.000000000              -0.000000122               0.000006610               1.000000000              -0.000000055               0.000007152               1.000000000              -0.000000060               0.000008144               1.000000000               0.000000029               0.000009324               1.000000000               0.000000135               0.000010248               1.000000000               0.000000187               0.000010830               1.000000000               0.000000220               0.000011475               1.000000000               0.000000259               0.000012051               1.000000000               0.000000421               0.000012685               1.000000000               0.000000798               0.000013567               1.000000000               0.000001406               0.000014764               1.000000000               0.000002287               0.000016374               1.000000000               0.000003502               0.000018446               1.000000000               0.000005093               0.000021000               1.000000000               0.000007098               0.000024041               1.000000000              -0.000001515               0.000010706               1.000000000              -0.000000493               0.000009798               1.000000000              -0.000000260               0.000009858               1.000000000              -0.000000194               0.000010735               1.000000000              -0.000000049               0.000012211               1.000000000               0.000000138               0.000013934               1.000000000               0.000000254               0.000015331               1.000000000               0.000000283               0.000016391               1.000000000               0.000000390               0.000017623               1.000000000               0.000000723               0.000018873               1.000000000               0.000001342               0.000020365               1.000000000               0.000002340               0.000022210               1.000000000               0.000003744               0.000024500               1.000000000               0.000005525               0.000027338               1.000000000               0.000007727               0.000030785               1.000000000               0.000010351               0.000034897               1.000000000               0.000013377               0.000039729               1.000000000              -0.000001250               0.000014156               1.000000000              -0.000000596               0.000012916               1.000000000              -0.000000522               0.000013068               1.000000000              -0.000000369               0.000014400               1.000000000              -0.000000083               0.000016380               1.000000000               0.000000206               0.000018706               1.000000000               0.000000497               0.000020597               1.000000000               0.000000783               0.000022390               1.000000000               0.000001244               0.000024456               1.000000000               0.000002002               0.000026818               1.000000000               0.000003173               0.000029595               1.000000000               0.000004876               0.000032930               1.000000000               0.000007073               0.000036869               1.000000000               0.000009748               0.000041472               1.000000000               0.000012935               0.000046775               1.000000000               0.000016595               0.000052823               1.000000000               0.000020677               0.000059644               1.000000000              -0.000001087               0.000017600               1.000000000              -0.000000855               0.000015987               1.000000000              -0.000000846               0.000016314               1.000000000              -0.000000611               0.000018153               1.000000000              -0.000000120               0.000020829               1.000000000               0.000000473               0.000023787               1.000000000               0.000000961               0.000026549               1.000000000               0.000001463               0.000029392               1.000000000               0.000002311               0.000032722               1.000000000               0.000003629               0.000036611               1.000000000               0.000005517               0.000041070               1.000000000               0.000007998               0.000046288               1.000000000               0.000011016               0.000052253               1.000000000               0.000014563               0.000059000               1.000000000               0.000018648               0.000066537               1.000000000               0.000023231               0.000074838               1.000000000               0.000028252               0.000083892               1.000000000              -0.000000938               0.000020995               1.000000000              -0.000001205               0.000018983               1.000000000              -0.000001284               0.000019678               1.000000000              -0.000000785               0.000022103               1.000000000              -0.000000019               0.000025595               1.000000000               0.000000688               0.000029610               1.000000000               0.000001355               0.000033594               1.000000000               0.000002203               0.000037805               1.000000000               0.000003560               0.000042827               1.000000000               0.000005521               0.000048515               1.000000000               0.000008149               0.000055004               1.000000000               0.000011422               0.000062334               1.000000000               0.000015228               0.000070571               1.000000000               0.000019595               0.000079665               1.000000000               0.000024531               0.000089586               1.000000000               0.000029948               0.000100303               1.000000000               0.000035812               0.000111748               1.000000000              -0.000000839               0.000024294               1.000000000              -0.000001666               0.000021975               1.000000000              -0.000001647               0.000023133               1.000000000              -0.000000915               0.000026420               1.000000000               0.000000052               0.000030971               1.000000000               0.000001044               0.000036221               1.000000000               0.000002007               0.000041579               1.000000000               0.000003236               0.000047518               1.000000000               0.000005086               0.000054496               1.000000000               0.000007663               0.000062242               1.000000000               0.000010944               0.000070935               1.000000000               0.000014844               0.000080695               1.000000000               0.000019333               0.000091414               1.000000000               0.000024454               0.000103122               1.000000000               0.000030125               0.000115732               1.000000000               0.000036311               0.000129189               1.000000000               0.000042968               0.000143436               1.000000000              -0.000000777               0.000027396               1.000000000              -0.000002135               0.000025020               1.000000000              -0.000001929               0.000026776               1.000000000              -0.000000909               0.000031020               1.000000000               0.000000382               0.000036846               1.000000000               0.000001624               0.000043446               1.000000000               0.000002714               0.000050464               1.000000000               0.000004260               0.000058374               1.000000000               0.000006645               0.000067404               1.000000000               0.000009802               0.000077448               1.000000000               0.000013594               0.000088639               1.000000000               0.000018009               0.000101118               1.000000000               0.000023096               0.000114754               1.000000000               0.000028803               0.000129509               1.000000000               0.000035046               0.000145407               1.000000000               0.000041821               0.000162244               1.000000000               0.000048930               0.000179754               1.000000000              -0.000000677               0.000030472               1.000000000              -0.000002418               0.000028238               1.000000000              -0.000002349               0.000029681               1.000000000              -0.000001363               0.000033521               1.000000000              -0.000000042               0.000039099               1.000000000               0.000001247               0.000045675               1.000000000               0.000002266               0.000052773               1.000000000               0.000003272               0.000060524               1.000000000               0.000004926               0.000069207               1.000000000               0.000007210               0.000078798               1.000000000               0.000009982               0.000089328               1.000000000               0.000013320               0.000100891               1.000000000               0.000017141               0.000113597               1.000000000               0.000021441               0.000127312               1.000000000               0.000026223               0.000142080               1.000000000               0.000031448               0.000157890               1.000000000               0.000037111               0.000174732               1.000000000              -0.000000615               0.000033460               1.000000000              -0.000002570               0.000031486               1.000000000              -0.000002576               0.000032665               1.000000000              -0.000001779               0.000036188               1.000000000              -0.000000596               0.000041447               1.000000000               0.000000675               0.000047810               1.000000000               0.000001668               0.000054887               1.000000000               0.000002442               0.000062604               1.000000000               0.000003503               0.000071098               1.000000000               0.000005079               0.000080417               1.000000000               0.000007033               0.000090521               1.000000000               0.000009438               0.000101440               1.000000000               0.000012180               0.000113306               1.000000000               0.000015245               0.000126142               1.000000000               0.000018674               0.000139883               1.000000000               0.000022450               0.000154565               1.000000000               0.000026635               0.000170208               1.000000000              -0.000000507               0.000036176               1.000000000              -0.000002499               0.000034597               1.000000000              -0.000002677               0.000035713               1.000000000              -0.000002126               0.000038954               1.000000000              -0.000001106               0.000043780               1.000000000               0.000000047               0.000049823               1.000000000               0.000001049               0.000056768               1.000000000               0.000001767               0.000064486               1.000000000               0.000002466               0.000072910               1.000000000               0.000003431               0.000082120               1.000000000               0.000004712               0.000092017               1.000000000               0.000006271               0.000102571               1.000000000               0.000008123               0.000113841               1.000000000               0.000010172               0.000125946               1.000000000               0.000012432               0.000138894               1.000000000               0.000014908               0.000152628               1.000000000               0.000017641               0.000167156               1.000000000              -0.000000379               0.000038547               1.000000000              -0.000002268               0.000037506               1.000000000              -0.000002602               0.000038640               1.000000000              -0.000002206               0.000041572               1.000000000              -0.000001433               0.000046009               1.000000000              -0.000000481               0.000051755               1.000000000               0.000000437               0.000058590               1.000000000               0.000001146               0.000066243               1.000000000               0.000001651               0.000074617               1.000000000               0.000002210               0.000083684               1.000000000               0.000002960               0.000093466               1.000000000               0.000003860               0.000103831               1.000000000               0.000004971               0.000114810               1.000000000               0.000006245               0.000126466               1.000000000               0.000007585               0.000138840               1.000000000               0.000009020               0.000151964               1.000000000               0.000010520               0.000165818               1.000000000              -0.000000271               0.000040485               1.000000000              -0.000001874               0.000040012               1.000000000              -0.000002240               0.000041181               1.000000000              -0.000002041               0.000043940               1.000000000              -0.000001532               0.000048139               1.000000000              -0.000000771               0.000053595               1.000000000               0.000000012               0.000060189               1.000000000               0.000000647               0.000067675               1.000000000               0.000001019               0.000075954               1.000000000               0.000001315               0.000084955               1.000000000               0.000001716               0.000094657               1.000000000               0.000002183               0.000104985               1.000000000               0.000002748               0.000115876               1.000000000               0.000003416               0.000127283               1.000000000               0.000004129               0.000139322               1.000000000               0.000004844               0.000152032               1.000000000               0.000005494               0.000165419               1.000000000              -0.000000168               0.000041905               1.000000000              -0.000001329               0.000041895               1.000000000              -0.000001661               0.000043185               1.000000000              -0.000001598               0.000045883               1.000000000              -0.000001260               0.000049879               1.000000000              -0.000000746               0.000055133               1.000000000              -0.000000209               0.000061483               1.000000000               0.000000257               0.000068782               1.000000000               0.000000559               0.000076946               1.000000000               0.000000723               0.000085887               1.000000000               0.000000890               0.000095532               1.000000000               0.000001086               0.000105806               1.000000000               0.000001312               0.000116646               1.000000000               0.000001595               0.000127924               1.000000000               0.000001932               0.000139794               1.000000000               0.000002263               0.000152238               1.000000000               0.000002543               0.000165245               1.000000000              -0.000000075               0.000042800               1.000000000              -0.000000696               0.000043097               1.000000000              -0.000000905               0.000044469               1.000000000              -0.000000861               0.000047142               1.000000000              -0.000000702               0.000051030               1.000000000              -0.000000472               0.000056125               1.000000000              -0.000000176               0.000062298               1.000000000               0.000000077               0.000069497               1.000000000               0.000000234               0.000077604               1.000000000               0.000000306               0.000086455               1.000000000               0.000000359               0.000096019               1.000000000               0.000000418               0.000106225               1.000000000               0.000000486               0.000116980               1.000000000               0.000000585               0.000128190               1.000000000               0.000000714               0.000139930               1.000000000               0.000000846               0.000152170               1.000000000               0.000000999               0.000164949               1.000000000              -0.000000000               0.000043110               1.000000000              -0.000000000               0.000043516               1.000000000               0.000000000               0.000044902               1.000000000               0.000000000               0.000047568               1.000000000               0.000000000               0.000051433               1.000000000              -0.000000000               0.000056478               1.000000000               0.000000000               0.000062600               1.000000000              -0.000000000               0.000069741               1.000000000              -0.000000000               0.000077788               1.000000000              -0.000000000               0.000086614               1.000000000              -0.000000000               0.000096176               1.000000000              -0.000000000               0.000106351               1.000000000              -0.000000000               0.000117053               1.000000000              -0.000000000               0.000128228               1.000000000               0.000000000               0.000139901               1.000000000               0.000000000               0.000152055               1.000000000              -0.000000000               0.000164757               1.000000000 </DataArray>
<DataArray type="Float64"                                    Name="stress"                                                      NumberOfComponents="10" format="ascii">
              0.000070276               0.000683776              -0.000000000              -0.000059118               0.000247629               0.000188511               0.000000000               0.000000000               0.000000000               0.000000000               0.000094284               0.000586067              -0.000000000              -0.000037902               0.000207988               0.000170086               0.000000000               0.000000000               0.000000000               0.000000000               0.000144577               0.000512809              -0.000000000              -0.000009885               0.000174230               0.000164345               0.000000000               0.000000000               0.000000000               0.000000000               0.000162080               0.000486786               0.000000000              -0.000000068               0.000162283               0.000162215               0.000000000               0.000000000               0.000000000               0.000000000               0.000160577               0.000482027               0.000000000              -0.000000037               0.000160686               0.000160650               0.000000000               0.000000000               0.000000000               0.000000000               0.000155201               0.000487967              -0.000000000              -0.000002796               0.000163586               0.000160790               0.000000000               0.000000000               0.000000000               0.000000000               0.000150858               0.000483436               0.000000000              -0.000003858               0.000162430               0.000158572               0.000000000               0.000000000               0.000000000               0.000000000               0.000150889               0.000467081               0.000000000              -0.000001802               0.000156293               0.000154491               0.000000000               0.000000000               0.000000000               0.000000000               0.000155065               0.000451772               0.000000000               0.000001678               0.000150030               0.000151708               0.000000000               0.000000000               0.000000000               0.000000000               0.000157884               0.000435623               0.000000000               0.000004754               0.000143622               0.000148375               0.000000000               0.000000000               0.000000000               0.000000000               0.000156067               0.000421614               0.000000000               0.000005823               0.000138596               0.000144419               0.000000000               0.000000000               0.000000000               0.000000000               0.000148613               0.000414058              -0.000000000               0.000003972               0.000136694               0.000140666               0.000000000               0.000000000               0.000000000               0.000000000               0.000133360               0.000413669              -0.000000000              -0.000001699               0.000138455               0.000136756               0.000000000               0.000000000               0.000000000               0.000000000               0.000109028               0.000421092               0.000000000              -0.000011751               0.000144279               0.000132529               0.000000000               0.000000000               0.000000000               0.000000000               0.000077660               0.000436221               0.000000000              -0.000025405               0.000153874               0.000128469               0.000000000               0.000000000               0.000000000               0.000000000               0.000040561               0.000457580              -0.000000000              -0.000041987               0.000166521               0.000124534               0.000000000               0.000000000               0.000000000               0.000000000               0.000023647               0.000477423              -0.000000000              -0.000050810               0.000176076               0.000125266               0.000000000               0.000000000               0.000000000               0.000000000               0.000077808               0.000678187              -0.000054503              -0.000055595               0.000244592               0.000188997               0.000000000               0.000000000               0.000000000               0.000000000               0.000098700               0.000580636              -0.000037215              -0.000035567               0.000205399               0.000169832               0.000000000               0.000000000               0.000000000               0.000000000               0.000145260               0.000511261              -0.000016407              -0.000009435               0.000173564               0.000164128               0.000000000               0.000000000               0.000000000               0.000000000               0.000159943               0.000485432              -0.000004462              -0.000000701               0.000162043               0.000161342               0.000000000               0.000000000               0.000000000               0.000000000               0.000158119               0.000482845               0.000001842              -0.000001061               0.000161300               0.000160239               0.000000000               0.000000000               0.000000000               0.000000000               0.000154564               0.000486659               0.000000574              -0.000002871               0.000163175               0.000160304               0.000000000               0.000000000               0.000000000               0.000000000               0.000154431               0.000481790              -0.000006722              -0.000002312               0.000161366               0.000159053               0.000000000               0.000000000               0.000000000               0.000000000               0.000153146               0.000467724              -0.000009565              -0.000001036               0.000156252               0.000155216               0.000000000               0.000000000               0.000000000               0.000000000               0.000152382               0.000455367              -0.000010508               0.000000222               0.000151713               0.000151936               0.000000000               0.000000000               0.000000000               0.000000000               0.000152605               0.000444305              -0.000012811               0.000001689               0.000147537               0.000149226               0.000000000               0.000000000               0.000000000               0.000000000               0.000148373               0.000435556              -0.000012995               0.000001195               0.000144786               0.000145981               0.000000000               0.000000000               0.000000000               0.000000000               0.000138714               0.000432453              -0.000012218              -0.000002039               0.000144829               0.000142790               0.000000000               0.000000000               0.000000000               0.000000000               0.000124131               0.000436171              -0.000010579              -0.000007972               0.000148046               0.000140074               0.000000000               0.000000000               0.000000000               0.000000000               0.000101662               0.000446363              -0.000007747              -0.000017672               0.000154677               0.000137005               0.000000000               0.000000000               0.000000000               0.000000000               0.000072155               0.000463007              -0.000004769              -0.000030818               0.000164607               0.000133789               0.000000000               0.000000000               0.000000000               0.000000000               0.000037717               0.000485920              -0.000002103              -0.000046596               0.000177504               0.000130908               0.000000000               0.000000000               0.000000000               0.000000000               0.000022794               0.000507182              -0.000002103              -0.000054850               0.000187342               0.000132493               0.000000000               0.000000000               0.000000000               0.000000000               0.000091621               0.000653330              -0.000102590              -0.000047308               0.000233544               0.000186236               0.000000000               0.000000000               0.000000000               0.000000000               0.000104686               0.000561229              -0.000069275              -0.000030896               0.000197373               0.000166477               0.000000000               0.000000000               0.000000000               0.000000000               0.000142205               0.000502622              -0.000029989              -0.000009501               0.000170706               0.000161205               0.000000000               0.000000000               0.000000000               0.000000000               0.000154459               0.000483887              -0.000006984              -0.000002564               0.000162149               0.000159585               0.000000000               0.000000000               0.000000000               0.000000000               0.000154343               0.000484193               0.000003352              -0.000002646               0.000162278               0.000159632               0.000000000               0.000000000               0.000000000               0.000000000               0.000151803               0.000484957              -0.000000422              -0.000003694               0.000162882               0.000159188               0.000000000               0.000000000               0.000000000               0.000000000               0.000154145               0.000480381              -0.000012959              -0.000002243               0.000160873               0.000158630               0.000000000               0.000000000               0.000000000               0.000000000               0.000155520               0.000474833              -0.000017751              -0.000001034               0.000158621               0.000157587               0.000000000               0.000000000               0.000000000               0.000000000               0.000153951               0.000473660              -0.000018835              -0.000001476               0.000158377               0.000156901               0.000000000               0.000000000               0.000000000               0.000000000               0.000148388               0.000475310              -0.000022768              -0.000003768               0.000159691               0.000155923               0.000000000               0.000000000               0.000000000               0.000000000               0.000136118               0.000480732              -0.000023914              -0.000009047               0.000163258               0.000154211               0.000000000               0.000000000               0.000000000               0.000000000               0.000120460               0.000490503              -0.000023221              -0.000016140               0.000168879               0.000152739               0.000000000               0.000000000               0.000000000               0.000000000               0.000104138               0.000505421              -0.000021183              -0.000024126               0.000176514               0.000152388               0.000000000               0.000000000               0.000000000               0.000000000               0.000083547               0.000524234              -0.000017197              -0.000034199               0.000186143               0.000151944               0.000000000               0.000000000               0.000000000               0.000000000               0.000058185               0.000546907              -0.000012132              -0.000046544               0.000197815               0.000151271               0.000000000               0.000000000               0.000000000               0.000000000               0.000029953               0.000574633              -0.000006294              -0.000060597               0.000211741               0.000151145               0.000000000               0.000000000               0.000000000               0.000000000               0.000019708               0.000598999              -0.000005601              -0.000067484               0.000222159               0.000154675               0.000000000               0.000000000               0.000000000               0.000000000               0.000111036               0.000610947              -0.000143859              -0.000034730               0.000215224               0.000180494               0.000000000               0.000000000               0.000000000               0.000000000               0.000113993               0.000532319              -0.000094374              -0.000023793               0.000185369               0.000161576               0.000000000               0.000000000               0.000000000               0.000000000               0.000138423               0.000491415              -0.000037811              -0.000009518               0.000166976               0.000157458               0.000000000               0.000000000               0.000000000               0.000000000               0.000143218               0.000486252              -0.000008852              -0.000007075               0.000164441               0.000157366               0.000000000               0.000000000               0.000000000               0.000000000               0.000144248               0.000489898               0.000002748              -0.000007144               0.000165679               0.000158535               0.000000000               0.000000000               0.000000000               0.000000000               0.000149611               0.000493782              -0.000003313              -0.000005619               0.000166465               0.000160847               0.000000000               0.000000000               0.000000000               0.000000000               0.000159068               0.000494127              -0.000018874              -0.000002115               0.000165412               0.000163297               0.000000000               0.000000000               0.000000000               0.000000000               0.000164673               0.000502253              -0.000025463              -0.000001029               0.000167759               0.000166730               0.000000000               0.000000000               0.000000000               0.000000000               0.000158881               0.000515165              -0.000028532              -0.000004815               0.000173325               0.000168510               0.000000000               0.000000000               0.000000000               0.000000000               0.000146400               0.000534582              -0.000033938              -0.000011923               0.000182167               0.000170244               0.000000000               0.000000000               0.000000000               0.000000000               0.000128055               0.000559749              -0.000035876              -0.000021948               0.000193897               0.000171949               0.000000000               0.000000000               0.000000000               0.000000000               0.000106609               0.000588682              -0.000035909              -0.000033607               0.000207428               0.000173821               0.000000000               0.000000000               0.000000000               0.000000000               0.000087420               0.000621349              -0.000033624              -0.000044886               0.000222076               0.000177190               0.000000000               0.000000000               0.000000000               0.000000000               0.000067203               0.000655206              -0.000028674              -0.000056699               0.000237300               0.000180600               0.000000000               0.000000000               0.000000000               0.000000000               0.000044336               0.000689084              -0.000021537              -0.000069509               0.000252862               0.000183353               0.000000000               0.000000000               0.000000000               0.000000000               0.000021961               0.000724229              -0.000011897              -0.000082293               0.000268838               0.000186545               0.000000000               0.000000000               0.000000000               0.000000000               0.000016268               0.000751158              -0.000009440              -0.000087794               0.000279648               0.000191854               0.000000000               0.000000000               0.000000000               0.000000000               0.000134620               0.000566124              -0.000169481              -0.000020283               0.000195467               0.000175184               0.000000000               0.000000000               0.000000000               0.000000000               0.000122593               0.000502781              -0.000109119              -0.000016875               0.000173217               0.000156342               0.000000000               0.000000000               0.000000000               0.000000000               0.000131584               0.000485550              -0.000042848              -0.000011350               0.000165632               0.000154282               0.000000000               0.000000000               0.000000000               0.000000000               0.000130421               0.000496378              -0.000011562              -0.000013139               0.000169838               0.000156698               0.000000000               0.000000000               0.000000000               0.000000000               0.000136651               0.000511818              -0.000000951              -0.000012733               0.000174849               0.000162116               0.000000000               0.000000000               0.000000000               0.000000000               0.000149691               0.000522650              -0.000010446              -0.000009197               0.000177281               0.000168084               0.000000000               0.000000000               0.000000000               0.000000000               0.000164279               0.000537064              -0.000027764              -0.000005528               0.000180862               0.000175334               0.000000000               0.000000000               0.000000000               0.000000000               0.000171970               0.000564241              -0.000034818              -0.000006041               0.000190092               0.000184051               0.000000000               0.000000000               0.000000000               0.000000000               0.000166759               0.000597439              -0.000038188              -0.000012145               0.000203193               0.000191048               0.000000000               0.000000000               0.000000000               0.000000000               0.000153786               0.000637867              -0.000042797              -0.000022063               0.000219975               0.000197911               0.000000000               0.000000000               0.000000000               0.000000000               0.000132394               0.000680804              -0.000044334              -0.000035453               0.000238750               0.000203297               0.000000000               0.000000000               0.000000000               0.000000000               0.000108934               0.000726923              -0.000043162              -0.000050015               0.000258977               0.000208962               0.000000000               0.000000000               0.000000000               0.000000000               0.000088263               0.000775033              -0.000039588              -0.000063780               0.000279602               0.000215821               0.000000000               0.000000000               0.000000000               0.000000000               0.000065743               0.000821550              -0.000033444              -0.000078040               0.000299861               0.000221821               0.000000000               0.000000000               0.000000000               0.000000000               0.000041620               0.000865160              -0.000024870              -0.000092537               0.000319230               0.000226692               0.000000000               0.000000000               0.000000000               0.000000000               0.000019975               0.000905849              -0.000013476              -0.000105740               0.000337194               0.000231453               0.000000000               0.000000000               0.000000000               0.000000000               0.000015176               0.000933699              -0.000010137              -0.000111021               0.000348237               0.000237216               0.000000000               0.000000000               0.000000000               0.000000000               0.000153412               0.000516486              -0.000184601              -0.000007032               0.000174504               0.000167473               0.000000000               0.000000000               0.000000000               0.000000000               0.000125316               0.000472906              -0.000117911              -0.000012120               0.000161674               0.000149554               0.000000000               0.000000000               0.000000000               0.000000000               0.000121905               0.000488981              -0.000047770              -0.000015408               0.000168128               0.000152720               0.000000000               0.000000000               0.000000000               0.000000000               0.000121405               0.000518596              -0.000016734              -0.000019298               0.000179296               0.000159998               0.000000000               0.000000000               0.000000000               0.000000000               0.000132704               0.000550567              -0.000009188              -0.000019057               0.000189873               0.000170816               0.000000000               0.000000000               0.000000000               0.000000000               0.000154907               0.000582129              -0.000019276              -0.000014676               0.000198933               0.000184257               0.000000000               0.000000000               0.000000000               0.000000000               0.000178681               0.000622164              -0.000034806              -0.000010765               0.000210974               0.000200209               0.000000000               0.000000000               0.000000000               0.000000000               0.000185526               0.000669063              -0.000040853              -0.000014061               0.000227706               0.000213645               0.000000000               0.000000000               0.000000000               0.000000000               0.000176774               0.000721690              -0.000043636              -0.000023921               0.000248535               0.000224614               0.000000000               0.000000000               0.000000000               0.000000000               0.000160099               0.000775827              -0.000047820              -0.000036941               0.000270920               0.000233979               0.000000000               0.000000000               0.000000000               0.000000000               0.000137815               0.000830669              -0.000049017              -0.000052153               0.000294271               0.000242118               0.000000000               0.000000000               0.000000000               0.000000000               0.000116081               0.000885695              -0.000046002              -0.000067182               0.000317623               0.000250441               0.000000000               0.000000000               0.000000000               0.000000000               0.000095406               0.000940051              -0.000040654              -0.000081729               0.000340590               0.000258861               0.000000000               0.000000000               0.000000000               0.000000000               0.000071213               0.000990324              -0.000033016              -0.000097085               0.000362466               0.000265381               0.000000000               0.000000000               0.000000000               0.000000000               0.000045815               0.001035912              -0.000023579              -0.000112308               0.000382737               0.000270428               0.000000000               0.000000000               0.000000000               0.000000000               0.000022641               0.001076848              -0.000012318              -0.000126115               0.000400984               0.000274869               0.000000000               0.000000000               0.000000000               0.000000000               0.000016754               0.001103950              -0.000009164              -0.000131711               0.000411883               0.000280173               0.000000000               0.000000000               0.000000000               0.000000000               0.000167511               0.000460761              -0.000191368               0.000005221               0.000151845               0.000157066               0.000000000               0.000000000               0.000000000               0.000000000               0.000127128               0.000447041              -0.000122083              -0.000008207               0.000151748               0.000143541               0.000000000               0.000000000               0.000000000               0.000000000               0.000113962               0.000502967              -0.000054421              -0.000020135               0.000174366               0.000154231               0.000000000               0.000000000               0.000000000               0.000000000               0.000117612               0.000559673              -0.000027039              -0.000025855               0.000195174               0.000169319               0.000000000               0.000000000               0.000000000               0.000000000               0.000141850               0.000615210              -0.000018051              -0.000023707               0.000212970               0.000189263               0.000000000               0.000000000               0.000000000               0.000000000               0.000175132               0.000669944              -0.000026755              -0.000018068               0.000229335               0.000211267               0.000000000               0.000000000               0.000000000               0.000000000               0.000199785               0.000725672              -0.000041953              -0.000015789               0.000247151               0.000231362               0.000000000               0.000000000               0.000000000               0.000000000               0.000203492               0.000788994              -0.000047600              -0.000022315               0.000270434               0.000248119               0.000000000               0.000000000               0.000000000               0.000000000               0.000189674               0.000854645              -0.000050190              -0.000035703               0.000296780               0.000261077               0.000000000               0.000000000               0.000000000               0.000000000               0.000167691               0.000915477              -0.000053143              -0.000051550               0.000322340               0.000270789               0.000000000               0.000000000               0.000000000               0.000000000               0.000142533               0.000975587              -0.000051450              -0.000068498               0.000348025               0.000279527               0.000000000               0.000000000               0.000000000               0.000000000               0.000120334               0.001035468              -0.000045772              -0.000084308               0.000373255               0.000288947               0.000000000               0.000000000               0.000000000               0.000000000               0.000098068               0.001091978              -0.000037940              -0.000099721               0.000397229               0.000297508               0.000000000               0.000000000               0.000000000               0.000000000               0.000071843               0.001143394              -0.000029493              -0.000115983               0.000419789               0.000303806               0.000000000               0.000000000               0.000000000               0.000000000               0.000046306               0.001190273              -0.000020015              -0.000131419               0.000440560               0.000309141               0.000000000               0.000000000               0.000000000               0.000000000               0.000023501               0.001233121              -0.000010027              -0.000145327               0.000459479               0.000314152               0.000000000               0.000000000               0.000000000               0.000000000               0.000017640               0.001262060              -0.000008269              -0.000151142               0.000471063               0.000319921               0.000000000               0.000000000               0.000000000               0.000000000               0.000175369               0.000405905              -0.000187033               0.000015025               0.000130292               0.000145317               0.000000000               0.000000000               0.000000000               0.000000000               0.000128185               0.000431629              -0.000124950              -0.000005884               0.000145836               0.000139952               0.000000000               0.000000000               0.000000000               0.000000000               0.000114305               0.000530650              -0.000064129              -0.000023467               0.000184704               0.000161237               0.000000000               0.000000000               0.000000000               0.000000000               0.000128391               0.000616490              -0.000038465              -0.000028915               0.000215133               0.000186218               0.000000000               0.000000000               0.000000000               0.000000000               0.000162787               0.000693508              -0.000030300              -0.000025643               0.000239715               0.000214071               0.000000000               0.000000000               0.000000000               0.000000000               0.000201696               0.000759604              -0.000037875              -0.000019314               0.000259637               0.000240322               0.000000000               0.000000000               0.000000000               0.000000000               0.000223602               0.000826439              -0.000048689              -0.000019454               0.000281962               0.000262508               0.000000000               0.000000000               0.000000000               0.000000000               0.000220170               0.000901053              -0.000051010              -0.000030068               0.000310370               0.000280303               0.000000000               0.000000000               0.000000000               0.000000000               0.000199163               0.000970759              -0.000052362              -0.000046659               0.000339136               0.000292477               0.000000000               0.000000000               0.000000000               0.000000000               0.000173829               0.001036871              -0.000053757              -0.000064423               0.000367095               0.000302672               0.000000000               0.000000000               0.000000000               0.000000000               0.000148193               0.001103180              -0.000047585              -0.000082325               0.000395165               0.000312840               0.000000000               0.000000000               0.000000000               0.000000000               0.000123525               0.001169832              -0.000039211              -0.000099907               0.000423242               0.000323336               0.000000000               0.000000000               0.000000000               0.000000000               0.000096852               0.001232621              -0.000030924              -0.000117758               0.000450122               0.000332364               0.000000000               0.000000000               0.000000000               0.000000000               0.000069727               0.001292317              -0.000022032              -0.000135392               0.000475898               0.000340507               0.000000000               0.000000000               0.000000000               0.000000000               0.000045089               0.001350563              -0.000013976              -0.000151912               0.000500820               0.000348909               0.000000000               0.000000000               0.000000000               0.000000000               0.000022826               0.001404701              -0.000006849              -0.000167027               0.000523905               0.000356877               0.000000000               0.000000000               0.000000000               0.000000000               0.000016543               0.001439641              -0.000006579              -0.000173751               0.000537792               0.000364041               0.000000000               0.000000000               0.000000000               0.000000000               0.000181469               0.000361103              -0.000176342               0.000022913               0.000112729               0.000135642               0.000000000               0.000000000               0.000000000               0.000000000               0.000133903               0.000424357              -0.000128396              -0.000002831               0.000142395               0.000139564               0.000000000               0.000000000               0.000000000               0.000000000               0.000119221               0.000559689              -0.000077529              -0.000025253               0.000194979               0.000169726               0.000000000               0.000000000               0.000000000               0.000000000               0.000142217               0.000665952              -0.000052060              -0.000029912               0.000231953               0.000202040               0.000000000               0.000000000               0.000000000               0.000000000               0.000182824               0.000755566              -0.000042329              -0.000025887               0.000260482               0.000234595               0.000000000               0.000000000               0.000000000               0.000000000               0.000221997               0.000826182              -0.000042364              -0.000020024               0.000282066               0.000262042               0.000000000               0.000000000               0.000000000               0.000000000               0.000240551               0.000899125              -0.000045285              -0.000022184               0.000307100               0.000284916               0.000000000               0.000000000               0.000000000               0.000000000               0.000228954               0.000977557              -0.000046772              -0.000036337               0.000337961               0.000301624               0.000000000               0.000000000               0.000000000               0.000000000               0.000205109               0.001050530              -0.000048654              -0.000054400               0.000368306               0.000313906               0.000000000               0.000000000               0.000000000               0.000000000               0.000182287               0.001123321              -0.000047553              -0.000072057               0.000398456               0.000326398               0.000000000               0.000000000               0.000000000               0.000000000               0.000160580               0.001199957              -0.000040050              -0.000089777               0.000429907               0.000340130               0.000000000               0.000000000               0.000000000               0.000000000               0.000137930               0.001275757              -0.000031347              -0.000107746               0.000461163               0.000353418               0.000000000               0.000000000               0.000000000               0.000000000               0.000113020               0.001348445              -0.000023610              -0.000126173               0.000491535               0.000365362               0.000000000               0.000000000               0.000000000               0.000000000               0.000088781               0.001419898              -0.000014469              -0.000144194               0.000521359               0.000377165               0.000000000               0.000000000               0.000000000               0.000000000               0.000066427               0.001490158              -0.000006618              -0.000161359               0.000550501               0.000389142               0.000000000               0.000000000               0.000000000               0.000000000               0.000046804               0.001555026              -0.000001698              -0.000176826               0.000577279               0.000400453               0.000000000               0.000000000               0.000000000               0.000000000               0.000037558               0.001590294              -0.000000672              -0.000184702               0.000591660               0.000406958               0.000000000               0.000000000               0.000000000               0.000000000               0.000183603               0.000316667              -0.000164992               0.000029267               0.000095799               0.000125066               0.000000000               0.000000000               0.000000000               0.000000000               0.000143050               0.000399938              -0.000133963               0.000003651               0.000132094               0.000135746               0.000000000               0.000000000               0.000000000               0.000000000               0.000130453               0.000555689              -0.000097086              -0.000020541               0.000192075               0.000171534               0.000000000               0.000000000               0.000000000               0.000000000               0.000151701               0.000680510              -0.000071716              -0.000028176               0.000236226               0.000208051               0.000000000               0.000000000               0.000000000               0.000000000               0.000186214               0.000781052              -0.000055566              -0.000027801               0.000269615               0.000241814               0.000000000               0.000000000               0.000000000               0.000000000               0.000221586               0.000854878              -0.000045797              -0.000023765               0.000292878               0.000269113               0.000000000               0.000000000               0.000000000               0.000000000               0.000246589               0.000925337              -0.000040259              -0.000023196               0.000316175               0.000292978               0.000000000               0.000000000               0.000000000               0.000000000               0.000247485               0.001003275              -0.000040981              -0.000032602               0.000345289               0.000312687               0.000000000               0.000000000               0.000000000               0.000000000               0.000231683               0.001080383              -0.000045295              -0.000048167               0.000376179               0.000328013               0.000000000               0.000000000               0.000000000               0.000000000               0.000213051               0.001154750              -0.000045367              -0.000064449               0.000406396               0.000341947               0.000000000               0.000000000               0.000000000               0.000000000               0.000195006               0.001230987              -0.000041752              -0.000080746               0.000437240               0.000356494               0.000000000               0.000000000               0.000000000               0.000000000               0.000178602               0.001311020              -0.000035764              -0.000096901               0.000469303               0.000372401               0.000000000               0.000000000               0.000000000               0.000000000               0.000159683               0.001388904              -0.000027501              -0.000113732               0.000500874               0.000387142               0.000000000               0.000000000               0.000000000               0.000000000               0.000138549               0.001463865              -0.000019038              -0.000131027               0.000531626               0.000400599               0.000000000               0.000000000               0.000000000               0.000000000               0.000118547               0.001539369              -0.000010563              -0.000147966               0.000562440               0.000414474               0.000000000               0.000000000               0.000000000               0.000000000               0.000100967               0.001616005              -0.000003609              -0.000164138               0.000593375               0.000429238               0.000000000               0.000000000               0.000000000               0.000000000               0.000086630               0.001650917               0.000001596              -0.000173878               0.000608259               0.000434381               0.000000000               0.000000000               0.000000000               0.000000000               0.000180832               0.000265583              -0.000150446               0.000034614               0.000076989               0.000111602               0.000000000               0.000000000               0.000000000               0.000000000               0.000153246               0.000362017              -0.000137318               0.000012215               0.000116599               0.000128814               0.000000000               0.000000000               0.000000000               0.000000000               0.000144654               0.000534099              -0.000113852              -0.000012517               0.000182204               0.000169686               0.000000000               0.000000000               0.000000000               0.000000000               0.000159297               0.000671708              -0.000087525              -0.000024227               0.000231976               0.000207749               0.000000000               0.000000000               0.000000000               0.000000000               0.000183335               0.000776000              -0.000066313              -0.000028249               0.000268080               0.000239831               0.000000000               0.000000000               0.000000000               0.000000000               0.000214256               0.000855739              -0.000049410              -0.000026621               0.000294117               0.000267496               0.000000000               0.000000000               0.000000000               0.000000000               0.000247362               0.000931798              -0.000037398              -0.000023714               0.000318501               0.000294787               0.000000000               0.000000000               0.000000000               0.000000000               0.000267274               0.001013479              -0.000035252              -0.000026457               0.000346642               0.000320185               0.000000000               0.000000000               0.000000000               0.000000000               0.000266095               0.001094552              -0.000039759              -0.000037033               0.000377192               0.000340158               0.000000000               0.000000000               0.000000000               0.000000000               0.000255744               0.001171125              -0.000043037              -0.000050487               0.000407200               0.000356713               0.000000000               0.000000000               0.000000000               0.000000000               0.000243089               0.001243377              -0.000043545              -0.000064264               0.000435876               0.000371612               0.000000000               0.000000000               0.000000000               0.000000000               0.000229586               0.001318110              -0.000040250              -0.000078669               0.000465589               0.000386920               0.000000000               0.000000000               0.000000000               0.000000000               0.000216497               0.001395487              -0.000032331              -0.000093249               0.000496241               0.000402992               0.000000000               0.000000000               0.000000000               0.000000000               0.000200779               0.001470270              -0.000023746              -0.000108491               0.000526249               0.000417758               0.000000000               0.000000000               0.000000000               0.000000000               0.000182815               0.001542845              -0.000014835              -0.000124300               0.000555710               0.000431410               0.000000000               0.000000000               0.000000000               0.000000000               0.000164590               0.001615924              -0.000006049              -0.000140269               0.000585392               0.000445123               0.000000000               0.000000000               0.000000000               0.000000000               0.000146270               0.001644806               0.000001924              -0.000150749               0.000598513               0.000447764               0.000000000               0.000000000               0.000000000               0.000000000               0.000171169               0.000211123              -0.000129853               0.000037798               0.000057774               0.000095572               0.000000000               0.000000000               0.000000000               0.000000000               0.000161762               0.000320500              -0.000132394               0.000020598               0.000099966               0.000120564               0.000000000               0.000000000               0.000000000               0.000000000               0.000159389               0.000501648              -0.000121549              -0.000002935               0.000168193               0.000165257               0.000000000               0.000000000               0.000000000               0.000000000               0.000172353               0.000641733              -0.000098154              -0.000015584               0.000219104               0.000203519               0.000000000               0.000000000               0.000000000               0.000000000               0.000190066               0.000751724              -0.000075847              -0.000022691               0.000258136               0.000235445               0.000000000               0.000000000               0.000000000               0.000000000               0.000216448               0.000847052              -0.000056496              -0.000024714               0.000290586               0.000265872               0.000000000               0.000000000               0.000000000               0.000000000               0.000252077               0.000937955              -0.000041630              -0.000022715               0.000320220               0.000297505               0.000000000               0.000000000               0.000000000               0.000000000               0.000283178               0.001025713              -0.000033995              -0.000022022               0.000349242               0.000327219               0.000000000               0.000000000               0.000000000               0.000000000               0.000296286               0.001109676              -0.000033926              -0.000027602               0.000379089               0.000351487               0.000000000               0.000000000               0.000000000               0.000000000               0.000295239               0.001187376              -0.000036704              -0.000037707               0.000408357               0.000370650               0.000000000               0.000000000               0.000000000               0.000000000               0.000287968               0.001256698              -0.000038709              -0.000049099               0.000435261               0.000386162               0.000000000               0.000000000               0.000000000               0.000000000               0.000277239               0.001323876              -0.000038125              -0.000061520               0.000461794               0.000400275               0.000000000               0.000000000               0.000000000               0.000000000               0.000268654               0.001396809              -0.000033857              -0.000073856               0.000490217               0.000416361               0.000000000               0.000000000               0.000000000               0.000000000               0.000260691               0.001472554              -0.000026502              -0.000086310               0.000519616               0.000433306               0.000000000               0.000000000               0.000000000               0.000000000               0.000249035               0.001544851              -0.000018112              -0.000099718               0.000548184               0.000448466               0.000000000               0.000000000               0.000000000               0.000000000               0.000234060               0.001614186              -0.000009604              -0.000114000               0.000576057               0.000462056               0.000000000               0.000000000               0.000000000               0.000000000               0.000216575               0.001641862              -0.000002033              -0.000124017               0.000588621               0.000464604               0.000000000               0.000000000               0.000000000               0.000000000               0.000151458               0.000164464              -0.000103403               0.000036238               0.000042741               0.000078980               0.000000000               0.000000000               0.000000000               0.000000000               0.000165262               0.000277291              -0.000118064               0.000027312               0.000083326               0.000110637               0.000000000               0.000000000               0.000000000               0.000000000               0.000176684               0.000453530              -0.000119045               0.000009565               0.000147987               0.000157552               0.000000000               0.000000000               0.000000000               0.000000000               0.000190788               0.000596551              -0.000101087              -0.000003024               0.000199856               0.000196833               0.000000000               0.000000000               0.000000000               0.000000000               0.000206240               0.000721145              -0.000081298              -0.000012803               0.000244647               0.000231844               0.000000000               0.000000000               0.000000000               0.000000000               0.000230911               0.000836188              -0.000063357              -0.000017932               0.000284704               0.000266772               0.000000000               0.000000000               0.000000000               0.000000000               0.000262795               0.000939044              -0.000047381              -0.000018832               0.000319289               0.000300457               0.000000000               0.000000000               0.000000000               0.000000000               0.000294385               0.001029937              -0.000034122              -0.000018348               0.000349425               0.000331077               0.000000000               0.000000000               0.000000000               0.000000000               0.000315453               0.001114507              -0.000027548              -0.000021019               0.000378505               0.000357486               0.000000000               0.000000000               0.000000000               0.000000000               0.000325136               0.001194754              -0.000027524              -0.000027418               0.000407387               0.000379969               0.000000000               0.000000000               0.000000000               0.000000000               0.000327527               0.001267251              -0.000029091              -0.000035584               0.000434274               0.000398690               0.000000000               0.000000000               0.000000000               0.000000000               0.000325001               0.001333553              -0.000030482              -0.000044819               0.000459453               0.000414634               0.000000000               0.000000000               0.000000000               0.000000000               0.000321640               0.001402178              -0.000030428              -0.000054657               0.000485607               0.000430950               0.000000000               0.000000000               0.000000000               0.000000000               0.000319637               0.001474224              -0.000025884              -0.000064414               0.000512875               0.000448460               0.000000000               0.000000000               0.000000000               0.000000000               0.000317460               0.001548377              -0.000018826              -0.000074500               0.000540954               0.000466454               0.000000000               0.000000000               0.000000000               0.000000000               0.000312852               0.001621829              -0.000010864              -0.000085409               0.000569074               0.000483665               0.000000000               0.000000000               0.000000000               0.000000000               0.000302386               0.001653461              -0.000004339              -0.000093288               0.000582244               0.000488957               0.000000000               0.000000000               0.000000000               0.000000000               0.000127139               0.000125568              -0.000073911               0.000031981               0.000031195               0.000063176               0.000000000               0.000000000               0.000000000               0.000000000               0.000164778               0.000231845              -0.000094856               0.000032811               0.000066344               0.000099155               0.000000000               0.000000000               0.000000000               0.000000000               0.000193944               0.000401222              -0.000104013               0.000022576               0.000126214               0.000148790               0.000000000               0.000000000               0.000000000               0.000000000               0.000212385               0.000551972              -0.000092722               0.000010648               0.000180440               0.000191087               0.000000000               0.000000000               0.000000000               0.000000000               0.000230091               0.000688161              -0.000078762               0.000000264               0.000229297               0.000229561               0.000000000               0.000000000               0.000000000               0.000000000               0.000251620               0.000813580              -0.000064243              -0.000007340               0.000273637               0.000266297               0.000000000               0.000000000               0.000000000               0.000000000               0.000276131               0.000923610              -0.000047784              -0.000011902               0.000311834               0.000299932               0.000000000               0.000000000               0.000000000               0.000000000               0.000303397               0.001021075              -0.000031694              -0.000013860               0.000344975               0.000331115               0.000000000               0.000000000               0.000000000               0.000000000               0.000329660               0.001112644              -0.000021045              -0.000015458               0.000376030               0.000360573               0.000000000               0.000000000               0.000000000               0.000000000               0.000348820               0.001198877              -0.000018714              -0.000019052               0.000405972               0.000386920               0.000000000               0.000000000               0.000000000               0.000000000               0.000361188               0.001277543              -0.000019407              -0.000024247               0.000433926               0.000409679               0.000000000               0.000000000               0.000000000               0.000000000               0.000368653               0.001347848              -0.000020586              -0.000030236               0.000459357               0.000429121               0.000000000               0.000000000               0.000000000               0.000000000               0.000371539               0.001411093              -0.000021738              -0.000037059               0.000482713               0.000445653               0.000000000               0.000000000               0.000000000               0.000000000               0.000374931               0.001476906              -0.000020118              -0.000044014               0.000506968               0.000462954               0.000000000               0.000000000               0.000000000               0.000000000               0.000382103               0.001550750              -0.000015805              -0.000050555               0.000533763               0.000483208               0.000000000               0.000000000               0.000000000               0.000000000               0.000389312               0.001625202              -0.000008619              -0.000057158               0.000560781               0.000503623               0.000000000               0.000000000               0.000000000               0.000000000               0.000388672               0.001659281              -0.000002914              -0.000061658               0.000573641               0.000511983               0.000000000               0.000000000               0.000000000               0.000000000               0.000103672               0.000096465              -0.000046830               0.000026819               0.000023215               0.000050034               0.000000000               0.000000000               0.000000000               0.000000000               0.000161334               0.000194636              -0.000065789               0.000036170               0.000052821               0.000088992               0.000000000               0.000000000               0.000000000               0.000000000               0.000207943               0.000357585              -0.000077009               0.000033280               0.000108101               0.000141381               0.000000000               0.000000000               0.000000000               0.000000000               0.000235512               0.000511194              -0.000072162               0.000024417               0.000162257               0.000186675               0.000000000               0.000000000               0.000000000               0.000000000               0.000255405               0.000653342              -0.000063106               0.000014109               0.000213075               0.000227184               0.000000000               0.000000000               0.000000000               0.000000000               0.000271788               0.000784400              -0.000051982               0.000003870               0.000260174               0.000264044               0.000000000               0.000000000               0.000000000               0.000000000               0.000290276               0.000901316              -0.000038998              -0.000003811               0.000301706               0.000297895               0.000000000               0.000000000               0.000000000               0.000000000               0.000313732               0.001008900              -0.000026328              -0.000008463               0.000339118               0.000330655               0.000000000               0.000000000               0.000000000               0.000000000               0.000341068               0.001108875              -0.000016329              -0.000010709               0.000373191               0.000362482               0.000000000               0.000000000               0.000000000               0.000000000               0.000366055               0.001200312              -0.000011646              -0.000012768               0.000404356               0.000391588               0.000000000               0.000000000               0.000000000               0.000000000               0.000385798               0.001282990              -0.000010607              -0.000015700               0.000432892               0.000417193               0.000000000               0.000000000               0.000000000               0.000000000               0.000401312               0.001356357              -0.000010416              -0.000019052               0.000458465               0.000439413               0.000000000               0.000000000               0.000000000               0.000000000               0.000411822               0.001417940              -0.000010885              -0.000022809               0.000480245               0.000457436               0.000000000               0.000000000               0.000000000               0.000000000               0.000422391               0.001481012              -0.000011157              -0.000026730               0.000502576               0.000475846               0.000000000               0.000000000               0.000000000               0.000000000               0.000436126               0.001551572              -0.000009374              -0.000030399               0.000527318               0.000496919               0.000000000               0.000000000               0.000000000               0.000000000               0.000450855               0.001621183              -0.000004815              -0.000033577               0.000551581               0.000518004               0.000000000               0.000000000               0.000000000               0.000000000               0.000457518               0.001654566              -0.000001279              -0.000035251               0.000563267               0.000528016               0.000000000               0.000000000               0.000000000               0.000000000               0.000085464               0.000078435              -0.000023049               0.000022245               0.000018730               0.000040974               0.000000000               0.000000000               0.000000000               0.000000000               0.000158374               0.000170066              -0.000033921               0.000038132               0.000043978               0.000082109               0.000000000               0.000000000               0.000000000               0.000000000               0.000219771               0.000327611              -0.000041153               0.000041462               0.000095382               0.000136844               0.000000000               0.000000000               0.000000000               0.000000000               0.000252205               0.000481630              -0.000039614               0.000034373               0.000149084               0.000183457               0.000000000               0.000000000               0.000000000               0.000000000               0.000271916               0.000625836              -0.000034711               0.000023739               0.000200697               0.000224436               0.000000000               0.000000000               0.000000000               0.000000000               0.000286918               0.000760220              -0.000028940               0.000012567               0.000249215               0.000261782               0.000000000               0.000000000               0.000000000               0.000000000               0.000303184               0.000884416              -0.000022363               0.000003142               0.000293755               0.000296897               0.000000000               0.000000000               0.000000000               0.000000000               0.000324148               0.001000556              -0.000015138              -0.000003514               0.000334687               0.000331173               0.000000000               0.000000000               0.000000000               0.000000000               0.000348711               0.001103613              -0.000008850              -0.000007185               0.000370262               0.000363077               0.000000000               0.000000000               0.000000000               0.000000000               0.000375304               0.001197049              -0.000005231              -0.000008892               0.000401976               0.000393084               0.000000000               0.000000000               0.000000000               0.000000000               0.000400500               0.001283169              -0.000004092              -0.000010208               0.000431122               0.000420913               0.000000000               0.000000000               0.000000000               0.000000000               0.000421808               0.001358399              -0.000003542              -0.000011622               0.000456669               0.000445047               0.000000000               0.000000000               0.000000000               0.000000000               0.000438711               0.001421771              -0.000003431              -0.000013205               0.000478320               0.000465116               0.000000000               0.000000000               0.000000000               0.000000000               0.000454503               0.001484281              -0.000003831              -0.000015096               0.000499788               0.000484691               0.000000000               0.000000000               0.000000000               0.000000000               0.000470824               0.001549790              -0.000003032              -0.000017165               0.000522313               0.000505148               0.000000000               0.000000000               0.000000000               0.000000000               0.000488035               0.001615990              -0.000001282              -0.000018986               0.000544986               0.000526001               0.000000000               0.000000000               0.000000000               0.000000000               0.000496656               0.001649415              -0.000000172              -0.000019931               0.000556443               0.000536512               0.000000000               0.000000000               0.000000000               0.000000000               0.000078459               0.000071973               0.000000000               0.000020425               0.000017182               0.000037608               0.000000000               0.000000000               0.000000000               0.000000000               0.000157797               0.000160904               0.000000000               0.000039061               0.000040614               0.000079675               0.000000000               0.000000000               0.000000000               0.000000000               0.000225259               0.000316711               0.000000000               0.000044883               0.000090608               0.000135491               0.000000000               0.000000000               0.000000000               0.000000000               0.000257444               0.000470944               0.000000000               0.000037673               0.000144422               0.000182095               0.000000000               0.000000000               0.000000000               0.000000000               0.000277551               0.000615820              -0.000000000               0.000027104               0.000196237               0.000223341               0.000000000               0.000000000               0.000000000               0.000000000               0.000293604               0.000751855               0.000000000               0.000016119               0.000245243               0.000261362               0.000000000               0.000000000               0.000000000               0.000000000               0.000307992               0.000877932               0.000000000               0.000005756               0.000290723               0.000296478               0.000000000               0.000000000               0.000000000               0.000000000               0.000327132               0.000995654              -0.000000000              -0.000001782               0.000332475               0.000330693               0.000000000               0.000000000               0.000000000               0.000000000               0.000351272               0.001100440               0.000000000              -0.000005828               0.000368752               0.000362924               0.000000000               0.000000000               0.000000000               0.000000000               0.000378997               0.001196347               0.000000000              -0.000007420               0.000401251               0.000393832               0.000000000               0.000000000               0.000000000               0.000000000               0.000406001               0.001283583              -0.000000000              -0.000008197               0.000430589               0.000422392               0.000000000               0.000000000               0.000000000               0.000000000               0.000428955               0.001358265              -0.000000000              -0.000008925               0.000455725               0.000446801               0.000000000               0.000000000               0.000000000               0.000000000               0.000448068               0.001422591              -0.000000000              -0.000009798               0.000477458               0.000467660               0.000000000               0.000000000               0.000000000               0.000000000               0.000465420               0.001484972              -0.000000000              -0.000011089               0.000498682               0.000487593               0.000000000               0.000000000               0.000000000               0.000000000               0.000482256               0.001548312              -0.000000000              -0.000012693               0.000520330               0.000507637               0.000000000               0.000000000               0.000000000               0.000000000               0.000499893               0.001614102              -0.000000000              -0.000014303               0.000542796               0.000528493               0.000000000               0.000000000               0.000000000               0.000000000               0.000508183               0.001647904              -0.000000000              -0.000015419               0.000554436               0.000539016               0.000000000               0.000000000               0.000000000               0.000000000               0.000000000               0.000000000               0.000000000               0.000000000               0.000000000               0.000000000               0.000000000               0.000000000               0.000000000               0.000000000               0.000000000               0.000000000               0.000000000               0.000000000               0.000000000               0.000000000               0.000000000               0.000000000               0.000000000               0.000000000               0.000000000               0.000000000               0.000000000               0.000000000               0.000000000               0.000000000               0.000000000               0.000000000               0.000000000               0.000000000               0.000000000               0.000000000               0.000000000               0.000000000               0.000000000               0.000000000               0.000000000               0.000000000               0.000000000               0.000000000               0.000000000               0.000000000               0.000000000               0.000000000               0.000000000               0.000000000               0.000000000               0.000000000               0.000000000               0.000000000               0.000000000               0.000000000               0.000000000               0.000000000               0.000000000               0.000000000               0.000000000               0.000000000               0.000000000               0.000000000               0.000000000               0.000000000               0.000000000               0.000000000               0.000000000               0.000000000               0.000000000               0.000000000               0.000000000               0.000000000               0.000000000               0.000000000               0.000000000               0.000000000               0.000000000               0.000000000               0.000000000               0.000000000               0.000000000               0.000000000               0.000000000               0.000000000               0.000000000               0.000000000               0.000000000               0.000000000               0.000000000               0.000000000               0.000000000               0.000000000               0.000000000               0.000000000               0.000000000               0.000000000               0.000000000               0.000000000               0.000000000               0.000000000               0.000000000               0.000000000               0.000000000               0.000000000               0.000000000               0.000000000               0.000000000               0.000000000               0.000000000               0.000000000               0.000000000               0.000000000               0.000000000               0.000000000               0.000000000               0.000000000               0.000000000               0.000000000               0.000000000               0.000000000               0.000000000               0.000000000               0.000000000               0.000000000               0.000000000               0.000000000               0.000000000               0.000000000               0.000000000               0.000000000               0.000000000               0.000000000               0.000000000               0.000000000               0.000000000               0.000000000               0.000000000               0.000000000               0.000000000               0.000000000               0.000000000               0.000000000               0.000000000               0.000000000               0.000000000               0.000000000               0.000000000               0.000000000               0.000000000               0.000000000               0.000000000               0.000000000               0.000000000               0.000000000               0.000000000               0.000000000               0.000000000               0.000000000               0.000000000               0.000000000               0.000000000               0.000000000               0.000000000               0.000000000               0.000000000               0.000000000               0.000000000               0.000000000               0.000000000               0.000000000               0.000000000               0.000000000               0.000077808               0.000678187               0.000054503              -0.000055595               0.000244592               0.000188997               0.000000000               0.000000000               0.000000000               0.000000000               0.000098700               0.000580636               0.000037215              -0.000035567               0.000205399               0.000169832               0.000000000               0.000000000               0.000000000               0.000000000               0.000145260               0.000511261               0.000016407              -0.000009435               0.000173564               0.000164128               0.000000000               0.000000000               0.000000000               0.000000000               0.000159943               0.000485432               0.000004462              -0.000000701               0.000162043               0.000161342               0.000000000               0.000000000               0.000000000               0.000000000               0.000158119               0.000482845              -0.000001842              -0.000001061               0.000161300               0.000160239               0.000000000               0.000000000               0.000000000               0.000000000               0.000154564               0.000486659              -0.000000574              -0.000002871               0.000163175               0.000160304               0.000000000               0.000000000               0.000000000               0.000000000               0.000154431               0.000481790               0.000006722              -0.000002312               0.000161366               0.000159053               0.000000000               0.000000000               0.000000000               0.000000000               0.000153146               0.000467724               0.000009565              -0.000001036               0.000156252               0.000155216               0.000000000               0.000000000               0.000000000               0.000000000               0.000152382               0.000455367               0.000010508               0.000000222               0.000151713               0.000151936               0.000000000               0.000000000               0.000000000               0.000000000               0.000152605               0.000444305               0.000012811               0.000001689               0.000147537               0.000149226               0.000000000               0.000000000               0.000000000               0.000000000               0.000148373               0.000435556               0.000012995               0.000001195               0.000144786               0.000145981               0.000000000               0.000000000               0.000000000               0.000000000               0.000138714               0.000432453               0.000012218              -0.000002039               0.000144829               0.000142790               0.000000000               0.000000000               0.000000000               0.000000000               0.000124131               0.000436171               0.000010579              -0.000007972               0.000148046               0.000140074               0.000000000               0.000000000               0.000000000               0.000000000               0.000101662               0.000446363               0.000007747              -0.000017672               0.000154677               0.000137005               0.000000000               0.000000000               0.000000000               0.000000000               0.000072155               0.000463007               0.000004769              -0.000030818               0.000164607               0.000133789               0.000000000               0.000000000               0.000000000               0.000000000               0.000037717               0.000485920               0.000002103              -0.000046596               0.000177504               0.000130908               0.000000000               0.000000000               0.000000000               0.000000000               0.000022794               0.000507182               0.000002103              -0.000054850               0.000187342               0.000132493               0.000000000               0.000000000               0.000000000               0.000000000               0.000091621               0.000653330               0.000102590              -0.000047308               0.000233544               0.000186236               0.000000000               0.000000000               0.000000000               0.000000000               0.000104686               0.000561229               0.000069275              -0.000030896               0.000197373               0.000166477               0.000000000               0.000000000               0.000000000               0.000000000               0.000142205               0.000502622               0.000029989              -0.000009501               0.000170706               0.000161205               0.000000000               0.000000000               0.000000000               0.000000000               0.000154459               0.000483887               0.000006984              -0.000002564               0.000162149               0.000159585               0.000000000               0.000000000               0.000000000               0.000000000               0.000154343               0.000484193              -0.000003352              -0.000002646               0.000162278               0.000159632               0.000000000               0.000000000               0.000000000               0.000000000               0.000151803               0.000484957               0.000000422              -0.000003694               0.000162882               0.000159188               0.000000000               0.000000000               0.000000000               0.000000000               0.000154145               0.000480381               0.000012959              -0.000002243               0.000160873               0.000158630               0.000000000               0.000000000               0.000000000               0.000000000               0.000155520               0.000474833               0.000017751              -0.000001034               0.000158621               0.000157587               0.000000000               0.000000000               0.000000000               0.000000000               0.000153951               0.000473660               0.000018835              -0.000001476               0.000158377               0.000156901               0.000000000               0.000000000               0.000000000               0.000000000               0.000148388               0.000475310               0.000022768              -0.000003768               0.000159691               0.000155923               0.000000000               0.000000000               0.000000000               0.000000000               0.000136118               0.000480732               0.000023914              -0.000009047               0.000163258               0.000154211               0.000000000               0.000000000               0.000000000               0.000000000               0.000120460               0.000490503               0.000023221              -0.000016140               0.000168879               0.000152739               0.000000000               0.000000000               0.000000000               0.000000000               0.000104138               0.000505421               0.000021183              -0.000024126               0.000176514               0.000152388               0.000000000               0.000000000               0.000000000               0.000000000               0.000083547               0.000524234               0.000017197              -0.000034199               0.000186143               0.000151944               0.000000000               0.000000000               0.000000000               0.000000000               0.000058185               0.000546907               0.000012132              -0.000046544               0.000197815               0.000151271               0.000000000               0.000000000               0.000000000               0.000000000               0.000029953               0.000574633               0.000006294              -0.000060597               0.000211741               0.000151145               0.000000000               0.000000000               0.000000000               0.000000000               0.000019708               0.000598999               0.000005601              -0.000067484               0.000222159               0.000154675               0.000000000               0.000000000               0.000000000               0.000000000               0.000111036               0.000610947               0.000143859              -0.000034730               0.000215224               0.000180494               0.000000000               0.000000000               0.000000000               0.000000000               0.000113993               0.000532319               0.000094374              -0.000023793               0.000185369               0.000161576               0.000000000               0.000000000               0.000000000               0.000000000               0.000138423               0.000491415               0.000037811              -0.000009518               0.000166976               0.000157458               0.000000000               0.000000000               0.000000000               0.000000000               0.000143218               0.000486252               0.000008852              -0.000007075               0.000164441               0.000157366               0.000000000               0.000000000               0.000000000               0.000000000               0.000144248               0.000489898              -0.000002748              -0.000007144               0.000165679               0.000158535               0.000000000               0.000000000               0.000000000               0.000000000               0.000149611               0.000493782               0.000003313              -0.000005619               0.000166465               0.000160847               0.000000000               0.000000000               0.000000000               0.000000000               0.000159068               0.000494127               0.000018874              -0.000002115               0.000165412               0.000163297               0.000000000               0.000000000               0.000000000               0.000000000               0.000164673               0.000502253               0.000025463              -0.000001029               0.000167759               0.000166730               0.000000000               0.000000000               0.000000000               0.000000000               0.000158881               0.000515165               0.000028532              -0.000004815               0.000173325               0.000168510               0.000000000               0.000000000               0.000000000               0.000000000               0.000146400               0.000534582               0.000033938              -0.000011923               0.000182167               0.000170244               0.000000000               0.000000000               0.000000000               0.000000000               0.000128055               0.000559749               0.000035876              -0.000021948               0.000193897               0.000171949               0.000000000               0.000000000               0.000000000               0.000000000               0.000106609               0.000588682               0.000035909              -0.000033607               0.000207428               0.000173821               0.000000000               0.000000000               0.000000000               0.000000000               0.000087420               0.000621349               0.000033624              -0.000044886               0.000222076               0.000177190               0.000000000               0.000000000               0.000000000               0.000000000               0.000067203               0.000655206               0.000028674              -0.000056699               0.000237300               0.000180600               0.000000000               0.000000000               0.000000000               0.000000000               0.000044336               0.000689084               0.000021537              -0.000069509               0.000252862               0.000183353               0.000000000               0.000000000               0.000000000               0.000000000               0.000021961               0.000724229               0.000011897              -0.000082293               0.000268838               0.000186545               0.000000000               0.000000000               0.000000000               0.000000000               0.000016268               0.000751158               0.000009440              -0.000087794               0.000279648               0.000191854               0.000000000               0.000000000               0.000000000               0.000000000               0.000134620               0.000566124               0.000169481              -0.000020283               0.000195467               0.000175184               0.000000000               0.000000000               0.000000000               0.000000000               0.000122593               0.000502781               0.000109119              -0.000016875               0.000173217               0.000156342               0.000000000               0.000000000               0.000000000               0.000000000               0.000131584               0.000485550               0.000042848              -0.000011350               0.000165632               0.000154282               0.000000000               0.000000000               0.000000000               0.000000000               0.000130421               0.000496378               0.000011562              -0.000013139               0.000169838               0.000156698               0.000000000               0.000000000               0.000000000               0.000000000               0.000136651               0.000511818               0.000000951              -0.000012733               0.000174849               0.000162116               0.000000000               0.000000000               0.000000000               0.000000000               0.000149691               0.000522650               0.000010446              -0.000009197               0.000177281               0.000168084               0.000000000               0.000000000               0.000000000               0.000000000               0.000164279               0.000537064               0.000027764              -0.000005528               0.000180862               0.000175334               0.000000000               0.000000000               0.000000000               0.000000000               0.000171970               0.000564241               0.000034818              -0.000006041               0.000190092               0.000184051               0.000000000               0.000000000               0.000000000               0.000000000               0.000166759               0.000597439               0.000038188              -0.000012145               0.000203193               0.000191048               0.000000000               0.000000000               0.000000000               0.000000000               0.000153786               0.000637867               0.000042797              -0.000022063               0.000219975               0.000197911               0.000000000               0.000000000               0.000000000               0.000000000               0.000132394               0.000680804               0.000044334              -0.000035453               0.000238750               0.000203297               0.000000000               0.000000000               0.000000000               0.000000000               0.000108934               0.000726923               0.000043162              -0.000050015               0.000258977               0.000208962               0.000000000               0.000000000               0.000000000               0.000000000               0.000088263               0.000775033               0.000039588              -0.000063780               0.000279602               0.000215821               0.000000000               0.000000000               0.000000000               0.000000000               0.000065743               0.000821550               0.000033444              -0.000078040               0.000299861               0.000221821               0.000000000               0.000000000               0.000000000               0.000000000               0.000041620               0.000865160               0.000024870              -0.000092537               0.000319230               0.000226692               0.000000000               0.000000000               0.000000000               0.000000000               0.000019975               0.000905849               0.000013476              -0.000105740               0.000337194               0.000231453               0.000000000               0.000000000               0.000000000               0.000000000               0.000015176               0.000933699               0.000010137              -0.000111021               0.000348237               0.000237216               0.000000000               0.000000000               0.000000000               0.000000000               0.000153412               0.000516486               0.000184601              -0.000007032               0.000174504               0.000167473               0.000000000               0.000000000               0.000000000               0.000000000               0.000125316               0.000472906               0.000117911              -0.000012120               0.000161674               0.000149554               0.000000000               0.000000000               0.000000000               0.000000000               0.000121905               0.000488981               0.000047770              -0.000015408               0.000168128               0.000152720               0.000000000               0.000000000               0.000000000               0.000000000               0.000121405               0.000518596               0.000016734              -0.000019298               0.000179296               0.000159998               0.000000000               0.000000000               0.000000000               0.000000000               0.000132704               0.000550567               0.000009188              -0.000019057               0.000189873               0.000170816               0.000000000               0.000000000               0.000000000               0.000000000               0.000154907               0.000582129               0.000019276              -0.000014676               0.000198933               0.000184257               0.000000000               0.000000000               0.000000000               0.000000000               0.000178681               0.000622164               0.000034806              -0.000010765               0.000210974               0.000200209               0.000000000               0.000000000               0.000000000               0.000000000               0.000185526               0.000669063               0.000040853              -0.000014061               0.000227706               0.000213645               0.000000000               0.000000000               0.000000000               0.000000000               0.000176774               0.000721690               0.000043636              -0.000023921               0.000248535               0.000224614               0.000000000               0.000000000               0.000000000               0.000000000               0.000160099               0.000775827               0.000047820              -0.000036941               0.000270920               0.000233979               0.000000000               0.000000000               0.000000000               0.000000000               0.000137815               0.000830669               0.000049017              -0.000052153               0.000294271               0.000242118               0.000000000               0.000000000               0.000000000               0.000000000               0.000116081               0.000885695               0.000046002              -0.000067182               0.000317623               0.000250441               0.000000000               0.000000000               0.000000000               0.000000000               0.000095406               0.000940051               0.000040654              -0.000081729               0.000340590               0.000258861               0.000000000               0.000000000               0.000000000               0.000000000               0.000071213               0.000990324               0.000033016              -0.000097085               0.000362466               0.000265381               0.000000000               0.000000000               0.000000000               0.000000000               0.000045815               0.001035912               0.000023579              -0.000112308               0.000382737               0.000270428               0.000000000               0.000000000               0.000000000               0.000000000               0.000022641               0.001076848               0.000012318              -0.000126115               0.000400984               0.000274869               0.000000000               0.000000000               0.000000000               0.000000000               0.000016754               0.001103950               0.000009164              -0.000131711               0.000411883               0.000280173               0.000000000               0.000000000               0.000000000               0.000000000               0.000167511               0.000460761               0.000191368               0.000005221               0.000151845               0.000157066               0.000000000               0.000000000               0.000000000               0.000000000               0.000127128               0.000447041               0.000122083              -0.000008207               0.000151748               0.000143541               0.000000000               0.000000000               0.000000000               0.000000000               0.000113962               0.000502967               0.000054421              -0.000020135               0.000174366               0.000154231               0.000000000               0.000000000               0.000000000               0.000000000               0.000117612               0.000559673               0.000027039              -0.000025855               0.000195174               0.000169319               0.000000000               0.000000000               0.000000000               0.000000000               0.000141850               0.000615210               0.000018051              -0.000023707               0.000212970               0.000189263               0.000000000               0.000000000               0.000000000               0.000000000               0.000175132               0.000669944               0.000026755              -0.000018068               0.000229335               0.000211267               0.000000000               0.000000000               0.000000000               0.000000000               0.000199785               0.000725672               0.000041953              -0.000015789               0.000247151               0.000231362               0.000000000               0.000000000               0.000000000               0.000000000               0.000203492               0.000788994               0.000047600              -0.000022315               0.000270434               0.000248119               0.000000000               0.000000000               0.000000000               0.000000000               0.000189674               0.000854645               0.000050190              -0.000035703               0.000296780               0.000261077               0.000000000               0.000000000               0.000000000               0.000000000               0.000167691               0.000915477               0.000053143              -0.000051550               0.000322340               0.000270789               0.000000000               0.000000000               0.000000000               0.000000000               0.000142533               0.000975587               0.000051450              -0.000068498               0.000348025               0.000279527               0.000000000               0.000000000               0.000000000               0.000000000               0.000120334               0.001035468               0.000045772              -0.000084308               0.000373255               0.000288947               0.000000000               0.000000000               0.000000000               0.000000000               0.000098068               0.001091978               0.000037940              -0.000099721               0.000397229               0.000297508               0.000000000               0.000000000               0.000000000               0.000000000               0.000071843               0.001143394               0.000029493              -0.000115983               0.000419789               0.000303806               0.000000000               0.000000000               0.000000000               0.000000000               0.000046306               0.001190273               0.000020015              -0.000131419               0.000440560               0.000309141               0.000000000               0.000000000               0.000000000               0.000000000               0.000023501               0.001233121               0.000010027              -0.000145327               0.000459479               0.000314152               0.000000000               0.000000000               0.000000000               0.000000000               0.000017640               0.001262060               0.000008269              -0.000151142               0.000471063               0.000319921               0.000000000               0.000000000               0.000000000               0.000000000               0.000175369               0.000405905               0.000187033               0.000015025               0.000130292               0.000145317               0.000000000               0.000000000               0.000000000               0.000000000               0.000128185               0.000431629               0.000124950              -0.000005884               0.000145836               0.000139952               0.000000000               0.000000000               0.000000000               0.000000000               0.000114305               0.000530650               0.000064129              -0.000023467               0.000184704               0.000161237               0.000000000               0.000000000               0.000000000               0.000000000               0.000128391               0.000616490               0.000038465              -0.000028915               0.000215133               0.000186218               0.000000000               0.000000000               0.000000000               0.000000000               0.000162787               0.000693508               0.000030300              -0.000025643               0.000239715               0.000214071               0.000000000               0.000000000               0.000000000               0.000000000               0.000201696               0.000759604               0.000037875              -0.000019314               0.000259637               0.000240322               0.000000000               0.000000000               0.000000000               0.000000000               0.000223602               0.000826439               0.000048689              -0.000019454               0.000281962               0.000262508               0.000000000               0.000000000               0.000000000               0.000000000               0.000220170               0.000901053               0.000051010              -0.000030068               0.000310370               0.000280303               0.000000000               0.000000000               0.000000000               0.000000000               0.000199163               0.000970759               0.000052362              -0.000046659               0.000339136               0.000292477               0.000000000               0.000000000               0.000000000               0.000000000               0.000173829               0.001036871               0.000053757              -0.000064423               0.000367095               0.000302672               0.000000000               0.000000000               0.000000000               0.000000000               0.000148193               0.001103180               0.000047585              -0.000082325               0.000395165               0.000312840               0.000000000               0.000000000               0.000000000               0.000000000               0.000123525               0.001169832               0.000039211              -0.000099907               0.000423242               0.000323336               0.000000000               0.000000000               0.000000000               0.000000000               0.000096852               0.001232621               0.000030924              -0.000117758               0.000450122               0.000332364               0.000000000               0.000000000               0.000000000               0.000000000               0.000069727               0.001292317               0.000022032              -0.000135392               0.000475898               0.000340507               0.000000000               0.000000000               0.000000000               0.000000000               0.000045089               0.001350563               0.000013976              -0.000151912               0.000500820               0.000348909               0.000000000               0.000000000               0.000000000               0.000000000               0.000022826               0.001404701               0.000006849              -0.000167027               0.000523905               0.000356877               0.000000000               0.000000000               0.000000000               0.000000000               0.000016543               0.001439641               0.000006579              -0.000173751               0.000537792               0.000364041               0.000000000               0.000000000               0.000000000               0.000000000               0.000181469               0.000361103               0.000176342               0.000022913               0.000112729               0.000135642               0.000000000               0.000000000               0.000000000               0.000000000               0.000133903               0.000424357               0.000128396              -0.000002831               0.000142395               0.000139564               0.000000000               0.000000000               0.000000000               0.000000000               0.000119221               0.000559689               0.000077529              -0.000025253               0.000194979               0.000169726               0.000000000               0.000000000               0.000000000               0.000000000               0.000142217               0.000665952               0.000052060              -0.000029912               0.000231953               0.000202040               0.000000000               0.000000000               0.000000000               0.000000000               0.000182824               0.000755566               0.000042329              -0.000025887               0.000260482               0.000234595               0.000000000               0.000000000               0.000000000               0.000000000               0.000221997               0.000826182               0.000042364              -0.000020024               0.000282066               0.000262042               0.000000000               0.000000000               0.000000000               0.000000000               0.000240551               0.000899125               0.000045285              -0.000022184               0.000307100               0.000284916               0.000000000               0.000000000               0.000000000               0.000000000               0.000228954               0.000977557               0.000046772              -0.000036337               0.000337961               0.000301624               0.000000000               0.000000000               0.000000000               0.000000000               0.000205109               0.001050530               0.000048654              -0.000054400               0.000368306               0.000313906               0.000000000               0.000000000               0.000000000               0.000000000               0.000182287               0.001123321               0.000047553              -0.000072057               0.000398456               0.000326398               0.000000000               0.000000000               0.000000000               0.000000000               0.000160580               0.001199957               0.000040050              -0.000089777               0.000429907               0.000340130               0.000000000               0.000000000               0.000000000               0.000000000               0.000137930               0.001275757               0.000031347              -0.000107746               0.000461163               0.000353418               0.000000000               0.000000000               0.000000000               0.000000000               0.000113020               0.001348445               0.000023610              -0.000126173               0.000491535               0.000365362               0.000000000               0.000000000               0.000000000               0.000000000               0.000088781               0.001419898               0.000014469              -0.000144194               0.000521359               0.000377165               0.000000000               0.000000000               0.000000000               0.000000000               0.000066427               0.001490158               0.000006618              -0.000161359               0.000550501               0.000389142               0.000000000               0.000000000               0.000000000               0.000000000               0.000046804               0.001555026               0.000001698              -0.000176826               0.000577279               0.000400453               0.000000000               0.000000000               0.000000000               0.000000000               0.000037558               0.001590294               0.000000672              -0.000184702               0.000591660               0.000406958               0.000000000               0.000000000               0.000000000               0.000000000               0.000183603               0.000316667               0.000164992               0.000029267               0.000095799               0.000125066               0.000000000               0.000000000               0.000000000               0.000000000               0.000143050               0.000399938               0.000133963               0.000003651               0.000132094               0.000135746               0.000000000               0.000000000               0.000000000               0.000000000               0.000130453               0.000555689               0.000097086              -0.000020541               0.000192075               0.000171534               0.000000000               0.000000000               0.000000000               0.000000000               0.000151701               0.000680510               0.000071716              -0.000028176               0.000236226               0.000208051               0.000000000               0.000000000               0.000000000               0.000000000               0.000186214               0.000781052               0.000055566              -0.000027801               0.000269615               0.000241814               0.000000000               0.000000000               0.000000000               0.000000000               0.000221586               0.000854878               0.000045797              -0.000023765               0.000292878               0.000269113               0.000000000               0.000000000               0.000000000               0.000000000               0.000246589               0.000925337               0.000040259              -0.000023196               0.000316175               0.000292978               0.000000000               0.000000000               0.000000000               0.000000000               0.000247485               0.001003275               0.000040981              -0.000032602               0.000345289               0.000312687               0.000000000               0.000000000               0.000000000               0.000000000               0.000231683               0.001080383               0.000045295              -0.000048167               0.000376179               0.000328013               0.000000000               0.000000000               0.000000000               0.000000000               0.000213051               0.001154750               0.000045367              -0.000064449               0.000406396               0.000341947               0.000000000               0.000000000               0.000000000               0.000000000               0.000195006               0.001230987               0.000041752              -0.000080746               0.000437240               0.000356494               0.000000000               0.000000000               0.000000000               0.000000000               0.000178602               0.001311020               0.000035764              -0.000096901               0.000469303               0.000372401               0.000000000               0.000000000               0.000000000               0.000000000               0.000159683               0.001388904               0.000027501              -0.000113732               0.000500874               0.000387142               0.000000000               0.000000000               0.000000000               0.000000000               0.000138549               0.001463865               0.000019038              -0.000131027               0.000531626               0.000400599               0.000000000               0.000000000               0.000000000               0.000000000               0.000118547               0.001539369               0.000010563              -0.000147966               0.000562440               0.000414474               0.000000000               0.000000000               0.000000000               0.000000000               0.000100967               0.001616005               0.000003609              -0.000164138               0.000593375               0.000429238               0.000000000               0.000000000               0.000000000               0.000000000               0.000086630               0.001650917              -0.000001596              -0.000173878               0.000608259               0.000434381               0.000000000               0.000000000               0.000000000               0.000000000               0.000180832               0.000265583               0.000150446               0.000034614               0.000076989               0.000111602               0.000000000               0.000000000               0.000000000               0.000000000               0.000153246               0.000362017               0.000137318               0.000012215               0.000116599               0.000128814               0.000000000               0.000000000               0.000000000               0.000000000               0.000144654               0.000534099               0.000113852              -0.000012517               0.000182204               0.000169686               0.000000000               0.000000000               0.000000000               0.000000000               0.000159297               0.000671708               0.000087525              -0.000024227               0.000231976               0.000207749               0.000000000               0.000000000               0.000000000               0.000000000               0.000183335               0.000776000               0.000066313              -0.000028249               0.000268080               0.000239831               0.000000000               0.000000000               0.000000000               0.000000000               0.000214256               0.000855739               0.000049410              -0.000026621               0.000294117               0.000267496               0.000000000               0.000000000               0.000000000               0.000000000               0.000247362               0.000931798               0.000037398              -0.000023714               0.000318501               0.000294787               0.000000000               0.000000000               0.000000000               0.000000000               0.000267274               0.001013479               0.000035252              -0.000026457               0.000346642               0.000320185               0.000000000               0.000000000               0.000000000               0.000000000               0.000266095               0.001094552               0.000039759              -0.000037033               0.000377192               0.000340158               0.000000000               0.000000000               0.000000000               0.000000000               0.000255744               0.001171125               0.000043037              -0.000050487               0.000407200               0.000356713               0.000000000               0.000000000               0.000000000               0.000000000               0.000243089               0.001243377               0.000043545              -0.000064264               0.000435876               0.000371612               0.000000000               0.000000000               0.000000000               0.000000000               0.000229586               0.001318110               0.000040250              -0.000078669               0.000465589               0.000386920               0.000000000               0.000000000               0.000000000               0.000000000               0.000216497               0.001395487               0.000032331              -0.000093249               0.000496241               0.000402992               0.000000000               0.000000000               0.000000000               0.000000000               0.000200779               0.001470270               0.000023746              -0.000108491               0.000526249               0.000417758               0.000000000               0.000000000               0.000000000               0.000000000               0.000182815               0.001542845               0.000014835              -0.000124300               0.000555710               0.000431410               0.000000000               0.000000000               0.000000000               0.000000000               0.000164590               0.001615924               0.000006049              -0.000140269               0.000585392               0.000445123               0.000000000               0.000000000               0.000000000               0.000000000               0.000146270               0.001644806              -0.000001924              -0.000150749               0.000598513               0.000447764               0.000000000               0.000000000               0.000000000               0.000000000               0.000171169               0.000211123               0.000129853               0.000037798               0.000057774               0.000095572               0.000000000               0.000000000               0.000000000               0.000000000               0.000161762               0.000320500               0.000132394               0.000020598               0.000099966               0.000120564               0.000000000               0.000000000               0.000000000               0.000000000               0.000159389               0.000501648               0.000121549              -0.000002935               0.000168193               0.000165257               0.000000000               0.000000000               0.000000000               0.000000000               0.000172353               0.000641733               0.000098154              -0.000015584               0.000219104               0.000203519               0.000000000               0.000000000               0.000000000               0.000000000               0.000190066               0.000751724               0.000075847              -0.000022691               0.000258136               0.000235445               0.000000000               0.000000000               0.000000000               0.000000000               0.000216448               0.000847052               0.000056496              -0.000024714               0.000290586               0.000265872               0.000000000               0.000000000               0.000000000               0.000000000               0.000252077               0.000937955               0.000041630              -0.000022715               0.000320220               0.000297505               0.000000000               0.000000000               0.000000000               0.000000000               0.000283178               0.001025713               0.000033995              -0.000022022               0.000349242               0.000327219               0.000000000               0.000000000               0.000000000               0.000000000               0.000296286               0.001109676               0.000033926              -0.000027602               0.000379089               0.000351487               0.000000000               0.000000000               0.000000000               0.000000000               0.000295239               0.001187376               0.000036704              -0.000037707               0.000408357               0.000370650               0.000000000               0.000000000               0.000000000               0.000000000               0.000287968               0.001256698               0.000038709              -0.000049099               0.000435261               0.000386162               0.000000000               0.000000000               0.000000000               0.000000000               0.000277239               0.001323876               0.000038125              -0.000061520               0.000461794               0.000400275               0.000000000               0.000000000               0.000000000               0.000000000               0.000268654               0.001396809               0.000033857              -0.000073856               0.000490217               0.000416361               0.000000000               0.000000000               0.000000000               0.000000000               0.000260691               0.001472554               0.000026502              -0.000086310               0.000519616               0.000433306               0.000000000               0.000000000               0.000000000               0.000000000               0.000249035               0.001544851               0.000018112              -0.000099718               0.000548184               0.000448466               0.000000000               0.000000000               0.000000000               0.000000000               0.000234060               0.001614186               0.000009604              -0.000114000               0.000576057               0.000462056               0.000000000               0.000000000               0.000000000               0.000000000               0.000216575               0.001641862               0.000002033              -0.000124017               0.000588621               0.000464604               0.000000000               0.000000000               0.000000000               0.000000000               0.000151458               0.000164464               0.000103403               0.000036238               0.000042741               0.000078980               0.000000000               0.000000000               0.000000000               0.000000000               0.000165262               0.000277291               0.000118064               0.000027312               0.000083326               0.000110637               0.000000000               0.000000000               0.000000000               0.000000000               0.000176684               0.000453530               0.000119045               0.000009565               0.000147987               0.000157552               0.000000000               0.000000000               0.000000000               0.000000000               0.000190788               0.000596551               0.000101087              -0.000003024               0.000199856               0.000196833               0.000000000               0.000000000               0.000000000               0.000000000               0.000206240               0.000721145               0.000081298              -0.000012803               0.000244647               0.000231844               0.000000000               0.000000000               0.000000000               0.000000000               0.000230911               0.000836188               0.000063357              -0.000017932               0.000284704               0.000266772               0.000000000               0.000000000               0.000000000               0.000000000               0.000262795               0.000939044               0.000047381              -0.000018832               0.000319289               0.000300457               0.000000000               0.000000000               0.000000000               0.000000000               0.000294385               0.001029937               0.000034122              -0.000018348               0.000349425               0.000331077               0.000000000               0.000000000               0.000000000               0.000000000               0.000315453               0.001114507               0.000027548              -0.000021019               0.000378505               0.000357486               0.000000000               0.000000000               0.000000000               0.000000000               0.000325136               0.001194754               0.000027524              -0.000027418               0.000407387               0.000379969               0.000000000               0.000000000               0.000000000               0.000000000               0.000327527               0.001267251               0.000029091              -0.000035584               0.000434274               0.000398690               0.000000000               0.000000000               0.000000000               0.000000000               0.000325001               0.001333553               0.000030482              -0.000044819               0.000459453               0.000414634               0.000000000               0.000000000               0.000000000               0.000000000               0.000321640               0.001402178               0.000030428              -0.000054657               0.000485607               0.000430950               0.000000000               0.000000000               0.000000000               0.000000000               0.000319637               0.001474224               0.000025884              -0.000064414               0.000512875               0.000448460               0.000000000               0.000000000               0.000000000               0.000000000               0.000317460               0.001548377               0.000018826              -0.000074500               0.000540954               0.000466454               0.000000000               0.000000000               0.000000000               0.000000000               0.000312852               0.001621829               0.000010864              -0.000085409               0.000569074               0.000483665               0.000000000               0.000000000               0.000000000               0.000000000               0.000302386               0.001653461               0.000004339              -0.000093288               0.000582244               0.000488957               0.000000000               0.000000000               0.000000000               0.000000000               0.000127139               0.000125568               0.000073911               0.000031981               0.000031195               0.000063176               0.000000000               0.000000000               0.000000000               0.000000000               0.000164778               0.000231845               0.000094856               0.000032811               0.000066344               0.000099155               0.000000000               0.000000000               0.000000000               0.000000000               0.000193944               0.000401222               0.000104013               0.000022576               0.000126214               0.000148790               0.000000000               0.000000000               0.000000000               0.000000000               0.000212385               0.000551972               0.000092722               0.000010648               0.000180440               0.000191087               0.000000000               0.000000000               0.000000000               0.000000000               0.000230091               0.000688161               0.000078762               0.000000264               0.000229297               0.000229561               0.000000000               0.000000000               0.000000000               0.000000000               0.000251620               0.000813580               0.000064243              -0.000007340               0.000273637               0.000266297               0.000000000               0.000000000               0.000000000               0.000000000               0.000276131               0.000923610               0.000047784              -0.000011902               0.000311834               0.000299932               0.000000000               0.000000000               0.000000000               0.000000000               0.000303397               0.001021075               0.000031694              -0.000013860               0.000344975               0.000331115               0.000000000               0.000000000               0.000000000               0.000000000               0.000329660               0.001112644               0.000021045              -0.000015458               0.000376030               0.000360573               0.000000000               0.000000000               0.000000000               0.000000000               0.000348820               0.001198877               0.000018714              -0.000019052               0.000405972               0.000386920               0.000000000               0.000000000               0.000000000               0.000000000               0.000361188               0.001277543               0.000019407              -0.000024247               0.000433926               0.000409679               0.000000000               0.000000000               0.000000000               0.000000000               0.000368653               0.001347848               0.000020586              -0.000030236               0.000459357               0.000429121               0.000000000               0.000000000               0.000000000               0.000000000               0.000371539               0.001411093               0.000021738              -0.000037059               0.000482713               0.000445653               0.000000000               0.000000000               0.000000000               0.000000000               0.000374931               0.001476906               0.000020118              -0.000044014               0.000506968               0.000462954               0.000000000               0.000000000               0.000000000               0.000000000               0.000382103               0.001550750               0.000015805              -0.000050555               0.000533763               0.000483208               0.000000000               0.000000000               0.000000000               0.000000000               0.000389312               0.001625202               0.000008619              -0.000057158               0.000560781               0.000503623               0.000000000               0.000000000               0.000000000               0.000000000               0.000388672               0.001659281               0.000002914              -0.000061658               0.000573641               0.000511983               0.000000000               0.000000000               0.000000000               0.000000000               0.000103672               0.000096465               0.000046830               0.000026819               0.000023215               0.000050034               0.000000000               0.000000000               0.000000000               0.000000000               0.000161334               0.000194636               0.000065789               0.000036170               0.000052821               0.000088992               0.000000000               0.000000000               0.000000000               0.000000000               0.000207943               0.000357585               0.000077009               0.000033280               0.000108101               0.000141381               0.000000000               0.000000000               0.000000000               0.000000000               0.000235512               0.000511194               0.000072162               0.000024417               0.000162257               0.000186675               0.000000000               0.000000000               0.000000000               0.000000000               0.000255405               0.000653342               0.000063106               0.000014109               0.000213075               0.000227184               0.000000000               0.000000000               0.000000000               0.000000000               0.000271788               0.000784400               0.000051982               0.000003870               0.000260174               0.000264044               0.000000000               0.000000000               0.000000000               0.000000000               0.000290276               0.000901316               0.000038998              -0.000003811               0.000301706               0.000297895               0.000000000               0.000000000               0.000000000               0.000000000               0.000313732               0.001008900               0.000026328              -0.000008463               0.000339118               0.000330655               0.000000000               0.000000000               0.000000000               0.000000000               0.000341068               0.001108875               0.000016329              -0.000010709               0.000373191               0.000362482               0.000000000               0.000000000               0.000000000               0.000000000               0.000366055               0.001200312               0.000011646              -0.000012768               0.000404356               0.000391588               0.000000000               0.000000000               0.000000000               0.000000000               0.000385798               0.001282990               0.000010607              -0.000015700               0.000432892               0.000417193               0.000000000               0.000000000               0.000000000               0.000000000               0.000401312               0.001356357               0.000010416              -0.000019052               0.000458465               0.000439413               0.000000000               0.000000000               0.000000000               0.000000000               0.000411822               0.001417940               0.000010885              -0.000022809               0.000480245               0.000457436               0.000000000               0.000000000               0.000000000               0.000000000               0.000422391               0.001481012               0.000011157              -0.000026730               0.000502576               0.000475846               0.000000000               0.000000000               0.000000000               0.000000000               0.000436126               0.001551572               0.000009374              -0.000030399               0.000527318               0.000496919               0.000000000               0.000000000               0.000000000               0.000000000               0.000450855               0.001621183               0.000004815              -0.000033577               0.000551581               0.000518004               0.000000000               0.000000000               0.000000000               0.000000000               0.000457518               0.001654566               0.000001279              -0.000035251               0.000563267               0.000528016               0.000000000               0.000000000               0.000000000               0.000000000               0.000085464               0.000078435               0.000023049               0.000022245               0.000018730               0.000040974               0.000000000               0.000000000               0.000000000               0.000000000               0.000158374               0.000170066               0.000033921               0.000038132               0.000043978               0.000082109               0.000000000               0.000000000               0.000000000               0.000000000               0.000219771               0.000327611               0.000041153               0.000041462               0.000095382               0.000136844               0.000000000               0.000000000               0.000000000               0.000000000               0.000252205               0.000481630               0.000039614               0.000034373               0.000149084               0.000183457               0.000000000               0.000000000               0.000000000               0.000000000               0.000271916               0.000625836               0.000034711               0.000023739               0.000200697               0.000224436               0.000000000               0.000000000               0.000000000               0.000000000               0.000286918               0.000760220               0.000028940               0.000012567               0.000249215               0.000261782               0.000000000               0.000000000               0.000000000               0.000000000               0.000303184               0.000884416               0.000022363               0.000003142               0.000293755               0.000296897               0.000000000               0.000000000               0.000000000               0.000000000               0.000324148               0.001000556               0.000015138              -0.000003514               0.000334687               0.000331173               0.000000000               0.000000000               0.000000000               0.000000000               0.000348711               0.001103613               0.000008850              -0.000007185               0.000370262               0.000363077               0.000000000               0.000000000               0.000000000               0.000000000               0.000375304               0.001197049               0.000005231              -0.000008892               0.000401976               0.000393084               0.000000000               0.000000000               0.000000000               0.000000000               0.000400500               0.001283169               0.000004092              -0.000010208               0.000431122               0.000420913               0.000000000               0.000000000               0.000000000               0.000000000               0.000421808               0.001358399               0.000003542              -0.000011622               0.000456669               0.000445047               0.000000000               0.000000000               0.000000000               0.000000000               0.000438711               0.001421771               0.000003431              -0.000013205               0.000478320               0.000465116               0.000000000               0.000000000               0.000000000               0.000000000               0.000454503               0.001484281               0.000003831              -0.000015096               0.000499788               0.000484691               0.000000000               0.000000000               0.000000000               0.000000000               0.000470824               0.001549790               0.000003032              -0.000017165               0.000522313               0.000505148               0.000000000               0.000000000               0.000000000               0.000000000               0.000488035               0.001615990               0.000001282              -0.000018986               0.000544986               0.000526001               0.000000000               0.000000000               0.000000000               0.000000000               0.000496656               0.001649415               0.000000172              -0.000019931               0.000556443               0.000536512               0.000000000               0.000000000               0.000000000               0.000000000               0.000078459               0.000071973               0.000000000               0.000020425               0.000017182               0.000037608               0.000000000               0.000000000               0.000000000               0.000000000               0.000157797               0.000160904               0.000000000               0.000039061               0.000040614               0.000079675               0.000000000               0.000000000               0.000000000               0.000000000               0.000225259               0.000316711               0.000000000               0.000044883               0.000090608               0.000135491               0.000000000               0.000000000               0.000000000               0.000000000               0.000257444               0.000470944               0.000000000               0.000037673               0.000144422               0.000182095               0.000000000               0.000000000               0.000000000               0.000000000               0.000277551               0.000615820              -0.000000000               0.000027104               0.000196237               0.000223341               0.000000000               0.000000000               0.000000000               0.000000000               0.000293604               0.000751855              -0.000000000               0.000016119               0.000245243               0.000261362               0.000000000               0.000000000               0.000000000               0.000000000               0.000307992               0.000877932              -0.000000000               0.000005756               0.000290723               0.000296478               0.000000000               0.000000000               0.000000000               0.000000000               0.000327132               0.000995654              -0.000000000              -0.000001782               0.000332475               0.000330693               0.000000000               0.000000000               0.000000000               0.000000000               0.000351272               0.001100440              -0.000000000              -0.000005828               0.000368752               0.000362924               0.000000000               0.000000000               0.000000000               0.000000000               0.000378997               0.001196347               0.000000000              -0.000007420               0.000401251               0.000393832               0.000000000               0.000000000               0.000000000               0.000000000               0.000406001               0.001283583              -0.000000000              -0.000008197               0.000430589               0.000422392               0.000000000               0.000000000               0.000000000               0.000000000               0.000428955               0.001358265              -0.000000000              -0.000008925               0.000455725               0.000446801               0.000000000               0.000000000               0.000000000               0.000000000               0.000448068               0.001422591               0.000000000              -0.000009798               0.000477458               0.000467660               0.000000000               0.000000000               0.000000000               0.000000000               0.000465420               0.001484972               0.000000000              -0.000011089               0.000498682               0.000487593               0.000000000               0.000000000               0.000000000               0.000000000               0.000482256               0.001548312              -0.000000000              -0.000012693               0.000520330               0.000507637               0.000000000               0.000000000               0.000000000               0.000000000               0.000499893               0.001614102               0.000000000              -0.000014303               0.000542796               0.000528493               0.000000000               0.000000000               0.000000000               0.000000000               0.000508183               0.001647904               0.000000000              -0.000015419               0.000554436               0.000539016               0.000000000               0.000000000               0.000000000               0.000000000               0.000070276               0.000683776              -0.000000000              -0.000059118               0.000247629               0.000188511               0.000000000               0.000000000               0.000000000               0.000000000               0.000094284               0.000586067              -0.000000000              -0.000037902               0.000207988               0.000170086               0.000000000               0.000000000               0.000000000               0.000000000               0.000144577               0.000512809               0.000000000              -0.000009885               0.000174230               0.000164345               0.000000000               0.000000000               0.000000000               0.000000000               0.000162080               0.000486786               0.000000000              -0.000000068               0.000162283               0.000162215               0.000000000               0.000000000               0.000000000               0.000000000               0.000160577               0.000482027               0.000000000              -0.000000037               0.000160686               0.000160650               0.000000000               0.000000000               0.000000000               0.000000000               0.000155201               0.000487967              -0.000000000              -0.000002796               0.000163586               0.000160790               0.000000000               0.000000000               0.000000000               0.000000000               0.000150858               0.000483436              -0.000000000              -0.000003858               0.000162430               0.000158572               0.000000000               0.000000000               0.000000000               0.000000000               0.000150889               0.000467081              -0.000000000              -0.000001802               0.000156293               0.000154491               0.000000000               0.000000000               0.000000000               0.000000000               0.000155065               0.000451772              -0.000000000               0.000001678               0.000150030               0.000151708               0.000000000               0.000000000               0.000000000               0.000000000               0.000157884               0.000435623               0.000000000               0.000004754               0.000143622               0.000148375               0.000000000               0.000000000               0.000000000               0.000000000               0.000156067               0.000421614               0.000000000               0.000005823               0.000138596               0.000144419               0.000000000               0.000000000               0.000000000               0.000000000               0.000148613               0.000414058               0.000000000               0.000003972               0.000136694               0.000140666               0.000000000               0.000000000               0.000000000               0.000000000               0.000133360               0.000413669               0.000000000              -0.000001699               0.000138455               0.000136756               0.000000000               0.000000000               0.000000000               0.000000000               0.000109028               0.000421092              -0.000000000              -0.000011751               0.000144279               0.000132529               0.000000000               0.000000000               0.000000000               0.000000000               0.000077660               0.000436221               0.000000000              -0.000025405               0.000153874               0.000128469               0.000000000               0.000000000               0.000000000               0.000000000               0.000040561               0.000457580              -0.000000000              -0.000041987               0.000166521               0.000124534               0.000000000               0.000000000               0.000000000               0.000000000               0.000023647               0.000477423              -0.000000000              -0.000050810               0.000176076               0.000125266               0.000000000               0.000000000               0.000000000               0.000000000               0.000077808               0.000678187              -0.000054503              -0.000055595               0.000244592               0.000188997               0.000000000               0.000000000               0.000000000               0.000000000               0.000098700               0.000580636              -0.000037215              -0.000035567               0.000205399               0.000169832               0.000000000               0.000000000               0.000000000               0.000000000               0.000145260               0.000511261              -0.000016407              -0.000009435               0.000173564               0.000164128               0.000000000               0.000000000               0.000000000               0.000000000               0.000159943               0.000485432              -0.000004462              -0.000000701               0.000162043               0.000161342               0.000000000               0.000000000               0.000000000               0.000000000               0.000158119               0.000482845               0.000001842              -0.000001061               0.000161300               0.000160239               0.000000000               0.000000000               0.000000000               0.000000000               0.000154564               0.000486659               0.000000574              -0.000002871               0.000163175               0.000160304               0.000000000               0.000000000               0.000000000               0.000000000               0.000154431               0.000481790              -0.000006722              -0.000002312               0.000161366               0.000159053               0.000000000               0.000000000               0.000000000               0.000000000               0.000153146               0.000467724              -0.000009565              -0.000001036               0.000156252               0.000155216               0.000000000               0.000000000               0.000000000               0.000000000               0.000152382               0.000455367              -0.000010508               0.000000222               0.000151713               0.000151936               0.000000000               0.000000000               0.000000000               0.000000000               0.000152605               0.000444305              -0.000012811               0.000001689               0.000147537               0.000149226               0.000000000               0.000000000               0.000000000               0.000000000               0.000148373               0.000435556              -0.000012995               0.000001195               0.000144786               0.000145981               0.000000000               0.000000000               0.000000000               0.000000000               0.000138714               0.000432453              -0.000012218              -0.000002039               0.000144829               0.000142790               0.000000000               0.000000000               0.000000000               0.000000000               0.000124131               0.000436171              -0.000010579              -0.000007972               0.000148046               0.000140074               0.000000000               0.000000000               0.000000000               0.000000000               0.000101662               0.000446363              -0.000007747              -0.000017672               0.000154677               0.000137005               0.000000000               0.000000000               0.000000000               0.000000000               0.000072155               0.000463007              -0.000004769              -0.000030818               0.000164607               0.000133789               0.000000000               0.000000000               0.000000000               0.000000000               0.000037717               0.000485920              -0.000002103              -0.000046596               0.000177504               0.000130908               0.000000000               0.000000000               0.000000000               0.000000000               0.000022794               0.000507182              -0.000002103              -0.000054850               0.000187342               0.000132493               0.000000000               0.000000000               0.000000000               0.000000000               0.000091621               0.000653330              -0.000102590              -0.000047308               0.000233544               0.000186236               0.000000000               0.000000000               0.000000000               0.000000000               0.000104686               0.000561229              -0.000069275              -0.000030896               0.000197373               0.000166477               0.000000000               0.000000000               0.000000000               0.000000000               0.000142205               0.000502622              -0.000029989              -0.000009501               0.000170706               0.000161205               0.000000000               0.000000000               0.000000000               0.000000000               0.000154459               0.000483887              -0.000006984              -0.000002564               0.000162149               0.000159585               0.000000000               0.000000000               0.000000000               0.000000000               0.000154343               0.000484193               0.000003352              -0.000002646               0.000162278               0.000159632               0.000000000               0.000000000               0.000000000               0.000000000               0.000151803               0.000484957              -0.000000422              -0.000003694               0.000162882               0.000159188               0.000000000               0.000000000               0.000000000               0.000000000               0.000154145               0.000480381              -0.000012959              -0.000002243               0.000160873               0.000158630               0.000000000               0.000000000               0.000000000               0.000000000               0.000155520               0.000474833              -0.000017751              -0.000001034               0.000158621               0.000157587               0.000000000               0.000000000               0.000000000               0.000000000               0.000153951               0.000473660              -0.000018835              -0.000001476               0.000158377               0.000156901               0.000000000               0.000000000               0.000000000               0.000000000               0.000148388               0.000475310              -0.000022768              -0.000003768               0.000159691               0.000155923               0.000000000               0.000000000               0.000000000               0.000000000               0.000136118               0.000480732              -0.000023914              -0.000009047               0.000163258               0.000154211               0.000000000               0.000000000               0.000000000               0.000000000               0.000120460               0.000490503              -0.000023221              -0.000016140               0.000168879               0.000152739               0.000000000               0.000000000               0.000000000               0.000000000               0.000104138               0.000505421              -0.000021183              -0.000024126               0.000176514               0.000152388               0.000000000               0.000000000               0.000000000               0.000000000               0.000083547               0.000524234              -0.000017197              -0.000034199               0.000186143               0.000151944               0.000000000               0.000000000               0.000000000               0.000000000               0.000058185               0.000546907              -0.000012132              -0.000046544               0.000197815               0.000151271               0.000000000               0.000000000               0.000000000               0.000000000               0.000029953               0.000574633              -0.000006294              -0.000060597               0.000211741               0.000151145               0.000000000               0.000000000               0.000000000               0.000000000               0.000019708               0.000598999              -0.000005601              -0.000067484               0.000222159               0.000154675               0.000000000               0.000000000               0.000000000               0.000000000               0.000111036               0.000610947              -0.000143859              -0.000034730               0.000215224               0.000180494               0.000000000               0.000000000               0.000000000               0.000000000               0.000113993               0.000532319              -0.000094374              -0.000023793               0.000185369               0.000161576               0.000000000               0.000000000               0.000000000               0.000000000               0.000138423               0.000491415              -0.000037811              -0.000009518               0.000166976               0.000157458               0.000000000               0.000000000               0.000000000               0.000000000               0.000143218               0.000486252              -0.000008852              -0.000007075               0.000164441               0.000157366               0.000000000               0.000000000               0.000000000               0.000000000               0.000144248               0.000489898               0.000002748              -0.000007144               0.000165679               0.000158535               0.000000000               0.000000000               0.000000000               0.000000000               0.000149611               0.000493782              -0.000003313              -0.000005619               0.000166465               0.000160847               0.000000000               0.000000000               0.000000000               0.000000000               0.000159068               0.000494127              -0.000018874              -0.000002115               0.000165412               0.000163297               0.000000000               0.000000000               0.000000000               0.000000000               0.000164673               0.000502253              -0.000025463              -0.000001029               0.000167759               0.000166730               0.000000000               0.000000000               0.000000000               0.000000000               0.000158881               0.000515165              -0.000028532              -0.000004815               0.000173325               0.000168510               0.000000000               0.000000000               0.000000000               0.000000000               0.000146400               0.000534582              -0.000033938              -0.000011923               0.000182167               0.000170244               0.000000000               0.000000000               0.000000000               0.000000000               0.000128055               0.000559749              -0.000035876              -0.000021948               0.000193897               0.000171949               0.000000000               0.000000000               0.000000000               0.000000000               0.000106609               0.000588682              -0.000035909              -0.000033607               0.000207428               0.000173821               0.000000000               0.000000000               0.000000000               0.000000000               0.000087420               0.000621349              -0.000033624              -0.000044886               0.000222076               0.000177190               0.000000000               0.000000000               0.000000000               0.000000000               0.000067203               0.000655206              -0.000028674              -0.000056699               0.000237300               0.000180600               0.000000000               0.000000000               0.000000000               0.000000000               0.000044336               0.000689084              -0.000021537              -0.000069509               0.000252862               0.000183353               0.000000000               0.000000000               0.000000000               0.000000000               0.000021961               0.000724229              -0.000011897              -0.000082293               0.000268838               0.000186545               0.000000000               0.000000000               0.000000000               0.000000000               0.000016268               0.000751158              -0.000009440              -0.000087794               0.000279648               0.000191854               0.000000000               0.000000000               0.000000000               0.000000000               0.000134620               0.000566124              -0.000169481              -0.000020283               0.000195467               0.000175184               0.000000000               0.000000000               0.000000000               0.000000000               0.000122593               0.000502781              -0.000109119              -0.000016875               0.000173217               0.000156342               0.000000000               0.000000000               0.000000000               0.000000000               0.000131584               0.000485550              -0.000042848              -0.000011350               0.000165632               0.000154282               0.000000000               0.000000000               0.000000000               0.000000000               0.000130421               0.000496378              -0.000011562              -0.000013139               0.000169838               0.000156698               0.000000000               0.000000000               0.000000000               0.000000000               0.000136651               0.000511818              -0.000000951              -0.000012733               0.000174849               0.000162116               0.000000000               0.000000000               0.000000000               0.000000000               0.000149691               0.000522650              -0.000010446              -0.000009197               0.000177281               0.000168084               0.000000000               0.000000000               0.000000000               0.000000000               0.000164279               0.000537064              -0.000027764              -0.000005528               0.000180862               0.000175334               0.000000000               0.000000000               0.000000000               0.000000000               0.000171970               0.000564241              -0.000034818              -0.000006041               0.000190092               0.000184051               0.000000000               0.000000000               0.000000000               0.000000000               0.000166759               0.000597439              -0.000038188              -0.000012145               0.000203193               0.000191048               0.000000000               0.000000000               0.000000000               0.000000000               0.000153786               0.000637867              -0.000042797              -0.000022063               0.000219975               0.000197911               0.000000000               0.000000000               0.000000000               0.000000000               0.000132394               0.000680804              -0.000044334              -0.000035453               0.000238750               0.000203297               0.000000000               0.000000000               0.000000000               0.000000000               0.000108934               0.000726923              -0.000043162              -0.000050015               0.000258977               0.000208962               0.000000000               0.000000000               0.000000000               0.000000000               0.000088263               0.000775033              -0.000039588              -0.000063780               0.000279602               0.000215821               0.000000000               0.000000000               0.000000000               0.000000000               0.000065743               0.000821550              -0.000033444              -0.000078040               0.000299861               0.000221821               0.000000000               0.000000000               0.000000000               0.000000000               0.000041620               0.000865160              -0.000024870              -0.000092537               0.000319230               0.000226692               0.000000000               0.000000000               0.000000000               0.000000000               0.000019975               0.000905849              -0.000013476              -0.000105740               0.000337194               0.000231453               0.000000000               0.000000000               0.000000000               0.000000000               0.000015176               0.000933699              -0.000010137              -0.000111021               0.000348237               0.000237216               0.000000000               0.000000000               0.000000000               0.000000000               0.000153412               0.000516486              -0.000184601              -0.000007032               0.000174504               0.000167473               0.000000000               0.000000000               0.000000000               0.000000000               0.000125316               0.000472906              -0.000117911              -0.000012120               0.000161674               0.000149554               0.000000000               0.000000000               0.000000000               0.000000000               0.000121905               0.000488981              -0.000047770              -0.000015408               0.000168128               0.000152720               0.000000000               0.000000000               0.000000000               0.000000000               0.000121405               0.000518596              -0.000016734              -0.000019298               0.000179296               0.000159998               0.000000000               0.000000000               0.000000000               0.000000000               0.000132704               0.000550567              -0.000009188              -0.000019057               0.000189873               0.000170816               0.000000000               0.000000000               0.000000000               0.000000000               0.000154907               0.000582129              -0.000019276              -0.000014676               0.000198933               0.000184257               0.000000000               0.000000000               0.000000000               0.000000000               0.000178681               0.000622164              -0.000034806              -0.000010765               0.000210974               0.000200209               0.000000000               0.000000000               0.000000000               0.000000000               0.000185526               0.000669063              -0.000040853              -0.000014061               0.000227706               0.000213645               0.000000000               0.000000000               0.000000000               0.000000000               0.000176774               0.000721690              -0.000043636              -0.000023921               0.000248535               0.000224614               0.000000000               0.000000000               0.000000000               0.000000000               0.000160099               0.000775827              -0.000047820              -0.000036941               0.000270920               0.000233979               0.000000000               0.000000000               0.000000000               0.000000000               0.000137815               0.000830669              -0.000049017              -0.000052153               0.000294271               0.000242118               0.000000000               0.000000000               0.000000000               0.000000000               0.000116081               0.000885695              -0.000046002              -0.000067182               0.000317623               0.000250441               0.000000000               0.000000000               0.000000000               0.000000000               0.000095406               0.000940051              -0.000040654              -0.000081729               0.000340590               0.000258861               0.000000000               0.000000000               0.000000000               0.000000000               0.000071213               0.000990324              -0.000033016              -0.000097085               0.000362466               0.000265381               0.000000000               0.000000000               0.000000000               0.000000000               0.000045815               0.001035912              -0.000023579              -0.000112308               0.000382737               0.000270428               0.000000000               0.000000000               0.000000000               0.000000000               0.000022641               0.001076848              -0.000012318              -0.000126115               0.000400984               0.000274869               0.000000000               0.000000000               0.000000000               0.000000000               0.000016754               0.001103950              -0.000009164              -0.000131711               0.000411883               0.000280173               0.000000000               0.000000000               0.000000000               0.000000000               0.000167511               0.000460761              -0.000191368               0.000005221               0.000151845               0.000157066               0.000000000               0.000000000               0.000000000               0.000000000               0.000127128               0.000447041              -0.000122083              -0.000008207               0.000151748               0.000143541               0.000000000               0.000000000               0.000000000               0.000000000               0.000113962               0.000502967              -0.000054421              -0.000020135               0.000174366               0.000154231               0.000000000               0.000000000               0.000000000               0.000000000               0.000117612               0.000559673              -0.000027039              -0.000025855               0.000195174               0.000169319               0.000000000               0.000000000               0.000000000               0.000000000               0.000141850               0.000615210              -0.000018051              -0.000023707               0.000212970               0.000189263               0.000000000               0.000000000               0.000000000               0.000000000               0.000175132               0.000669944              -0.000026755              -0.000018068               0.000229335               0.000211267               0.000000000               0.000000000               0.000000000               0.000000000               0.000199785               0.000725672              -0.000041953              -0.000015789               0.000247151               0.000231362               0.000000000               0.000000000               0.000000000               0.000000000               0.000203492               0.000788994              -0.000047600              -0.000022315               0.000270434               0.000248119               0.000000000               0.000000000               0.000000000               0.000000000               0.000189674               0.000854645              -0.000050190              -0.000035703               0.000296780               0.000261077               0.000000000               0.000000000               0.000000000               0.000000000               0.000167691               0.000915477              -0.000053143              -0.000051550               0.000322340               0.000270789               0.000000000               0.000000000               0.000000000               0.000000000               0.000142533               0.000975587              -0.000051450              -0.000068498               0.000348025               0.000279527               0.000000000               0.000000000               0.000000000               0.000000000               0.000120334               0.001035468              -0.000045772              -0.000084308               0.000373255               0.000288947               0.000000000               0.000000000               0.000000000               0.000000000               0.000098068               0.001091978              -0.000037940              -0.000099721               0.000397229               0.000297508               0.000000000               0.000000000               0.000000000               0.000000000               0.000071843               0.001143394              -0.000029493              -0.000115983               0.000419789               0.000303806               0.000000000               0.000000000               0.000000000               0.000000000               0.000046306               0.001190273              -0.000020015              -0.000131419               0.000440560               0.000309141               0.000000000               0.000000000               0.000000000               0.000000000               0.000023501               0.001233121              -0.000010027              -0.000145327               0.000459479               0.000314152               0.000000000               0.000000000               0.000000000               0.000000000               0.000017640               0.001262060              -0.000008269              -0.000151142               0.000471063               0.000319921               0.000000000               0.000000000               0.000000000               0.000000000               0.000175369               0.000405905              -0.000187033               0.000015025               0.000130292               0.000145317               0.000000000               0.000000000               0.000000000               0.000000000               0.000128185               0.000431629              -0.000124950              -0.000005884               0.000145836               0.000139952               0.000000000               0.000000000               0.000000000               0.000000000               0.000114305               0.000530650              -0.000064129              -0.000023467               0.000184704               0.000161237               0.000000000               0.000000000               0.000000000               0.000000000               0.000128391               0.000616490              -0.000038465              -0.000028915               0.000215133               0.000186218               0.000000000               0.000000000               0.000000000               0.000000000               0.000162787               0.000693508              -0.000030300              -0.000025643               0.000239715               0.000214071               0.000000000               0.000000000               0.000000000               0.000000000               0.000201696               0.000759604              -0.000037875              -0.000019314               0.000259637               0.000240322               0.000000000               0.000000000               0.000000000               0.000000000               0.000223602               0.000826439              -0.000048689              -0.000019454               0.000281962               0.000262508               0.000000000               0.000000000               0.000000000               0.000000000               0.000220170               0.000901053              -0.000051010              -0.000030068               0.000310370               0.000280303               0.000000000               0.000000000               0.000000000               0.000000000               0.000199163               0.000970759              -0.000052362              -0.000046659               0.000339136               0.000292477               0.000000000               0.000000000               0.000000000               0.000000000               0.000173829               0.001036871              -0.000053757              -0.000064423               0.000367095               0.000302672               0.000000000               0.000000000               0.000000000               0.000000000               0.000148193               0.001103180              -0.000047585              -0.000082325               0.000395165               0.000312840               0.000000000               0.000000000               0.000000000               0.000000000               0.000123525               0.001169832              -0.000039211              -0.000099907               0.000423242               0.000323336               0.000000000               0.000000000               0.000000000               0.000000000               0.000096852               0.001232621              -0.000030924              -0.000117758               0.000450122               0.000332364               0.000000000               0.000000000               0.000000000               0.000000000               0.000069727               0.001292317              -0.000022032              -0.000135392               0.000475898               0.000340507               0.000000000               0.000000000               0.000000000               0.000000000               0.000045089               0.001350563              -0.000013976              -0.000151912               0.000500820               0.000348909               0.000000000               0.000000000               0.000000000               0.000000000               0.000022826               0.001404701              -0.000006849              -0.000167027               0.000523905               0.000356877               0.000000000               0.000000000               0.000000000               0.000000000               0.000016543               0.001439641              -0.000006579              -0.000173751               0.000537792               0.000364041               0.000000000               0.000000000               0.000000000               0.000000000               0.000181469               0.000361103              -0.000176342               0.000022913               0.000112729               0.000135642               0.000000000               0.000000000               0.000000000               0.000000000               0.000133903               0.000424357              -0.000128396              -0.000002831               0.000142395               0.000139564               0.000000000               0.000000000               0.000000000               0.000000000               0.000119221               0.000559689              -0.000077529              -0.000025253               0.000194979               0.000169726               0.000000000               0.000000000               0.000000000               0.000000000               0.000142217               0.000665952              -0.000052060              -0.000029912               0.000231953               0.000202040               0.000000000               0.000000000               0.000000000               0.000000000               0.000182824               0.000755566              -0.000042329              -0.000025887               0.000260482               0.000234595               0.000000000               0.000000000               0.000000000               0.000000000               0.000221997               0.000826182              -0.000042364              -0.000020024               0.000282066               0.000262042               0.000000000               0.000000000               0.000000000               0.000000000               0.000240551               0.000899125              -0.000045285              -0.000022184               0.000307100               0.000284916               0.000000000               0.000000000               0.000000000               0.000000000               0.000228954               0.000977557              -0.000046772              -0.000036337               0.000337961               0.000301624               0.000000000               0.000000000               0.000000000               0.000000000               0.000205109               0.001050530              -0.000048654              -0.000054400               0.000368306               0.000313906               0.000000000               0.000000000               0.000000000               0.000000000               0.000182287               0.001123321              -0.000047553              -0.000072057               0.000398456               0.000326398               0.000000000               0.000000000               0.000000000               0.000000000               0.000160580               0.001199957              -0.000040050              -0.000089777               0.000429907               0.000340130               0.000000000               0.000000000               0.000000000               0.000000000               0.000137930               0.001275757              -0.000031347              -0.000107746               0.000461163               0.000353418               0.000000000               0.000000000               0.000000000               0.000000000               0.000113020               0.001348445              -0.000023610              -0.000126173               0.000491535               0.000365362               0.000000000               0.000000000               0.000000000               0.000000000               0.000088781               0.001419898              -0.000014469              -0.000144194               0.000521359               0.000377165               0.000000000               0.000000000               0.000000000               0.000000000               0.000066427               0.001490158              -0.000006618              -0.000161359               0.000550501               0.000389142               0.000000000               0.000000000               0.000000000               0.000000000               0.000046804               0.001555026              -0.000001698              -0.000176826               0.000577279               0.000400453               0.000000000               0.000000000               0.000000000               0.000000000               0.000037558               0.001590294              -0.000000672              -0.000184702               0.000591660               0.000406958               0.000000000               0.000000000               0.000000000               0.000000000               0.000183603               0.000316667              -0.000164992               0.000029267               0.000095799               0.000125066               0.000000000               0.000000000               0.000000000               0.000000000               0.000143050               0.000399938              -0.000133963               0.000003651               0.000132094               0.000135746               0.000000000               0.000000000               0.000000000               0.000000000               0.000130453               0.000555689              -0.000097086              -0.000020541               0.000192075               0.000171534               0.000000000               0.000000000               0.000000000               0.000000000               0.000151701               0.000680510              -0.000071716              -0.000028176               0.000236226               0.000208051               0.000000000               0.000000000               0.000000000               0.000000000               0.000186214               0.000781052              -0.000055566              -0.000027801               0.000269615               0.000241814               0.000000000               0.000000000               0.000000000               0.000000000               0.000221586               0.000854878              -0.000045797              -0.000023765               0.000292878               0.000269113               0.000000000               0.000000000               0.000000000               0.000000000               0.000246589               0.000925337              -0.000040259              -0.000023196               0.000316175               0.000292978               0.000000000               0.000000000               0.000000000               0.000000000               0.000247485               0.001003275              -0.000040981              -0.000032602               0.000345289               0.000312687               0.000000000               0.000000000               0.000000000               0.000000000               0.000231683               0.001080383              -0.000045295              -0.000048167               0.000376179               0.000328013               0.000000000               0.000000000               0.000000000               0.000000000               0.000213051               0.001154750              -0.000045367              -0.000064449               0.000406396               0.000341947               0.000000000               0.000000000               0.000000000               0.000000000               0.000195006               0.001230987              -0.000041752              -0.000080746               0.000437240               0.000356494               0.000000000               0.000000000               0.000000000               0.000000000               0.000178602               0.001311020              -0.000035764              -0.000096901               0.000469303               0.000372401               0.000000000               0.000000000               0.000000000               0.000000000               0.000159683               0.001388904              -0.000027501              -0.000113732               0.000500874               0.000387142               0.000000000               0.000000000               0.000000000               0.000000000               0.000138549               0.001463865              -0.000019038              -0.000131027               0.000531626               0.000400599               0.000000000               0.000000000               0.000000000               0.000000000               0.000118547               0.001539369              -0.000010563              -0.000147966               0.000562440               0.000414474               0.000000000               0.000000000               0.000000000               0.000000000               0.000100967               0.001616005              -0.000003609              -0.000164138               0.000593375               0.000429238               0.000000000               0.000000000               0.000000000               0.000000000               0.000086630               0.001650917               0.000001596              -0.000173878               0.000608259               0.000434381               0.000000000               0.000000000               0.000000000               0.000000000               0.000180832               0.000265583              -0.000150446               0.000034614               0.000076989               0.000111602               0.000000000               0.000000000               0.000000000               0.000000000               0.000153246               0.000362017              -0.000137318               0.000012215               0.000116599               0.000128814               0.000000000               0.000000000               0.000000000               0.000000000               0.000144654               0.000534099              -0.000113852              -0.000012517               0.000182204               0.000169686               0.000000000               0.000000000               0.000000000               0.000000000               0.000159297               0.000671708              -0.000087525              -0.000024227               0.000231976               0.000207749               0.000000000               0.000000000               0.000000000               0.000000000               0.000183335               0.000776000              -0.000066313              -0.000028249               0.000268080               0.000239831               0.000000000               0.000000000               0.000000000               0.000000000               0.000214256               0.000855739              -0.000049410              -0.000026621               0.000294117               0.000267496               0.000000000               0.000000000               0.000000000               0.000000000               0.000247362               0.000931798              -0.000037398              -0.000023714               0.000318501               0.000294787               0.000000000               0.000000000               0.000000000               0.000000000               0.000267274               0.001013479              -0.000035252              -0.000026457               0.000346642               0.000320185               0.000000000               0.000000000               0.000000000               0.000000000               0.000266095               0.001094552              -0.000039759              -0.000037033               0.000377192               0.000340158               0.000000000               0.000000000               0.000000000               0.000000000               0.000255744               0.001171125              -0.000043037              -0.000050487               0.000407200               0.000356713               0.000000000               0.000000000               0.000000000               0.000000000               0.000243089               0.001243377              -0.000043545              -0.000064264               0.000435876               0.000371612               0.000000000               0.000000000               0.000000000               0.000000000               0.000229586               0.001318110              -0.000040250              -0.000078669               0.000465589               0.000386920               0.000000000               0.000000000               0.000000000               0.000000000               0.000216497               0.001395487              -0.000032331              -0.000093249               0.000496241               0.000402992               0.000000000               0.000000000               0.000000000               0.000000000               0.000200779               0.001470270              -0.000023746              -0.000108491               0.000526249               0.000417758               0.000000000               0.000000000               0.000000000               0.000000000               0.000182815               0.001542845              -0.000014835              -0.000124300               0.000555710               0.000431410               0.000000000               0.000000000               0.000000000               0.000000000               0.000164590               0.001615924              -0.000006049              -0.000140269               0.000585392               0.000445123               0.000000000               0.000000000               0.000000000               0.000000000               0.000146270               0.001644806               0.000001924              -0.000150749               0.000598513               0.000447764               0.000000000               0.000000000               0.000000000               0.000000000               0.000171169               0.000211123              -0.000129853               0.000037798               0.000057774               0.000095572               0.000000000               0.000000000               0.000000000               0.000000000               0.000161762               0.000320500              -0.000132394               0.000020598               0.000099966               0.000120564               0.000000000               0.000000000               0.000000000               0.000000000               0.000159389               0.000501648              -0.000121549              -0.000002935               0.000168193               0.000165257               0.000000000               0.000000000               0.000000000               0.000000000               0.000172353               0.000641733              -0.000098154              -0.000015584               0.000219104               0.000203519               0.000000000               0.000000000               0.000000000               0.000000000               0.000190066               0.000751724              -0.000075847              -0.000022691               0.000258136               0.000235445               0.000000000               0.000000000               0.000000000               0.000000000               0.000216448               0.000847052              -0.000056496              -0.000024714               0.000290586               0.000265872               0.000000000               0.000000000               0.000000000               0.000000000               0.000252077               0.000937955              -0.000041630              -0.000022715               0.000320220               0.000297505               0.000000000               0.000000000               0.000000000               0.000000000               0.000283178               0.001025713              -0.000033995              -0.000022022               0.000349242               0.000327219               0.000000000               0.000000000               0.000000000               0.000000000               0.000296286               0.001109676              -0.000033926              -0.000027602               0.000379089               0.000351487               0.000000000               0.000000000               0.000000000               0.000000000               0.000295239               0.001187376              -0.000036704              -0.000037707               0.000408357               0.000370650               0.000000000               0.000000000               0.000000000               0.000000000               0.000287968               0.001256698              -0.000038709              -0.000049099               0.000435261               0.000386162               0.000000000               0.000000000               0.000000000               0.000000000               0.000277239               0.001323876              -0.000038125              -0.000061520               0.000461794               0.000400275               0.000000000               0.000000000               0.000000000               0.000000000               0.000268654               0.001396809              -0.000033857              -0.000073856               0.000490217               0.000416361               0.000000000               0.000000000               0.000000000               0.000000000               0.000260691               0.001472554              -0.000026502              -0.000086310               0.000519616               0.000433306               0.000000000               0.000000000               0.000000000               0.000000000               0.000249035               0.001544851              -0.000018112              -0.000099718               0.000548184               0.000448466               0.000000000               0.000000000               0.000000000               0.000000000               0.000234060               0.001614186              -0.000009604              -0.000114000               0.000576057               0.000462056               0.000000000               0.000000000               0.000000000               0.000000000               0.000216575               0.001641862              -0.000002033              -0.000124017               0.000588621               0.000464604               0.000000000               0.000000000               0.000000000               0.000000000               0.000151458               0.000164464              -0.000103403               0.000036238               0.000042741               0.000078980               0.000000000               0.000000000               0.000000000               0.000000000               0.000165262               0.000277291              -0.000118064               0.000027312               0.000083326               0.000110637               0.000000000               0.000000000               0.000000000               0.000000000               0.000176684               0.000453530              -0.000119045               0.000009565               0.000147987               0.000157552               0.000000000               0.000000000               0.000000000               0.000000000               0.000190788               0.000596551              -0.000101087              -0.000003024               0.000199856               0.000196833               0.000000000               0.000000000               0.000000000               0.000000000               0.000206240               0.000721145              -0.000081298              -0.000012803               0.000244647               0.000231844               0.000000000               0.000000000               0.000000000               0.000000000               0.000230911               0.000836188              -0.000063357              -0.000017932               0.000284704               0.000266772               0.000000000               0.000000000               0.000000000               0.000000000               0.000262795               0.000939044              -0.000047381              -0.000018832               0.000319289               0.000300457               0.000000000               0.000000000               0.000000000               0.000000000               0.000294385               0.001029937              -0.000034122              -0.000018348               0.000349425               0.000331077               0.000000000               0.000000000               0.000000000               0.000000000               0.000315453               0.001114507              -0.000027548              -0.000021019               0.000378505               0.000357486               0.000000000               0.000000000               0.000000000               0.000000000               0.000325136               0.001194754              -0.000027524              -0.000027418               0.000407387               0.000379969               0.000000000               0.000000000               0.000000000               0.000000000               0.000327527               0.001267251              -0.000029091              -0.000035584               0.000434274               0.000398690               0.000000000               0.000000000               0.000000000               0.000000000               0.000325001               0.001333553              -0.000030482              -0.000044819               0.000459453               0.000414634               0.000000000               0.000000000               0.000000000               0.000000000               0.000321640               0.001402178              -0.000030428              -0.000054657               0.000485607               0.000430950               0.000000000               0.000000000               0.000000000               0.000000000               0.000319637               0.001474224              -0.000025884              -0.000064414               0.000512875               0.000448460               0.000000000               0.000000000               0.000000000               0.000000000               0.000317460               0.001548377              -0.000018826              -0.000074500               0.000540954               0.000466454               0.000000000               0.000000000               0.000000000               0.000000000               0.000312852               0.001621829              -0.000010864              -0.000085409               0.000569074               0.000483665               0.000000000               0.000000000               0.000000000               0.000000000               0.000302386               0.001653461              -0.000004339              -0.000093288               0.000582244               0.000488957               0.000000000               0.000000000               0.000000000               0.000000000               0.000127139               0.000125568              -0.000073911               0.000031981               0.000031195               0.000063176               0.000000000               0.000000000               0.000000000               0.000000000               0.000164778               0.000231845              -0.000094856               0.000032811               0.000066344               0.000099155               0.000000000               0.000000000               0.000000000               0.000000000               0.000193944               0.000401222              -0.000104013               0.000022576               0.000126214               0.000148790               0.000000000               0.000000000               0.000000000               0.000000000               0.000212385               0.000551972              -0.000092722               0.000010648               0.000180440               0.000191087               0.000000000               0.000000000               0.000000000               0.000000000               0.000230091               0.000688161              -0.000078762               0.000000264               0.000229297               0.000229561               0.000000000               0.000000000               0.000000000               0.000000000               0.000251620               0.000813580              -0.000064243              -0.000007340               0.000273637               0.000266297               0.000000000               0.000000000               0.000000000               0.000000000               0.000276131               0.000923610              -0.000047784              -0.000011902               0.000311834               0.000299932               0.000000000               0.000000000               0.000000000               0.000000000               0.000303397               0.001021075              -0.000031694              -0.000013860               0.000344975               0.000331115               0.000000000               0.000000000               0.000000000               0.000000000               0.000329660               0.001112644              -0.000021045              -0.000015458               0.000376030               0.000360573               0.000000000               0.000000000               0.000000000               0.000000000               0.000348820               0.001198877              -0.000018714              -0.000019052               0.000405972               0.000386920               0.000000000               0.000000000               0.000000000               0.000000000               0.000361188               0.001277543              -0.000019407              -0.000024247               0.000433926               0.000409679               0.000000000               0.000000000               0.000000000               0.000000000               0.000368653               0.001347848              -0.000020586              -0.000030236               0.000459357               0.000429121               0.000000000               0.000000000               0.000000000               0.000000000               0.000371539               0.001411093              -0.000021738              -0.000037059               0.000482713               0.000445653               0.000000000               0.000000000               0.000000000               0.000000000               0.000374931               0.001476906              -0.000020118              -0.000044014               0.000506968               0.000462954               0.000000000               0.000000000               0.000000000               0.000000000               0.000382103               0.001550750              -0.000015805              -0.000050555               0.000533763               0.000483208               0.000000000               0.000000000               0.000000000               0.000000000               0.000389312               0.001625202              -0.000008619              -0.000057158               0.000560781               0.000503623               0.000000000               0.000000000               0.000000000               0.000000000               0.000388672               0.001659281              -0.000002914              -0.000061658               0.000573641               0.000511983               0.000000000               0.000000000               0.000000000               0.000000000               0.000103672               0.000096465              -0.000046830               0.000026819               0.000023215               0.000050034               0.000000000               0.000000000               0.000000000               0.000000000               0.000161334               0.000194636              -0.000065789               0.000036170               0.000052821               0.000088992               0.000000000               0.000000000               0.000000000               0.000000000               0.000207943               0.000357585              -0.000077009               0.000033280               0.000108101               0.000141381               0.000000000               0.000000000               0.000000000               0.000000000               0.000235512               0.000511194              -0.000072162               0.000024417               0.000162257               0.000186675               0.000000000               0.000000000               0.000000000               0.000000000               0.000255405               0.000653342              -0.000063106               0.000014109               0.000213075               0.000227184               0.000000000               0.000000000               0.000000000               0.000000000               0.000271788               0.000784400              -0.000051982               0.000003870               0.000260174               0.000264044               0.000000000               0.000000000               0.000000000               0.000000000               0.000290276               0.000901316              -0.000038998              -0.000003811               0.000301706               0.000297895               0.000000000               0.000000000               0.000000000               0.000000000               0.000313732               0.001008900              -0.000026328              -0.000008463               0.000339118               0.000330655               0.000000000               0.000000000               0.000000000               0.000000000               0.000341068               0.001108875              -0.000016329              -0.000010709               0.000373191               0.000362482               0.000000000               0.000000000               0.000000000               0.000000000               0.000366055               0.001200312              -0.000011646              -0.000012768               0.000404356               0.000391588               0.000000000               0.000000000               0.000000000               0.000000000               0.000385798               0.001282990              -0.000010607              -0.000015700               0.000432892               0.000417193               0.000000000               0.000000000               0.000000000               0.000000000               0.000401312               0.001356357              -0.000010416              -0.000019052               0.000458465               0.000439413               0.000000000               0.000000000               0.000000000               0.000000000               0.000411822               0.001417940              -0.000010885              -0.000022809               0.000480245               0.000457436               0.000000000               0.000000000               0.000000000               0.000000000               0.000422391               0.001481012              -0.000011157              -0.000026730               0.000502576               0.000475846               0.000000000               0.000000000               0.000000000               0.000000000               0.000436126               0.001551572              -0.000009374              -0.000030399               0.000527318               0.000496919               0.000000000               0.000000000               0.000000000               0.000000000               0.000450855               0.001621183              -0.000004815              -0.000033577               0.000551581               0.000518004               0.000000000               0.000000000               0.000000000               0.000000000               0.000457518               0.001654566              -0.000001279              -0.000035251               0.000563267               0.000528016               0.000000000               0.000000000               0.000000000               0.000000000               0.000085464               0.000078435              -0.000023049               0.000022245               0.000018730               0.000040974               0.000000000               0.000000000               0.000000000               0.000000000               0.000158374               0.000170066              -0.000033921               0.000038132               0.000043978               0.000082109               0.000000000               0.000000000               0.000000000               0.000000000               0.000219771               0.000327611              -0.000041153               0.000041462               0.000095382               0.000136844               0.000000000               0.000000000               0.000000000               0.000000000               0.000252205               0.000481630              -0.000039614               0.000034373               0.000149084               0.000183457               0.000000000               0.000000000               0.000000000               0.000000000               0.000271916               0.000625836              -0.000034711               0.000023739               0.000200697               0.000224436               0.000000000               0.000000000               0.000000000               0.000000000               0.000286918               0.000760220              -0.000028940               0.000012567               0.000249215               0.000261782               0.000000000               0.000000000               0.000000000               0.000000000               0.000303184               0.000884416              -0.000022363               0.000003142               0.000293755               0.000296897               0.000000000               0.000000000               0.000000000               0.000000000               0.000324148               0.001000556              -0.000015138              -0.000003514               0.000334687               0.000331173               0.000000000               0.000000000               0.000000000               0.000000000               0.000348711               0.001103613              -0.000008850              -0.000007185               0.000370262               0.000363077               0.000000000               0.000000000               0.000000000               0.000000000               0.000375304               0.001197049              -0.000005231              -0.000008892               0.000401976               0.000393084               0.000000000               0.000000000               0.000000000               0.000000000               0.000400500               0.001283169              -0.000004092              -0.000010208               0.000431122               0.000420913               0.000000000               0.000000000               0.000000000               0.000000000               0.000421808               0.001358399              -0.000003542              -0.000011622               0.000456669               0.000445047               0.000000000               0.000000000               0.000000000               0.000000000               0.000438711               0.001421771              -0.000003431              -0.000013205               0.000478320               0.000465116               0.000000000               0.000000000               0.000000000               0.000000000               0.000454503               0.001484281              -0.000003831              -0.000015096               0.000499788               0.000484691               0.000000000               0.000000000               0.000000000               0.000000000               0.000470824               0.001549790              -0.000003032              -0.000017165               0.000522313               0.000505148               0.000000000               0.000000000               0.000000000               0.000000000               0.000488035               0.001615990              -0.000001282              -0.000018986               0.000544986               0.000526001               0.000000000               0.000000000               0.000000000               0.000000000               0.000496656               0.001649415              -0.000000172              -0.000019931               0.000556443               0.000536512               0.000000000               0.000000000               0.000000000               0.000000000               0.000000000               0.000000000               0.000000000               0.000000000               0.000000000               0.000000000               0.000000000               0.000000000               0.000000000               0.000000000               0.000000000               0.000000000               0.000000000               0.000000000               0.000000000               0.000000000               0.000000000               0.000000000               0.000000000               0.000000000               0.000000000               0.000000000               0.000000000               0.000000000               0.000000000               0.000000000               0.000000000               0.000000000               0.000000000               0.000000000               0.000000000               0.000000000               0.000000000               0.000000000               0.000000000               0.000000000               0.000000000               0.000000000               0.000000000               0.000000000               0.000000000               0.000000000               0.000000000               0.000000000               0.000000000               0.000000000               0.000000000               0.000000000               0.000000000               0.000000000               0.000000000               0.000000000               0.000000000               0.000000000               0.000000000               0.000000000               0.000000000               0.000000000               0.000000000               0.000000000               0.000000000               0.000000000               0.000000000               0.000000000               0.000000000               0.000000000               0.000000000               0.000000000               0.000000000               0.000000000               0.000000000               0.000000000               0.000000000               0.000000000               0.000000000               0.000000000               0.000000000               0.000000000               0.000000000               0.000000000               0.000000000               0.000000000               0.000000000               0.000000000               0.000000000               0.000000000               0.000000000               0.000000000               0.000000000               0.000000000               0.000000000               0.000000000               0.000000000               0.000000000               0.000000000               0.000000000               0.000000000               0.000000000               0.000000000               0.000000000               0.000000000               0.000000000               0.000000000               0.000000000               0.000000000               0.000000000               0.000000000               0.000000000               0.000000000               0.000000000               0.000000000               0.000000000               0.000000000               0.000000000               0.000000000               0.000000000               0.000000000               0.000000000               0.000000000               0.000000000               0.000000000               0.000000000               0.000000000               0.000000000               0.000000000               0.000000000               0.000000000               0.000000000               0.000000000               0.000000000               0.000000000               0.000000000               0.000000000               0.000000000               0.000000000               0.000000000               0.000000000               0.000000000               0.000000000               0.000000000               0.000000000               0.000000000               0.000000000               0.000000000               0.000000000               0.000000000               0.000000000               0.000000000               0.000000000               0.000000000               0.000000000               0.000000000               0.000000000               0.000000000               0.000000000               0.000000000               0.000000000               0.000000000               0.000000000               0.000000000               0.000000000               0.000000000               0.000000000               0.000000000               0.000000000               0.000000000               0.000000000               0.000000000               0.000000000               0.000000000               0.000000000               0.000000000               0.000000000               0.000000000               0.000000000               0.000000000               0.000000000               0.000000000               0.000000000               0.000000000               0.000000000               0.000000000               0.000000000               0.000000000               0.000000000               0.000000000               0.000000000               0.000000000               0.000000000               0.000000000               0.000000000               0.000000000               0.000000000               0.000000000               0.000000000               0.000000000               0.000000000               0.000000000               0.000000000               0.000000000               0.000000000               0.000000000               0.000000000               0.000000000               0.000000000               0.000000000               0.000000000               0.000000000               0.000000000               0.000000000               0.000000000               0.000000000               0.000000000               0.000000000               0.000000000               0.000000000               0.000000000               0.000000000               0.000000000               0.000000000               0.000000000               0.000000000               0.000000000               0.000000000               0.000000000               0.000000000               0.000000000               0.000000000               0.000000000               0.000000000               0.000000000               0.000000000               0.000000000               0.000000000               0.000000000               0.000000000               0.000000000               0.000000000               0.000000000               0.000000000               0.000000000               0.000000000               0.000000000               0.000000000               0.000000000               0.000000000               0.000000000               0.000000000               0.000000000               0.000000000               0.000000000               0.000000000               0.000000000               0.000000000               0.000000000               0.000000000               0.000000000               0.000000000               0.000000000               0.000000000               0.000000000               0.000000000               0.000000000               0.000000000               0.000000000               0.000000000               0.000000000               0.000000000               0.000000000               0.000000000               0.000000000               0.000000000               0.000000000               0.000000000               0.000000000               0.000000000               0.000000000               0.000000000               0.000000000               0.000000000               0.000000000               0.000000000               0.000000000               0.000000000               0.000000000               0.000000000               0.000000000               0.000000000               0.000000000               0.000000000               0.000000000               0.000000000               0.000000000               0.000000000               0.000000000               0.000000000               0.000000000               0.000000000               0.000000000               0.000000000               0.000000000               0.000000000               0.000000000               0.000000000               0.000000000               0.000000000               0.000000000               0.000000000               0.000000000               0.000000000               0.000000000               0.000000000               0.000000000               0.000000000               0.000000000               0.000000000               0.000000000               0.000000000               0.000000000               0.000000000               0.000000000               0.000000000               0.000000000               0.000000000               0.000000000               0.000000000               0.000000000               0.000000000               0.000000000               0.000000000               0.000000000               0.000000000               0.000000000               0.000000000               0.000000000               0.000000000               0.000000000               0.000000000               0.000000000               0.000000000               0.000077808               0.000678187               0.000054503              -0.000055595               0.000244592               0.000188997               0.000000000               0.000000000               0.000000000               0.000000000               0.000098700               0.000580636               0.000037215              -0.000035567               0.000205399               0.000169832               0.000000000               0.000000000               0.000000000               0.000000000               0.000145260               0.000511261               0.000016407              -0.000009435               0.000173564               0.000164128               0.000000000               0.000000000               0.000000000               0.000000000               0.000159943               0.000485432               0.000004462              -0.000000701               0.000162043               0.000161342               0.000000000               0.000000000               0.000000000               0.000000000               0.000158119               0.000482845              -0.000001842              -0.000001061               0.000161300               0.000160239               0.000000000               0.000000000               0.000000000               0.000000000               0.000154564               0.000486659              -0.000000574              -0.000002871               0.000163175               0.000160304               0.000000000               0.000000000               0.000000000               0.000000000               0.000154431               0.000481790               0.000006722              -0.000002312               0.000161366               0.000159053               0.000000000               0.000000000               0.000000000               0.000000000               0.000153146               0.000467724               0.000009565              -0.000001036               0.000156252               0.000155216               0.000000000               0.000000000               0.000000000               0.000000000               0.000152382               0.000455367               0.000010508               0.000000222               0.000151713               0.000151936               0.000000000               0.000000000               0.000000000               0.000000000               0.000152605               0.000444305               0.000012811               0.000001689               0.000147537               0.000149226               0.000000000               0.000000000               0.000000000               0.000000000               0.000148373               0.000435556               0.000012995               0.000001195               0.000144786               0.000145981               0.000000000               0.000000000               0.000000000               0.000000000               0.000138714               0.000432453               0.000012218              -0.000002039               0.000144829               0.000142790               0.000000000               0.000000000               0.000000000               0.000000000               0.000124131               0.000436171               0.000010579              -0.000007972               0.000148046               0.000140074               0.000000000               0.000000000               0.000000000               0.000000000               0.000101662               0.000446363               0.000007747              -0.000017672               0.000154677               0.000137005               0.000000000               0.000000000               0.000000000               0.000000000               0.000072155               0.000463007               0.000004769              -0.000030818               0.000164607               0.000133789               0.000000000               0.000000000               0.000000000               0.000000000               0.000037717               0.000485920               0.000002103              -0.000046596               0.000177504               0.000130908               0.000000000               0.000000000               0.000000000               0.000000000               0.000022794               0.000507182               0.000002103              -0.000054850               0.000187342               0.000132493               0.000000000               0.000000000               0.000000000               0.000000000               0.000091621               0.000653330               0.000102590              -0.000047308               0.000233544               0.000186236               0.000000000               0.000000000               0.000000000               0.000000000               0.000104686               0.000561229               0.000069275              -0.000030896               0.000197373               0.000166477               0.000000000               0.000000000               0.000000000               0.000000000               0.000142205               0.000502622               0.000029989              -0.000009501               0.000170706               0.000161205               0.000000000               0.000000000               0.000000000               0.000000000               0.000154459               0.000483887               0.000006984              -0.000002564               0.000162149               0.000159585               0.000000000               0.000000000               0.000000000               0.000000000               0.000154343               0.000484193              -0.000003352              -0.000002646               0.000162278               0.000159632               0.000000000               0.000000000               0.000000000               0.000000000               0.000151803               0.000484957               0.000000422              -0.000003694               0.000162882               0.000159188               0.000000000               0.000000000               0.000000000               0.000000000               0.000154145               0.000480381               0.000012959              -0.000002243               0.000160873               0.000158630               0.000000000               0.000000000               0.000000000               0.000000000               0.000155520               0.000474833               0.000017751              -0.000001034               0.000158621               0.000157587               0.000000000               0.000000000               0.000000000               0.000000000               0.000153951               0.000473660               0.000018835              -0.000001476               0.000158377               0.000156901               0.000000000               0.000000000               0.000000000               0.000000000               0.000148388               0.000475310               0.000022768              -0.000003768               0.000159691               0.000155923               0.000000000               0.000000000               0.000000000               0.000000000               0.000136118               0.000480732               0.000023914              -0.000009047               0.000163258               0.000154211               0.000000000               0.000000000               0.000000000               0.000000000               0.000120460               0.000490503               0.000023221              -0.000016140               0.000168879               0.000152739               0.000000000               0.000000000               0.000000000               0.000000000               0.000104138               0.000505421               0.000021183              -0.000024126               0.000176514               0.000152388               0.000000000               0.000000000               0.000000000               0.000000000               0.000083547               0.000524234               0.000017197              -0.000034199               0.000186143               0.000151944               0.000000000               0.000000000               0.000000000               0.000000000               0.000058185               0.000546907               0.000012132              -0.000046544               0.000197815               0.000151271               0.000000000               0.000000000               0.000000000               0.000000000               0.000029953               0.000574633               0.000006294              -0.000060597               0.000211741               0.000151145               0.000000000               0.000000000               0.000000000               0.000000000               0.000019708               0.000598999               0.000005601              -0.000067484               0.000222159               0.000154675               0.000000000               0.000000000               0.000000000               0.000000000               0.000111036               0.000610947               0.000143859              -0.000034730               0.000215224               0.000180494               0.000000000               0.000000000               0.000000000               0.000000000               0.000113993               0.000532319               0.000094374              -0.000023793               0.000185369               0.000161576               0.000000000               0.000000000               0.000000000               0.000000000               0.000138423               0.000491415               0.000037811              -0.000009518               0.000166976               0.000157458               0.000000000               0.000000000               0.000000000               0.000000000               0.000143218               0.000486252               0.000008852              -0.000007075               0.000164441               0.000157366               0.000000000               0.000000000               0.000000000               0.000000000               0.000144248               0.000489898              -0.000002748              -0.000007144               0.000165679               0.000158535               0.000000000               0.000000000               0.000000000               0.000000000               0.000149611               0.000493782               0.000003313              -0.000005619               0.000166465               0.000160847               0.000000000               0.000000000               0.000000000               0.000000000               0.000159068               0.000494127               0.000018874              -0.000002115               0.000165412               0.000163297               0.000000000               0.000000000               0.000000000               0.000000000               0.000164673               0.000502253               0.000025463              -0.000001029               0.000167759               0.000166730               0.000000000               0.000000000               0.000000000               0.000000000               0.000158881               0.000515165               0.000028532              -0.000004815               0.000173325               0.000168510               0.000000000               0.000000000               0.000000000               0.000000000               0.000146400               0.000534582               0.000033938              -0.000011923               0.000182167               0.000170244               0.000000000               0.000000000               0.000000000               0.000000000               0.000128055               0.000559749               0.000035876              -0.000021948               0.000193897               0.000171949               0.000000000               0.000000000               0.000000000               0.000000000               0.000106609               0.000588682               0.000035909              -0.000033607               0.000207428               0.000173821               0.000000000               0.000000000               0.000000000               0.000000000               0.000087420               0.000621349               0.000033624              -0.000044886               0.000222076               0.000177190               0.000000000               0.000000000               0.000000000               0.000000000               0.000067203               0.000655206               0.000028674              -0.000056699               0.000237300               0.000180600               0.000000000               0.000000000               0.000000000               0.000000000               0.000044336               0.000689084               0.000021537              -0.000069509               0.000252862               0.000183353               0.000000000               0.000000000               0.000000000               0.000000000               0.000021961               0.000724229               0.000011897              -0.000082293               0.000268838               0.000186545               0.000000000               0.000000000               0.000000000               0.000000000               0.000016268               0.000751158               0.000009440              -0.000087794               0.000279648               0.000191854               0.000000000               0.000000000               0.000000000               0.000000000               0.000134620               0.000566124               0.000169481              -0.000020283               0.000195467               0.000175184               0.000000000               0.000000000               0.000000000               0.000000000               0.000122593               0.000502781               0.000109119              -0.000016875               0.000173217               0.000156342               0.000000000               0.000000000               0.000000000               0.000000000               0.000131584               0.000485550               0.000042848              -0.000011350               0.000165632               0.000154282               0.000000000               0.000000000               0.000000000               0.000000000               0.000130421               0.000496378               0.000011562              -0.000013139               0.000169838               0.000156698               0.000000000               0.000000000               0.000000000               0.000000000               0.000136651               0.000511818               0.000000951              -0.000012733               0.000174849               0.000162116               0.000000000               0.000000000               0.000000000               0.000000000               0.000149691               0.000522650               0.000010446              -0.000009197               0.000177281               0.000168084               0.000000000               0.000000000               0.000000000               0.000000000               0.000164279               0.000537064               0.000027764              -0.000005528               0.000180862               0.000175334               0.000000000               0.000000000               0.000000000               0.000000000               0.000171970               0.000564241               0.000034818              -0.000006041               0.000190092               0.000184051               0.000000000               0.000000000               0.000000000               0.000000000               0.000166759               0.000597439               0.000038188              -0.000012145               0.000203193               0.000191048               0.000000000               0.000000000               0.000000000               0.000000000               0.000153786               0.000637867               0.000042797              -0.000022063               0.000219975               0.000197911               0.000000000               0.000000000               0.000000000               0.000000000               0.000132394               0.000680804               0.000044334              -0.000035453               0.000238750               0.000203297               0.000000000               0.000000000               0.000000000               0.000000000               0.000108934               0.000726923               0.000043162              -0.000050015               0.000258977               0.000208962               0.000000000               0.000000000               0.000000000               0.000000000               0.000088263               0.000775033               0.000039588              -0.000063780               0.000279602               0.000215821               0.000000000               0.000000000               0.000000000               0.000000000               0.000065743               0.000821550               0.000033444              -0.000078040               0.000299861               0.000221821               0.000000000               0.000000000               0.000000000               0.000000000               0.000041620               0.000865160               0.000024870              -0.000092537               0.000319230               0.000226692               0.000000000               0.000000000               0.000000000               0.000000000               0.000019975               0.000905849               0.000013476              -0.000105740               0.000337194               0.000231453               0.000000000               0.000000000               0.000000000               0.000000000               0.000015176               0.000933699               0.000010137              -0.000111021               0.000348237               0.000237216               0.000000000               0.000000000               0.000000000               0.000000000               0.000153412               0.000516486               0.000184601              -0.000007032               0.000174504               0.000167473               0.000000000               0.000000000               0.000000000               0.000000000               0.000125316               0.000472906               0.000117911              -0.000012120               0.000161674               0.000149554               0.000000000               0.000000000               0.000000000               0.000000000               0.000121905               0.000488981               0.000047770              -0.000015408               0.000168128               0.000152720               0.000000000               0.000000000               0.000000000               0.000000000               0.000121405               0.000518596               0.000016734              -0.000019298               0.000179296               0.000159998               0.000000000               0.000000000               0.000000000               0.000000000               0.000132704               0.000550567               0.000009188              -0.000019057               0.000189873               0.000170816               0.000000000               0.000000000               0.000000000               0.000000000               0.000154907               0.000582129               0.000019276              -0.000014676               0.000198933               0.000184257               0.000000000               0.000000000               0.000000000               0.000000000               0.000178681               0.000622164               0.000034806              -0.000010765               0.000210974               0.000200209               0.000000000               0.000000000               0.000000000               0.000000000               0.000185526               0.000669063               0.000040853              -0.000014061               0.000227706               0.000213645               0.000000000               0.000000000               0.000000000               0.000000000               0.000176774               0.000721690               0.000043636              -0.000023921               0.000248535               0.000224614               0.000000000               0.000000000               0.000000000               0.000000000               0.000160099               0.000775827               0.000047820              -0.000036941               0.000270920               0.000233979               0.000000000               0.000000000               0.000000000               0.000000000               0.000137815               0.000830669               0.000049017              -0.000052153               0.000294271               0.000242118               0.000000000               0.000000000               0.000000000               0.000000000               0.000116081               0.000885695               0.000046002              -0.000067182               0.000317623               0.000250441               0.000000000               0.000000000               0.000000000               0.000000000               0.000095406               0.000940051               0.000040654              -0.000081729               0.000340590               0.000258861               0.000000000               0.000000000               0.000000000               0.000000000               0.000071213               0.000990324               0.000033016              -0.000097085               0.000362466               0.000265381               0.000000000               0.000000000               0.000000000               0.000000000               0.000045815               0.001035912               0.000023579              -0.000112308               0.000382737               0.000270428               0.000000000               0.000000000               0.000000000               0.000000000               0.000022641               0.001076848               0.000012318              -0.000126115               0.000400984               0.000274869               0.000000000               0.000000000               0.000000000               0.000000000               0.000016754               0.001103950               0.000009164              -0.000131711               0.000411883               0.000280173               0.000000000               0.000000000               0.000000000               0.000000000               0.000167511               0.000460761               0.000191368               0.000005221               0.000151845               0.000157066               0.000000000               0.000000000               0.000000000               0.000000000               0.000127128               0.000447041               0.000122083              -0.000008207               0.000151748               0.000143541               0.000000000               0.000000000               0.000000000               0.000000000               0.000113962               0.000502967               0.000054421              -0.000020135               0.000174366               0.000154231               0.000000000               0.000000000               0.000000000               0.000000000               0.000117612               0.000559673               0.000027039              -0.000025855               0.000195174               0.000169319               0.000000000               0.000000000               0.000000000               0.000000000               0.000141850               0.000615210               0.000018051              -0.000023707               0.000212970               0.000189263               0.000000000               0.000000000               0.000000000               0.000000000               0.000175132               0.000669944               0.000026755              -0.000018068               0.000229335               0.000211267               0.000000000               0.000000000               0.000000000               0.000000000               0.000199785               0.000725672               0.000041953              -0.000015789               0.000247151               0.000231362               0.000000000               0.000000000               0.000000000               0.000000000               0.000203492               0.000788994               0.000047600              -0.000022315               0.000270434               0.000248119               0.000000000               0.000000000               0.000000000               0.000000000               0.000189674               0.000854645               0.000050190              -0.000035703               0.000296780               0.000261077               0.000000000               0.000000000               0.000000000               0.000000000               0.000167691               0.000915477               0.000053143              -0.000051550               0.000322340               0.000270789               0.000000000               0.000000000               0.000000000               0.000000000               0.000142533               0.000975587               0.000051450              -0.000068498               0.000348025               0.000279527               0.000000000               0.000000000               0.000000000               0.000000000               0.000120334               0.001035468               0.000045772              -0.000084308               0.000373255               0.000288947               0.000000000               0.000000000               0.000000000               0.000000000               0.000098068               0.001091978               0.000037940              -0.000099721               0.000397229               0.000297508               0.000000000               0.000000000               0.000000000               0.000000000               0.000071843               0.001143394               0.000029493              -0.000115983               0.000419789               0.000303806               0.000000000               0.000000000               0.000000000               0.000000000               0.000046306               0.001190273               0.000020015              -0.000131419               0.000440560               0.000309141               0.000000000               0.000000000               0.000000000               0.000000000               0.000023501               0.001233121               0.000010027              -0.000145327               0.000459479               0.000314152               0.000000000               0.000000000               0.000000000               0.000000000               0.000017640               0.001262060               0.000008269              -0.000151142               0.000471063               0.000319921               0.000000000               0.000000000               0.000000000               0.000000000               0.000175369               0.000405905               0.000187033               0.000015025               0.000130292               0.000145317               0.000000000               0.000000000               0.000000000               0.000000000               0.000128185               0.000431629               0.000124950              -0.000005884               0.000145836               0.000139952               0.000000000               0.000000000               0.000000000               0.000000000               0.000114305               0.000530650               0.000064129              -0.000023467               0.000184704               0.000161237               0.000000000               0.000000000               0.000000000               0.000000000               0.000128391               0.000616490               0.000038465              -0.000028915               0.000215133               0.000186218               0.000000000               0.000000000               0.000000000               0.000000000               0.000162787               0.000693508               0.000030300              -0.000025643               0.000239715               0.000214071               0.000000000               0.000000000               0.000000000               0.000000000               0.000201696               0.000759604               0.000037875              -0.000019314               0.000259637               0.000240322               0.000000000               0.000000000               0.000000000               0.000000000               0.000223602               0.000826439               0.000048689              -0.000019454               0.000281962               0.000262508               0.000000000               0.000000000               0.000000000               0.000000000               0.000220170               0.000901053               0.000051010              -0.000030068               0.000310370               0.000280303               0.000000000               0.000000000               0.000000000               0.000000000               0.000199163               0.000970759               0.000052362              -0.000046659               0.000339136               0.000292477               0.000000000               0.000000000               0.000000000               0.000000000               0.000173829               0.001036871               0.000053757              -0.000064423               0.000367095               0.000302672               0.000000000               0.000000000               0.000000000               0.000000000               0.000148193               0.001103180               0.000047585              -0.000082325               0.000395165               0.000312840               0.000000000               0.000000000               0.000000000               0.000000000               0.000123525               0.001169832               0.000039211              -0.000099907               0.000423242               0.000323336               0.000000000               0.000000000               0.000000000               0.000000000               0.000096852               0.001232621               0.000030924              -0.000117758               0.000450122               0.000332364               0.000000000               0.000000000               0.000000000               0.000000000               0.000069727               0.001292317               0.000022032              -0.000135392               0.000475898               0.000340507               0.000000000               0.000000000               0.000000000               0.000000000               0.000045089               0.001350563               0.000013976              -0.000151912               0.000500820               0.000348909               0.000000000               0.000000000               0.000000000               0.000000000               0.000022826               0.001404701               0.000006849              -0.000167027               0.000523905               0.000356877               0.000000000               0.000000000               0.000000000               0.000000000               0.000016543               0.001439641               0.000006579              -0.000173751               0.000537792               0.000364041               0.000000000               0.000000000               0.000000000               0.000000000               0.000181469               0.000361103               0.000176342               0.000022913               0.000112729               0.000135642               0.000000000               0.000000000               0.000000000               0.000000000               0.000133903               0.000424357               0.000128396              -0.000002831               0.000142395               0.000139564               0.000000000               0.000000000               0.000000000               0.000000000               0.000119221               0.000559689               0.000077529              -0.000025253               0.000194979               0.000169726               0.000000000               0.000000000               0.000000000               0.000000000               0.000142217               0.000665952               0.000052060              -0.000029912               0.000231953               0.000202040               0.000000000               0.000000000               0.000000000               0.000000000               0.000182824               0.000755566               0.000042329              -0.000025887               0.000260482               0.000234595               0.000000000               0.000000000               0.000000000               0.000000000               0.000221997               0.000826182               0.000042364              -0.000020024               0.000282066               0.000262042               0.000000000               0.000000000               0.000000000               0.000000000               0.000240551               0.000899125               0.000045285              -0.000022184               0.000307100               0.000284916               0.000000000               0.000000000               0.000000000               0.000000000               0.000228954               0.000977557               0.000046772              -0.000036337               0.000337961               0.000301624               0.000000000               0.000000000               0.000000000               0.000000000               0.000205109               0.001050530               0.000048654              -0.000054400               0.000368306               0.000313906               0.000000000               0.000000000               0.000000000               0.000000000               0.000182287               0.001123321               0.000047553              -0.000072057               0.000398456               0.000326398               0.000000000               0.000000000               0.000000000               0.000000000               0.000160580               0.001199957               0.000040050              -0.000089777               0.000429907               0.000340130               0.000000000               0.000000000               0.000000000               0.000000000               0.000137930               0.001275757               0.000031347              -0.000107746               0.000461163               0.000353418               0.000000000               0.000000000               0.000000000               0.000000000               0.000113020               0.001348445               0.000023610              -0.000126173               0.000491535               0.000365362               0.000000000               0.000000000               0.000000000               0.000000000               0.000088781               0.001419898               0.000014469              -0.000144194               0.000521359               0.000377165               0.000000000               0.000000000               0.000000000               0.000000000               0.000066427               0.001490158               0.000006618              -0.000161359               0.000550501               0.000389142               0.000000000               0.000000000               0.000000000               0.000000000               0.000046804               0.001555026               0.000001698              -0.000176826               0.000577279               0.000400453               0.000000000               0.000000000               0.000000000               0.000000000               0.000037558               0.001590294               0.000000672              -0.000184702               0.000591660               0.000406958               0.000000000               0.000000000               0.000000000               0.000000000               0.000183603               0.000316667               0.000164992               0.000029267               0.000095799               0.000125066               0.000000000               0.000000000               0.000000000               0.000000000               0.000143050               0.000399938               0.000133963               0.000003651               0.000132094               0.000135746               0.000000000               0.000000000               0.000000000               0.000000000               0.000130453               0.000555689               0.000097086              -0.000020541               0.000192075               0.000171534               0.000000000               0.000000000               0.000000000               0.000000000               0.000151701               0.000680510               0.000071716              -0.000028176               0.000236226               0.000208051               0.000000000               0.000000000               0.000000000               0.000000000               0.000186214               0.000781052               0.000055566              -0.000027801               0.000269615               0.000241814               0.000000000               0.000000000               0.000000000               0.000000000               0.000221586               0.000854878               0.000045797              -0.000023765               0.000292878               0.000269113               0.000000000               0.000000000               0.000000000               0.000000000               0.000246589               0.000925337               0.000040259              -0.000023196               0.000316175               0.000292978               0.000000000               0.000000000               0.000000000               0.000000000               0.000247485               0.001003275               0.000040981              -0.000032602               0.000345289               0.000312687               0.000000000               0.000000000               0.000000000               0.000000000               0.000231683               0.001080383               0.000045295              -0.000048167               0.000376179               0.000328013               0.000000000               0.000000000               0.000000000               0.000000000               0.000213051               0.001154750               0.000045367              -0.000064449               0.000406396               0.000341947               0.000000000               0.000000000               0.000000000               0.000000000               0.000195006               0.001230987               0.000041752              -0.000080746               0.000437240               0.000356494               0.000000000               0.000000000               0.000000000               0.000000000               0.000178602               0.001311020               0.000035764              -0.000096901               0.000469303               0.000372401               0.000000000               0.000000000               0.000000000               0.000000000               0.000159683               0.001388904               0.000027501              -0.000113732               0.000500874               0.000387142               0.000000000               0.000000000               0.000000000               0.000000000               0.000138549               0.001463865               0.000019038              -0.000131027               0.000531626               0.000400599               0.000000000               0.000000000               0.000000000               0.000000000               0.000118547               0.001539369               0.000010563              -0.000147966               0.000562440               0.000414474               0.000000000               0.000000000               0.000000000               0.000000000               0.000100967               0.001616005               0.000003609              -0.000164138               0.000593375               0.000429238               0.000000000               0.000000000               0.000000000               0.000000000               0.000086630               0.001650917              -0.000001596              -0.000173878               0.000608259               0.000434381               0.000000000               0.000000000               0.000000000               0.000000000               0.000180832               0.000265583               0.000150446               0.000034614               0.000076989               0.000111602               0.000000000               0.000000000               0.000000000               0.000000000               0.000153246               0.000362017               0.000137318               0.000012215               0.000116599               0.000128814               0.000000000               0.000000000               0.000000000               0.000000000               0.000144654               0.000534099               0.000113852              -0.000012517               0.000182204               0.000169686               0.000000000               0.000000000               0.000000000               0.000000000               0.000159297               0.000671708               0.000087525              -0.000024227               0.000231976               0.000207749               0.000000000               0.000000000               0.000000000               0.000000000               0.000183335               0.000776000               0.000066313              -0.000028249               0.000268080               0.000239831               0.000000000               0.000000000               0.000000000               0.000000000               0.000214256               0.000855739               0.000049410              -0.000026621               0.000294117               0.000267496               0.000000000               0.000000000               0.000000000               0.000000000               0.000247362               0.000931798               0.000037398              -0.000023714               0.000318501               0.000294787               0.000000000               0.000000000               0.000000000               0.000000000               0.000267274               0.001013479               0.000035252              -0.000026457               0.000346642               0.000320185               0.000000000               0.000000000               0.000000000               0.000000000               0.000266095               0.001094552               0.000039759              -0.000037033               0.000377192               0.000340158               0.000000000               0.000000000               0.000000000               0.000000000               0.000255744               0.001171125               0.000043037              -0.000050487               0.000407200               0.000356713               0.000000000               0.000000000               0.000000000               0.000000000               0.000243089               0.001243377               0.000043545              -0.000064264               0.000435876               0.000371612               0.000000000               0.000000000               0.000000000               0.000000000               0.000229586               0.001318110               0.000040250              -0.000078669               0.000465589               0.000386920               0.000000000               0.000000000               0.000000000               0.000000000               0.000216497               0.001395487               0.000032331              -0.000093249               0.000496241               0.000402992               0.000000000               0.000000000               0.000000000               0.000000000               0.000200779               0.001470270               0.000023746              -0.000108491               0.000526249               0.000417758               0.000000000               0.000000000               0.000000000               0.000000000               0.000182815               0.001542845               0.000014835              -0.000124300               0.000555710               0.000431410               0.000000000               0.000000000               0.000000000               0.000000000               0.000164590               0.001615924               0.000006049              -0.000140269               0.000585392               0.000445123               0.000000000               0.000000000               0.000000000               0.000000000               0.000146270               0.001644806              -0.000001924              -0.000150749               0.000598513               0.000447764               0.000000000               0.000000000               0.000000000               0.000000000               0.000171169               0.000211123               0.000129853               0.000037798               0.000057774               0.000095572               0.000000000               0.000000000               0.000000000               0.000000000               0.000161762               0.000320500               0.000132394               0.000020598               0.000099966               0.000120564               0.000000000               0.000000000               0.000000000               0.000000000               0.000159389               0.000501648               0.000121549              -0.000002935               0.000168193               0.000165257               0.000000000               0.000000000               0.000000000               0.000000000               0.000172353               0.000641733               0.000098154              -0.000015584               0.000219104               0.000203519               0.000000000               0.000000000               0.000000000               0.000000000               0.000190066               0.000751724               0.000075847              -0.000022691               0.000258136               0.000235445               0.000000000               0.000000000               0.000000000               0.000000000               0.000216448               0.000847052               0.000056496              -0.000024714               0.000290586               0.000265872               0.000000000               0.000000000               0.000000000               0.000000000               0.000252077               0.000937955               0.000041630              -0.000022715               0.000320220               0.000297505               0.000000000               0.000000000               0.000000000               0.000000000               0.000283178               0.001025713               0.000033995              -0.000022022               0.000349242               0.000327219               0.000000000               0.000000000               0.000000000               0.000000000               0.000296286               0.001109676               0.000033926              -0.000027602               0.000379089               0.000351487               0.000000000               0.000000000               0.000000000               0.000000000               0.000295239               0.001187376               0.000036704              -0.000037707               0.000408357               0.000370650               0.000000000               0.000000000               0.000000000               0.000000000               0.000287968               0.001256698               0.000038709              -0.000049099               0.000435261               0.000386162               0.000000000               0.000000000               0.000000000               0.000000000               0.000277239               0.001323876               0.000038125              -0.000061520               0.000461794               0.000400275               0.000000000               0.000000000               0.000000000               0.000000000               0.000268654               0.001396809               0.000033857              -0.000073856               0.000490217               0.000416361               0.000000000               0.000000000               0.000000000               0.000000000               0.000260691               0.001472554               0.000026502              -0.000086310               0.000519616               0.000433306               0.000000000               0.000000000               0.000000000               0.000000000               0.000249035               0.001544851               0.000018112              -0.000099718               0.000548184               0.000448466               0.000000000               0.000000000               0.000000000               0.000000000               0.000234060               0.001614186               0.000009604              -0.000114000               0.000576057               0.000462056               0.000000000               0.000000000               0.000000000               0.000000000               0.000216575               0.001641862               0.000002033              -0.000124017               0.000588621               0.000464604               0.000000000               0.000000000               0.000000000               0.000000000               0.000151458               0.000164464               0.000103403               0.000036238               0.000042741               0.000078980               0.000000000               0.000000000               0.000000000               0.000000000               0.000165262               0.000277291               0.000118064               0.000027312               0.000083326               0.000110637               0.000000000               0.000000000               0.000000000               0.000000000               0.000176684               0.000453530               0.000119045               0.000009565               0.000147987               0.000157552               0.000000000               0.000000000               0.000000000               0.000000000               0.000190788               0.000596551               0.000101087              -0.000003024               0.000199856               0.000196833               0.000000000               0.000000000               0.000000000               0.000000000               0.000206240               0.000721145               0.000081298              -0.000012803               0.000244647               0.000231844               0.000000000               0.000000000               0.000000000               0.000000000               0.000230911               0.000836188               0.000063357              -0.000017932               0.000284704               0.000266772               0.000000000               0.000000000               0.000000000               0.000000000               0.000262795               0.000939044               0.000047381              -0.000018832               0.000319289               0.000300457               0.000000000               0.000000000               0.000000000               0.000000000               0.000294385               0.001029937               0.000034122              -0.000018348               0.000349425               0.000331077               0.000000000               0.000000000               0.000000000               0.000000000               0.000315453               0.001114507               0.000027548              -0.000021019               0.000378505               0.000357486               0.000000000               0.000000000               0.000000000               0.000000000               0.000325136               0.001194754               0.000027524              -0.000027418               0.000407387               0.000379969               0.000000000               0.000000000               0.000000000               0.000000000               0.000327527               0.001267251               0.000029091              -0.000035584               0.000434274               0.000398690               0.000000000               0.000000000               0.000000000               0.000000000               0.000325001               0.001333553               0.000030482              -0.000044819               0.000459453               0.000414634               0.000000000               0.000000000               0.000000000               0.000000000               0.000321640               0.001402178               0.000030428              -0.000054657               0.000485607               0.000430950               0.000000000               0.000000000               0.000000000               0.000000000               0.000319637               0.001474224               0.000025884              -0.000064414               0.000512875               0.000448460               0.000000000               0.000000000               0.000000000               0.000000000               0.000317460               0.001548377               0.000018826              -0.000074500               0.000540954               0.000466454               0.000000000               0.000000000               0.000000000               0.000000000               0.000312852               0.001621829               0.000010864              -0.000085409               0.000569074               0.000483665               0.000000000               0.000000000               0.000000000               0.000000000               0.000302386               0.001653461               0.000004339              -0.000093288               0.000582244               0.000488957               0.000000000               0.000000000               0.000000000               0.000000000               0.000127139               0.000125568               0.000073911               0.000031981               0.000031195               0.000063176               0.000000000               0.000000000               0.000000000               0.000000000               0.000164778               0.000231845               0.000094856               0.000032811               0.000066344               0.000099155               0.000000000               0.000000000               0.000000000               0.000000000               0.000193944               0.000401222               0.000104013               0.000022576               0.000126214               0.000148790               0.000000000               0.000000000               0.000000000               0.000000000               0.000212385               0.000551972               0.000092722               0.000010648               0.000180440               0.000191087               0.000000000               0.000000000               0.000000000               0.000000000               0.000230091               0.000688161               0.000078762               0.000000264               0.000229297               0.000229561               0.000000000               0.000000000               0.000000000               0.000000000               0.000251620               0.000813580               0.000064243              -0.000007340               0.000273637               0.000266297               0.000000000               0.000000000               0.000000000               0.000000000               0.000276131               0.000923610               0.000047784              -0.000011902               0.000311834               0.000299932               0.000000000               0.000000000               0.000000000               0.000000000               0.000303397               0.001021075               0.000031694              -0.000013860               0.000344975               0.000331115               0.000000000               0.000000000               0.000000000               0.000000000               0.000329660               0.001112644               0.000021045              -0.000015458               0.000376030               0.000360573               0.000000000               0.000000000               0.000000000               0.000000000               0.000348820               0.001198877               0.000018714              -0.000019052               0.000405972               0.000386920               0.000000000               0.000000000               0.000000000               0.000000000               0.000361188               0.001277543               0.000019407              -0.000024247               0.000433926               0.000409679               0.000000000               0.000000000               0.000000000               0.000000000               0.000368653               0.001347848               0.000020586              -0.000030236               0.000459357               0.000429121               0.000000000               0.000000000               0.000000000               0.000000000               0.000371539               0.001411093               0.000021738              -0.000037059               0.000482713               0.000445653               0.000000000               0.000000000               0.000000000               0.000000000               0.000374931               0.001476906               0.000020118              -0.000044014               0.000506968               0.000462954               0.000000000               0.000000000               0.000000000               0.000000000               0.000382103               0.001550750               0.000015805              -0.000050555               0.000533763               0.000483208               0.000000000               0.000000000               0.000000000               0.000000000               0.000389312               0.001625202               0.000008619              -0.000057158               0.000560781               0.000503623               0.000000000               0.000000000               0.000000000               0.000000000               0.000388672               0.001659281               0.000002914              -0.000061658               0.000573641               0.000511983               0.000000000               0.000000000               0.000000000               0.000000000               0.000103672               0.000096465               0.000046830               0.000026819               0.000023215               0.000050034               0.000000000               0.000000000               0.000000000               0.000000000               0.000161334               0.000194636               0.000065789               0.000036170               0.000052821               0.000088992               0.000000000               0.000000000               0.000000000               0.000000000               0.000207943               0.000357585               0.000077009               0.000033280               0.000108101               0.000141381               0.000000000               0.000000000               0.000000000               0.000000000               0.000235512               0.000511194               0.000072162               0.000024417               0.000162257               0.000186675               0.000000000               0.000000000               0.000000000               0.000000000               0.000255405               0.000653342               0.000063106               0.000014109               0.000213075               0.000227184               0.000000000               0.000000000               0.000000000               0.000000000               0.000271788               0.000784400               0.000051982               0.000003870               0.000260174               0.000264044               0.000000000               0.000000000               0.000000000               0.000000000               0.000290276               0.000901316               0.000038998              -0.000003811               0.000301706               0.000297895               0.000000000               0.000000000               0.000000000               0.000000000               0.000313732               0.001008900               0.000026328              -0.000008463               0.000339118               0.000330655               0.000000000               0.000000000               0.000000000               0.000000000               0.000341068               0.001108875               0.000016329              -0.000010709               0.000373191               0.000362482               0.000000000               0.000000000               0.000000000               0.000000000               0.000366055               0.001200312               0.000011646              -0.000012768               0.000404356               0.000391588               0.000000000               0.000000000               0.000000000               0.000000000               0.000385798               0.001282990               0.000010607              -0.000015700               0.000432892               0.000417193               0.000000000               0.000000000               0.000000000               0.000000000               0.000401312               0.001356357               0.000010416              -0.000019052               0.000458465               0.000439413               0.000000000               0.000000000               0.000000000               0.000000000               0.000411822               0.001417940               0.000010885              -0.000022809               0.000480245               0.000457436               0.000000000               0.000000000               0.000000000               0.000000000               0.000422391               0.001481012               0.000011157              -0.000026730               0.000502576               0.000475846               0.000000000               0.000000000               0.000000000               0.000000000               0.000436126               0.001551572               0.000009374              -0.000030399               0.000527318               0.000496919               0.000000000               0.000000000               0.000000000               0.000000000               0.000450855               0.001621183               0.000004815              -0.000033577               0.000551581               0.000518004               0.000000000               0.000000000               0.000000000               0.000000000               0.000457518               0.001654566               0.000001279              -0.000035251               0.000563267               0.000528016               0.000000000               0.000000000               0.000000000               0.000000000               0.000085464               0.000078435               0.000023049               0.000022245               0.000018730               0.000040974               0.000000000               0.000000000               0.000000000               0.000000000               0.000158374               0.000170066               0.000033921               0.000038132               0.000043978               0.000082109               0.000000000               0.000000000               0.000000000               0.000000000               0.000219771               0.000327611               0.000041153               0.000041462               0.000095382               0.000136844               0.000000000               0.000000000               0.000000000               0.000000000               0.000252205               0.000481630               0.000039614               0.000034373               0.000149084               0.000183457               0.000000000               0.000000000               0.000000000               0.000000000               0.000271916               0.000625836               0.000034711               0.000023739               0.000200697               0.000224436               0.000000000               0.000000000               0.000000000               0.000000000               0.000286918               0.000760220               0.000028940               0.000012567               0.000249215               0.000261782               0.000000000               0.000000000               0.000000000               0.000000000               0.000303184               0.000884416               0.000022363               0.000003142               0.000293755               0.000296897               0.000000000               0.000000000               0.000000000               0.000000000               0.000324148               0.001000556               0.000015138              -0.000003514               0.000334687               0.000331173               0.000000000               0.000000000               0.000000000               0.000000000               0.000348711               0.001103613               0.000008850              -0.000007185               0.000370262               0.000363077               0.000000000               0.000000000               0.000000000               0.000000000               0.000375304               0.001197049               0.000005231              -0.000008892               0.000401976               0.000393084               0.000000000               0.000000000               0.000000000               0.000000000               0.000400500               0.001283169               0.000004092              -0.000010208               0.000431122               0.000420913               0.000000000               0.000000000               0.000000000               0.000000000               0.000421808               0.001358399               0.000003542              -0.000011622               0.000456669               0.000445047               0.000000000               0.000000000               0.000000000               0.000000000               0.000438711               0.001421771               0.000003431              -0.000013205               0.000478320               0.000465116               0.000000000               0.000000000               0.000000000               0.000000000               0.000454503               0.001484281               0.000003831              -0.000015096               0.000499788               0.000484691               0.000000000               0.000000000               0.000000000               0.000000000               0.000470824               0.001549790               0.000003032              -0.000017165               0.000522313               0.000505148               0.000000000               0.000000000               0.000000000               0.000000000               0.000488035               0.001615990               0.000001282              -0.000018986               0.000544986               0.000526001               0.000000000               0.000000000               0.000000000               0.000000000               0.000496656               0.001649415               0.000000172              -0.000019931               0.000556443               0.000536512               0.000000000               0.000000000               0.000000000               0.000000000               0.000000000               0.000000000               0.000000000               0.000000000               0.000000000               0.000000000               0.000000000               0.000000000               0.000000000               0.000000000               0.000000000               0.000000000               0.000000000               0.000000000               0.000000000               0.000000000               0.000000000               0.000000000               0.000000000               0.000000000               0.000000000               0.000000000               0.000000000               0.000000000               0.000000000               0.000000000               0.000000000               0.000000000               0.000000000               0.000000000               0.000000000               0.000000000               0.000000000               0.000000000               0.000000000               0.000000000               0.000000000               0.000000000               0.000000000               0.000000000               0.000000000               0.000000000               0.000000000               0.000000000               0.000000000               0.000000000               0.000000000               0.000000000               0.000000000               0.000000000               0.000000000               0.000000000               0.000000000               0.000000000               0.000000000               0.000000000               0.000000000               0.000000000               0.000000000               0.000000000               0.000000000               0.000000000               0.000000000               0.000000000               0.000000000               0.000000000               0.000000000               0.000000000               0.000000000               0.000000000               0.000000000               0.000000000               0.000000000               0.000000000               0.000000000               0.000000000               0.000000000               0.000000000               0.000000000               0.000000000               0.000000000               0.000000000               0.000000000               0.000000000               0.000000000               0.000000000               0.000000000               0.000000000               0.000000000               0.000000000               0.000000000               0.000000000               0.000000000               0.000000000               0.000000000               0.000000000               0.000000000               0.000000000               0.000000000               0.000000000               0.000000000               0.000000000               0.000000000               0.000000000               0.000000000               0.000000000               0.000000000               0.000000000               0.000000000               0.000000000               0.000000000               0.000000000               0.000000000               0.000000000               0.000000000               0.000000000               0.000000000               0.000000000               0.000000000               0.000000000               0.000000000               0.000000000               0.000000000               0.000000000               0.000000000               0.000000000               0.000000000               0.000000000               0.000000000               0.000000000               0.000000000               0.000000000               0.000000000               0.000000000               0.000000000               0.000000000               0.000000000               0.000000000               0.000000000               0.000000000               0.000000000               0.000000000               0.000000000               0.000000000               0.000000000               0.000000000               0.000000000               0.000000000               0.000000000               0.000000000               0.000000000               0.000000000               0.000000000               0.000000000               0.000000000               0.000000000               0.000000000               0.000000000               0.000000000               0.000000000               0.000000000               0.000000000               0.000000000               0.000000000               0.000000000               0.000000000               0.000000000               0.000000000               0.000000000               0.000000000 </DataArray>
</PointData>
</Piece>
</UnstructuredGrid> </VTKFile>
