<?xml version="1.0"?>
<VTKFile type="UnstructuredGrid" version="0.1">
<UnstructuredGrid>
<Piece NumberOfPoints="      1156" NumberOfCells="      1024">
<Points>
<DataArray type="Float64"                                    Name="coordinates"                                                      NumberOfComponents=" 3" format="ascii">
              0.133000000               0.000000000               0.000000000               0.155937500               0.000000000               0.000000000               0.178875000               0.000000000               0.000000000               0.201812500               0.000000000               0.000000000               0.224750000               0.000000000               0.000000000               0.247687500               0.000000000               0.000000000               0.270625000               0.000000000               0.000000000               0.293562500               0.000000000               0.000000000               0.316500000               0.000000000               0.000000000               0.339437500               0.000000000               0.000000000               0.362375000               0.000000000               0.000000000               0.385312500               0.000000000               0.000000000               0.408250000               0.000000000               0.000000000               0.431187500               0.000000000               0.000000000               0.454125000               0.000000000               0.000000000               0.477062500               0.000000000               0.000000000               0.500000000               0.000000000               0.000000000               0.132359569               0.013036280               0.000000000               0.155337096               0.016127762               0.000000000               0.178314623               0.019219245               0.000000000               0.201292150               0.022310727               0.000000000               0.224269676               0.025402210               0.000000000               0.247247203               0.028493692               0.000000000               0.270224730               0.031585175               0.000000000               0.293202257               0.034676657               0.000000000               0.316179784               0.037768140               0.000000000               0.339157311               0.040859622               0.000000000               0.362134838               0.043951105               0.000000000               0.385112365               0.047042587               0.000000000               0.408089892               0.050134070               0.000000000               0.431067419               0.053225552               0.000000000               0.454044946               0.056317035               0.000000000               0.477022473               0.059408517               0.000000000               0.500000000               0.062500000               0.000000000               0.130444442               0.025947013               0.000000000               0.153541665               0.032137825               0.000000000               0.176638887               0.038328636               0.000000000               0.199736109               0.044519448               0.000000000               0.222833332               0.050710260               0.000000000               0.245930554               0.056901071               0.000000000               0.269027776               0.063091883               0.000000000               0.292124999               0.069282695               0.000000000               0.315222221               0.075473506               0.000000000               0.338319444               0.081664318               0.000000000               0.361416666               0.087855130               0.000000000               0.384513888               0.094045942               0.000000000               0.407611111               0.100236753               0.000000000               0.430708333               0.106427565               0.000000000               0.453805555               0.112618377               0.000000000               0.476902778               0.118809188               0.000000000               0.500000000               0.125000000               0.000000000               0.127273065               0.038607862               0.000000000               0.150568498               0.047913621               0.000000000               0.173863932               0.057219379               0.000000000               0.197159365               0.066525138               0.000000000               0.220454798               0.075830897               0.000000000               0.243750232               0.085136655               0.000000000               0.267045665               0.094442414               0.000000000               0.290341099               0.103748172               0.000000000               0.313636532               0.113053931               0.000000000               0.336931966               0.122359690               0.000000000               0.360227399               0.131665448               0.000000000               0.383522833               0.140971207               0.000000000               0.406818266               0.150276966               0.000000000               0.430113700               0.159582724               0.000000000               0.453409133               0.168888483               0.000000000               0.476704567               0.178194241               0.000000000               0.500000000               0.187500000               0.000000000               0.122875978               0.050896897               0.000000000               0.146446229               0.063340840               0.000000000               0.170016481               0.075784784               0.000000000               0.193586732               0.088228728               0.000000000               0.217156983               0.100672672               0.000000000               0.240727235               0.113116616               0.000000000               0.264297486               0.125560560               0.000000000               0.287867738               0.138004504               0.000000000               0.311437989               0.150448448               0.000000000               0.335008240               0.162892392               0.000000000               0.358578492               0.175336336               0.000000000               0.382148743               0.187780280               0.000000000               0.405718994               0.200224224               0.000000000               0.429289246               0.212668168               0.000000000               0.452859497               0.225112112               0.000000000               0.476429749               0.237556056               0.000000000               0.500000000               0.250000000               0.000000000               0.117295528               0.062695766               0.000000000               0.141214558               0.078308531               0.000000000               0.165133587               0.093921295               0.000000000               0.189052617               0.109534060               0.000000000               0.212971646               0.125146824               0.000000000               0.236890676               0.140759589               0.000000000               0.260809705               0.156372354               0.000000000               0.284728735               0.171985118               0.000000000               0.308647764               0.187597883               0.000000000               0.332566794               0.203210648               0.000000000               0.356485823               0.218823412               0.000000000               0.380404853               0.234436177               0.000000000               0.404323882               0.250048941               0.000000000               0.428242912               0.265661706               0.000000000               0.452161941               0.281274471               0.000000000               0.476080971               0.296887235               0.000000000               0.500000000               0.312500000               0.000000000               0.110585458               0.073890841               0.000000000               0.134923867               0.092710163               0.000000000               0.159262276               0.111529486               0.000000000               0.183600685               0.130348808               0.000000000               0.207939094               0.149168131               0.000000000               0.232277503               0.167987453               0.000000000               0.256615912               0.186806776               0.000000000               0.280954320               0.205626098               0.000000000               0.305292729               0.224445420               0.000000000               0.329631138               0.243264743               0.000000000               0.353969547               0.262084065               0.000000000               0.378307956               0.280903388               0.000000000               0.402646365               0.299722710               0.000000000               0.426984773               0.318542033               0.000000000               0.451323182               0.337361355               0.000000000               0.475661591               0.356180678               0.000000000               0.500000000               0.375000000               0.000000000               0.102810390               0.084374307               0.000000000               0.127634741               0.106444663               0.000000000               0.152459092               0.128515018               0.000000000               0.177283442               0.150585374               0.000000000               0.202107793               0.172655730               0.000000000               0.226932143               0.194726086               0.000000000               0.251756494               0.216796442               0.000000000               0.276580845               0.238866798               0.000000000               0.301405195               0.260937153               0.000000000               0.326229546               0.283007509               0.000000000               0.351053896               0.305077865               0.000000000               0.375878247               0.327148221               0.000000000               0.400702598               0.349218577               0.000000000               0.425526948               0.371288933               0.000000000               0.450351299               0.393359288               0.000000000               0.475175649               0.415429644               0.000000000               0.500000000               0.437500000               0.000000000               0.094045202               0.094045202               0.000000000               0.119417377               0.119417377               0.000000000               0.144789552               0.144789552               0.000000000               0.170161727               0.170161727               0.000000000               0.195533901               0.195533901               0.000000000               0.220906076               0.220906076               0.000000000               0.246278251               0.246278251               0.000000000               0.271650426               0.271650426               0.000000000               0.297022601               0.297022601               0.000000000               0.322394776               0.322394776               0.000000000               0.347766951               0.347766951               0.000000000               0.373139126               0.373139126               0.000000000               0.398511300               0.398511300               0.000000000               0.423883475               0.423883475               0.000000000               0.449255650               0.449255650               0.000000000               0.474627825               0.474627825               0.000000000               0.500000000               0.500000000               0.000000000               0.084374307               0.102810390               0.000000000               0.106444663               0.127634741               0.000000000               0.128515018               0.152459092               0.000000000               0.150585374               0.177283442               0.000000000               0.172655730               0.202107793               0.000000000               0.194726086               0.226932143               0.000000000               0.216796442               0.251756494               0.000000000               0.238866798               0.276580845               0.000000000               0.260937153               0.301405195               0.000000000               0.283007509               0.326229546               0.000000000               0.305077865               0.351053896               0.000000000               0.327148221               0.375878247               0.000000000               0.349218577               0.400702598               0.000000000               0.371288933               0.425526948               0.000000000               0.393359288               0.450351299               0.000000000               0.415429644               0.475175649               0.000000000               0.437500000               0.500000000               0.000000000               0.073890841               0.110585458               0.000000000               0.092710163               0.134923867               0.000000000               0.111529486               0.159262276               0.000000000               0.130348808               0.183600685               0.000000000               0.149168131               0.207939094               0.000000000               0.167987453               0.232277503               0.000000000               0.186806776               0.256615912               0.000000000               0.205626098               0.280954320               0.000000000               0.224445420               0.305292729               0.000000000               0.243264743               0.329631138               0.000000000               0.262084065               0.353969547               0.000000000               0.280903388               0.378307956               0.000000000               0.299722710               0.402646365               0.000000000               0.318542033               0.426984773               0.000000000               0.337361355               0.451323182               0.000000000               0.356180678               0.475661591               0.000000000               0.375000000               0.500000000               0.000000000               0.062695766               0.117295528               0.000000000               0.078308531               0.141214558               0.000000000               0.093921295               0.165133587               0.000000000               0.109534060               0.189052617               0.000000000               0.125146824               0.212971646               0.000000000               0.140759589               0.236890676               0.000000000               0.156372354               0.260809705               0.000000000               0.171985118               0.284728735               0.000000000               0.187597883               0.308647764               0.000000000               0.203210648               0.332566794               0.000000000               0.218823412               0.356485823               0.000000000               0.234436177               0.380404853               0.000000000               0.250048941               0.404323882               0.000000000               0.265661706               0.428242912               0.000000000               0.281274471               0.452161941               0.000000000               0.296887235               0.476080971               0.000000000               0.312500000               0.500000000               0.000000000               0.050896897               0.122875978               0.000000000               0.063340840               0.146446229               0.000000000               0.075784784               0.170016481               0.000000000               0.088228728               0.193586732               0.000000000               0.100672672               0.217156983               0.000000000               0.113116616               0.240727235               0.000000000               0.125560560               0.264297486               0.000000000               0.138004504               0.287867738               0.000000000               0.150448448               0.311437989               0.000000000               0.162892392               0.335008240               0.000000000               0.175336336               0.358578492               0.000000000               0.187780280               0.382148743               0.000000000               0.200224224               0.405718994               0.000000000               0.212668168               0.429289246               0.000000000               0.225112112               0.452859497               0.000000000               0.237556056               0.476429749               0.000000000               0.250000000               0.500000000               0.000000000               0.038607862               0.127273065               0.000000000               0.047913621               0.150568498               0.000000000               0.057219379               0.173863932               0.000000000               0.066525138               0.197159365               0.000000000               0.075830897               0.220454798               0.000000000               0.085136655               0.243750232               0.000000000               0.094442414               0.267045665               0.000000000               0.103748172               0.290341099               0.000000000               0.113053931               0.313636532               0.000000000               0.122359690               0.336931966               0.000000000               0.131665448               0.360227399               0.000000000               0.140971207               0.383522833               0.000000000               0.150276966               0.406818266               0.000000000               0.159582724               0.430113700               0.000000000               0.168888483               0.453409133               0.000000000               0.178194241               0.476704567               0.000000000               0.187500000               0.500000000               0.000000000               0.025947013               0.130444442               0.000000000               0.032137825               0.153541665               0.000000000               0.038328636               0.176638887               0.000000000               0.044519448               0.199736109               0.000000000               0.050710260               0.222833332               0.000000000               0.056901071               0.245930554               0.000000000               0.063091883               0.269027776               0.000000000               0.069282695               0.292124999               0.000000000               0.075473506               0.315222221               0.000000000               0.081664318               0.338319444               0.000000000               0.087855130               0.361416666               0.000000000               0.094045942               0.384513888               0.000000000               0.100236753               0.407611111               0.000000000               0.106427565               0.430708333               0.000000000               0.112618377               0.453805555               0.000000000               0.118809188               0.476902778               0.000000000               0.125000000               0.500000000               0.000000000               0.013036280               0.132359569               0.000000000               0.016127762               0.155337096               0.000000000               0.019219245               0.178314623               0.000000000               0.022310727               0.201292150               0.000000000               0.025402210               0.224269676               0.000000000               0.028493692               0.247247203               0.000000000               0.031585175               0.270224730               0.000000000               0.034676657               0.293202257               0.000000000               0.037768140               0.316179784               0.000000000               0.040859622               0.339157311               0.000000000               0.043951105               0.362134838               0.000000000               0.047042587               0.385112365               0.000000000               0.050134070               0.408089892               0.000000000               0.053225552               0.431067419               0.000000000               0.056317035               0.454044946               0.000000000               0.059408517               0.477022473               0.000000000               0.062500000               0.500000000               0.000000000               0.000000000               0.133000000               0.000000000               0.000000000               0.155937500               0.000000000               0.000000000               0.178875000               0.000000000               0.000000000               0.201812500               0.000000000               0.000000000               0.224750000               0.000000000               0.000000000               0.247687500               0.000000000               0.000000000               0.270625000               0.000000000               0.000000000               0.293562500               0.000000000               0.000000000               0.316500000               0.000000000               0.000000000               0.339437500               0.000000000               0.000000000               0.362375000               0.000000000               0.000000000               0.385312500               0.000000000               0.000000000               0.408250000               0.000000000               0.000000000               0.431187500               0.000000000               0.000000000               0.454125000               0.000000000               0.000000000               0.477062500               0.000000000               0.000000000               0.500000000               0.000000000               0.133000000               0.000000000               0.000000000               0.155937500               0.000000000               0.000000000               0.178875000               0.000000000               0.000000000               0.201812500               0.000000000               0.000000000               0.224750000               0.000000000               0.000000000               0.247687500               0.000000000               0.000000000               0.270625000               0.000000000               0.000000000               0.293562500               0.000000000               0.000000000               0.316500000               0.000000000               0.000000000               0.339437500               0.000000000               0.000000000               0.362375000               0.000000000               0.000000000               0.385312500               0.000000000               0.000000000               0.408250000               0.000000000               0.000000000               0.431187500               0.000000000               0.000000000               0.454125000               0.000000000               0.000000000               0.477062500               0.000000000               0.000000000               0.500000000               0.000000000               0.000000000               0.132359569              -0.013036280               0.000000000               0.155337096              -0.016127762               0.000000000               0.178314623              -0.019219245               0.000000000               0.201292150              -0.022310727               0.000000000               0.224269676              -0.025402210               0.000000000               0.247247203              -0.028493692               0.000000000               0.270224730              -0.031585175               0.000000000               0.293202257              -0.034676657               0.000000000               0.316179784              -0.037768140               0.000000000               0.339157311              -0.040859622               0.000000000               0.362134838              -0.043951105               0.000000000               0.385112365              -0.047042587               0.000000000               0.408089892              -0.050134070               0.000000000               0.431067419              -0.053225552               0.000000000               0.454044946              -0.056317035               0.000000000               0.477022473              -0.059408517               0.000000000               0.500000000              -0.062500000               0.000000000               0.130444442              -0.025947013               0.000000000               0.153541665              -0.032137825               0.000000000               0.176638887              -0.038328636               0.000000000               0.199736109              -0.044519448               0.000000000               0.222833332              -0.050710260               0.000000000               0.245930554              -0.056901071               0.000000000               0.269027776              -0.063091883               0.000000000               0.292124999              -0.069282695               0.000000000               0.315222221              -0.075473506               0.000000000               0.338319444              -0.081664318               0.000000000               0.361416666              -0.087855130               0.000000000               0.384513888              -0.094045942               0.000000000               0.407611111              -0.100236753               0.000000000               0.430708333              -0.106427565               0.000000000               0.453805555              -0.112618377               0.000000000               0.476902778              -0.118809188               0.000000000               0.500000000              -0.125000000               0.000000000               0.127273065              -0.038607862               0.000000000               0.150568498              -0.047913621               0.000000000               0.173863932              -0.057219379               0.000000000               0.197159365              -0.066525138               0.000000000               0.220454798              -0.075830897               0.000000000               0.243750232              -0.085136655               0.000000000               0.267045665              -0.094442414               0.000000000               0.290341099              -0.103748172               0.000000000               0.313636532              -0.113053931               0.000000000               0.336931966              -0.122359690               0.000000000               0.360227399              -0.131665448               0.000000000               0.383522833              -0.140971207               0.000000000               0.406818266              -0.150276966               0.000000000               0.430113700              -0.159582724               0.000000000               0.453409133              -0.168888483               0.000000000               0.476704567              -0.178194241               0.000000000               0.500000000              -0.187500000               0.000000000               0.122875978              -0.050896897               0.000000000               0.146446229              -0.063340840               0.000000000               0.170016481              -0.075784784               0.000000000               0.193586732              -0.088228728               0.000000000               0.217156983              -0.100672672               0.000000000               0.240727235              -0.113116616               0.000000000               0.264297486              -0.125560560               0.000000000               0.287867738              -0.138004504               0.000000000               0.311437989              -0.150448448               0.000000000               0.335008240              -0.162892392               0.000000000               0.358578492              -0.175336336               0.000000000               0.382148743              -0.187780280               0.000000000               0.405718994              -0.200224224               0.000000000               0.429289246              -0.212668168               0.000000000               0.452859497              -0.225112112               0.000000000               0.476429749              -0.237556056               0.000000000               0.500000000              -0.250000000               0.000000000               0.117295528              -0.062695766               0.000000000               0.141214558              -0.078308531               0.000000000               0.165133587              -0.093921295               0.000000000               0.189052617              -0.109534060               0.000000000               0.212971646              -0.125146824               0.000000000               0.236890676              -0.140759589               0.000000000               0.260809705              -0.156372354               0.000000000               0.284728735              -0.171985118               0.000000000               0.308647764              -0.187597883               0.000000000               0.332566794              -0.203210648               0.000000000               0.356485823              -0.218823412               0.000000000               0.380404853              -0.234436177               0.000000000               0.404323882              -0.250048941               0.000000000               0.428242912              -0.265661706               0.000000000               0.452161941              -0.281274471               0.000000000               0.476080971              -0.296887235               0.000000000               0.500000000              -0.312500000               0.000000000               0.110585458              -0.073890841               0.000000000               0.134923867              -0.092710163               0.000000000               0.159262276              -0.111529486               0.000000000               0.183600685              -0.130348808               0.000000000               0.207939094              -0.149168131               0.000000000               0.232277503              -0.167987453               0.000000000               0.256615912              -0.186806776               0.000000000               0.280954320              -0.205626098               0.000000000               0.305292729              -0.224445420               0.000000000               0.329631138              -0.243264743               0.000000000               0.353969547              -0.262084065               0.000000000               0.378307956              -0.280903388               0.000000000               0.402646365              -0.299722710               0.000000000               0.426984773              -0.318542033               0.000000000               0.451323182              -0.337361355               0.000000000               0.475661591              -0.356180678               0.000000000               0.500000000              -0.375000000               0.000000000               0.102810390              -0.084374307               0.000000000               0.127634741              -0.106444663               0.000000000               0.152459092              -0.128515018               0.000000000               0.177283442              -0.150585374               0.000000000               0.202107793              -0.172655730               0.000000000               0.226932143              -0.194726086               0.000000000               0.251756494              -0.216796442               0.000000000               0.276580845              -0.238866798               0.000000000               0.301405195              -0.260937153               0.000000000               0.326229546              -0.283007509               0.000000000               0.351053896              -0.305077865               0.000000000               0.375878247              -0.327148221               0.000000000               0.400702598              -0.349218577               0.000000000               0.425526948              -0.371288933               0.000000000               0.450351299              -0.393359288               0.000000000               0.475175649              -0.415429644               0.000000000               0.500000000              -0.437500000               0.000000000               0.094045202              -0.094045202               0.000000000               0.119417377              -0.119417377               0.000000000               0.144789552              -0.144789552               0.000000000               0.170161727              -0.170161727               0.000000000               0.195533901              -0.195533901               0.000000000               0.220906076              -0.220906076               0.000000000               0.246278251              -0.246278251               0.000000000               0.271650426              -0.271650426               0.000000000               0.297022601              -0.297022601               0.000000000               0.322394776              -0.322394776               0.000000000               0.347766951              -0.347766951               0.000000000               0.373139126              -0.373139126               0.000000000               0.398511300              -0.398511300               0.000000000               0.423883475              -0.423883475               0.000000000               0.449255650              -0.449255650               0.000000000               0.474627825              -0.474627825               0.000000000               0.500000000              -0.500000000               0.000000000               0.084374307              -0.102810390               0.000000000               0.106444663              -0.127634741               0.000000000               0.128515018              -0.152459092               0.000000000               0.150585374              -0.177283442               0.000000000               0.172655730              -0.202107793               0.000000000               0.194726086              -0.226932143               0.000000000               0.216796442              -0.251756494               0.000000000               0.238866798              -0.276580845               0.000000000               0.260937153              -0.301405195               0.000000000               0.283007509              -0.326229546               0.000000000               0.305077865              -0.351053896               0.000000000               0.327148221              -0.375878247               0.000000000               0.349218577              -0.400702598               0.000000000               0.371288933              -0.425526948               0.000000000               0.393359288              -0.450351299               0.000000000               0.415429644              -0.475175649               0.000000000               0.437500000              -0.500000000               0.000000000               0.073890841              -0.110585458               0.000000000               0.092710163              -0.134923867               0.000000000               0.111529486              -0.159262276               0.000000000               0.130348808              -0.183600685               0.000000000               0.149168131              -0.207939094               0.000000000               0.167987453              -0.232277503               0.000000000               0.186806776              -0.256615912               0.000000000               0.205626098              -0.280954320               0.000000000               0.224445420              -0.305292729               0.000000000               0.243264743              -0.329631138               0.000000000               0.262084065              -0.353969547               0.000000000               0.280903388              -0.378307956               0.000000000               0.299722710              -0.402646365               0.000000000               0.318542033              -0.426984773               0.000000000               0.337361355              -0.451323182               0.000000000               0.356180678              -0.475661591               0.000000000               0.375000000              -0.500000000               0.000000000               0.062695766              -0.117295528               0.000000000               0.078308531              -0.141214558               0.000000000               0.093921295              -0.165133587               0.000000000               0.109534060              -0.189052617               0.000000000               0.125146824              -0.212971646               0.000000000               0.140759589              -0.236890676               0.000000000               0.156372354              -0.260809705               0.000000000               0.171985118              -0.284728735               0.000000000               0.187597883              -0.308647764               0.000000000               0.203210648              -0.332566794               0.000000000               0.218823412              -0.356485823               0.000000000               0.234436177              -0.380404853               0.000000000               0.250048941              -0.404323882               0.000000000               0.265661706              -0.428242912               0.000000000               0.281274471              -0.452161941               0.000000000               0.296887235              -0.476080971               0.000000000               0.312500000              -0.500000000               0.000000000               0.050896897              -0.122875978               0.000000000               0.063340840              -0.146446229               0.000000000               0.075784784              -0.170016481               0.000000000               0.088228728              -0.193586732               0.000000000               0.100672672              -0.217156983               0.000000000               0.113116616              -0.240727235               0.000000000               0.125560560              -0.264297486               0.000000000               0.138004504              -0.287867738               0.000000000               0.150448448              -0.311437989               0.000000000               0.162892392              -0.335008240               0.000000000               0.175336336              -0.358578492               0.000000000               0.187780280              -0.382148743               0.000000000               0.200224224              -0.405718994               0.000000000               0.212668168              -0.429289246               0.000000000               0.225112112              -0.452859497               0.000000000               0.237556056              -0.476429749               0.000000000               0.250000000              -0.500000000               0.000000000               0.038607862              -0.127273065               0.000000000               0.047913621              -0.150568498               0.000000000               0.057219379              -0.173863932               0.000000000               0.066525138              -0.197159365               0.000000000               0.075830897              -0.220454798               0.000000000               0.085136655              -0.243750232               0.000000000               0.094442414              -0.267045665               0.000000000               0.103748172              -0.290341099               0.000000000               0.113053931              -0.313636532               0.000000000               0.122359690              -0.336931966               0.000000000               0.131665448              -0.360227399               0.000000000               0.140971207              -0.383522833               0.000000000               0.150276966              -0.406818266               0.000000000               0.159582724              -0.430113700               0.000000000               0.168888483              -0.453409133               0.000000000               0.178194241              -0.476704567               0.000000000               0.187500000              -0.500000000               0.000000000               0.025947013              -0.130444442               0.000000000               0.032137825              -0.153541665               0.000000000               0.038328636              -0.176638887               0.000000000               0.044519448              -0.199736109               0.000000000               0.050710260              -0.222833332               0.000000000               0.056901071              -0.245930554               0.000000000               0.063091883              -0.269027776               0.000000000               0.069282695              -0.292124999               0.000000000               0.075473506              -0.315222221               0.000000000               0.081664318              -0.338319444               0.000000000               0.087855130              -0.361416666               0.000000000               0.094045942              -0.384513888               0.000000000               0.100236753              -0.407611111               0.000000000               0.106427565              -0.430708333               0.000000000               0.112618377              -0.453805555               0.000000000               0.118809188              -0.476902778               0.000000000               0.125000000              -0.500000000               0.000000000               0.013036280              -0.132359569               0.000000000               0.016127762              -0.155337096               0.000000000               0.019219245              -0.178314623               0.000000000               0.022310727              -0.201292150               0.000000000               0.025402210              -0.224269676               0.000000000               0.028493692              -0.247247203               0.000000000               0.031585175              -0.270224730               0.000000000               0.034676657              -0.293202257               0.000000000               0.037768140              -0.316179784               0.000000000               0.040859622              -0.339157311               0.000000000               0.043951105              -0.362134838               0.000000000               0.047042587              -0.385112365               0.000000000               0.050134070              -0.408089892               0.000000000               0.053225552              -0.431067419               0.000000000               0.056317035              -0.454044946               0.000000000               0.059408517              -0.477022473               0.000000000               0.062500000              -0.500000000               0.000000000               0.000000000              -0.133000000               0.000000000               0.000000000              -0.155937500               0.000000000               0.000000000              -0.178875000               0.000000000               0.000000000              -0.201812500               0.000000000               0.000000000              -0.224750000               0.000000000               0.000000000              -0.247687500               0.000000000               0.000000000              -0.270625000               0.000000000               0.000000000              -0.293562500               0.000000000               0.000000000              -0.316500000               0.000000000               0.000000000              -0.339437500               0.000000000               0.000000000              -0.362375000               0.000000000               0.000000000              -0.385312500               0.000000000               0.000000000              -0.408250000               0.000000000               0.000000000              -0.431187500               0.000000000               0.000000000              -0.454125000               0.000000000               0.000000000              -0.477062500               0.000000000               0.000000000              -0.500000000               0.000000000              -0.133000000               0.000000000               0.000000000              -0.155937500               0.000000000               0.000000000              -0.178875000               0.000000000               0.000000000              -0.201812500               0.000000000               0.000000000              -0.224750000               0.000000000               0.000000000              -0.247687500               0.000000000               0.000000000              -0.270625000               0.000000000               0.000000000              -0.293562500               0.000000000               0.000000000              -0.316500000               0.000000000               0.000000000              -0.339437500               0.000000000               0.000000000              -0.362375000               0.000000000               0.000000000              -0.385312500               0.000000000               0.000000000              -0.408250000               0.000000000               0.000000000              -0.431187500               0.000000000               0.000000000              -0.454125000               0.000000000               0.000000000              -0.477062500               0.000000000               0.000000000              -0.500000000               0.000000000               0.000000000              -0.132359569              -0.013036280               0.000000000              -0.155337096              -0.016127762               0.000000000              -0.178314623              -0.019219245               0.000000000              -0.201292150              -0.022310727               0.000000000              -0.224269676              -0.025402210               0.000000000              -0.247247203              -0.028493692               0.000000000              -0.270224730              -0.031585175               0.000000000              -0.293202257              -0.034676657               0.000000000              -0.316179784              -0.037768140               0.000000000              -0.339157311              -0.040859622               0.000000000              -0.362134838              -0.043951105               0.000000000              -0.385112365              -0.047042587               0.000000000              -0.408089892              -0.050134070               0.000000000              -0.431067419              -0.053225552               0.000000000              -0.454044946              -0.056317035               0.000000000              -0.477022473              -0.059408517               0.000000000              -0.500000000              -0.062500000               0.000000000              -0.130444442              -0.025947013               0.000000000              -0.153541665              -0.032137825               0.000000000              -0.176638887              -0.038328636               0.000000000              -0.199736109              -0.044519448               0.000000000              -0.222833332              -0.050710260               0.000000000              -0.245930554              -0.056901071               0.000000000              -0.269027776              -0.063091883               0.000000000              -0.292124999              -0.069282695               0.000000000              -0.315222221              -0.075473506               0.000000000              -0.338319444              -0.081664318               0.000000000              -0.361416666              -0.087855130               0.000000000              -0.384513888              -0.094045942               0.000000000              -0.407611111              -0.100236753               0.000000000              -0.430708333              -0.106427565               0.000000000              -0.453805555              -0.112618377               0.000000000              -0.476902778              -0.118809188               0.000000000              -0.500000000              -0.125000000               0.000000000              -0.127273065              -0.038607862               0.000000000              -0.150568498              -0.047913621               0.000000000              -0.173863932              -0.057219379               0.000000000              -0.197159365              -0.066525138               0.000000000              -0.220454798              -0.075830897               0.000000000              -0.243750232              -0.085136655               0.000000000              -0.267045665              -0.094442414               0.000000000              -0.290341099              -0.103748172               0.000000000              -0.313636532              -0.113053931               0.000000000              -0.336931966              -0.122359690               0.000000000              -0.360227399              -0.131665448               0.000000000              -0.383522833              -0.140971207               0.000000000              -0.406818266              -0.150276966               0.000000000              -0.430113700              -0.159582724               0.000000000              -0.453409133              -0.168888483               0.000000000              -0.476704567              -0.178194241               0.000000000              -0.500000000              -0.187500000               0.000000000              -0.122875978              -0.050896897               0.000000000              -0.146446229              -0.063340840               0.000000000              -0.170016481              -0.075784784               0.000000000              -0.193586732              -0.088228728               0.000000000              -0.217156983              -0.100672672               0.000000000              -0.240727235              -0.113116616               0.000000000              -0.264297486              -0.125560560               0.000000000              -0.287867738              -0.138004504               0.000000000              -0.311437989              -0.150448448               0.000000000              -0.335008240              -0.162892392               0.000000000              -0.358578492              -0.175336336               0.000000000              -0.382148743              -0.187780280               0.000000000              -0.405718994              -0.200224224               0.000000000              -0.429289246              -0.212668168               0.000000000              -0.452859497              -0.225112112               0.000000000              -0.476429749              -0.237556056               0.000000000              -0.500000000              -0.250000000               0.000000000              -0.117295528              -0.062695766               0.000000000              -0.141214558              -0.078308531               0.000000000              -0.165133587              -0.093921295               0.000000000              -0.189052617              -0.109534060               0.000000000              -0.212971646              -0.125146824               0.000000000              -0.236890676              -0.140759589               0.000000000              -0.260809705              -0.156372354               0.000000000              -0.284728735              -0.171985118               0.000000000              -0.308647764              -0.187597883               0.000000000              -0.332566794              -0.203210648               0.000000000              -0.356485823              -0.218823412               0.000000000              -0.380404853              -0.234436177               0.000000000              -0.404323882              -0.250048941               0.000000000              -0.428242912              -0.265661706               0.000000000              -0.452161941              -0.281274471               0.000000000              -0.476080971              -0.296887235               0.000000000              -0.500000000              -0.312500000               0.000000000              -0.110585458              -0.073890841               0.000000000              -0.134923867              -0.092710163               0.000000000              -0.159262276              -0.111529486               0.000000000              -0.183600685              -0.130348808               0.000000000              -0.207939094              -0.149168131               0.000000000              -0.232277503              -0.167987453               0.000000000              -0.256615912              -0.186806776               0.000000000              -0.280954320              -0.205626098               0.000000000              -0.305292729              -0.224445420               0.000000000              -0.329631138              -0.243264743               0.000000000              -0.353969547              -0.262084065               0.000000000              -0.378307956              -0.280903388               0.000000000              -0.402646365              -0.299722710               0.000000000              -0.426984773              -0.318542033               0.000000000              -0.451323182              -0.337361355               0.000000000              -0.475661591              -0.356180678               0.000000000              -0.500000000              -0.375000000               0.000000000              -0.102810390              -0.084374307               0.000000000              -0.127634741              -0.106444663               0.000000000              -0.152459092              -0.128515018               0.000000000              -0.177283442              -0.150585374               0.000000000              -0.202107793              -0.172655730               0.000000000              -0.226932143              -0.194726086               0.000000000              -0.251756494              -0.216796442               0.000000000              -0.276580845              -0.238866798               0.000000000              -0.301405195              -0.260937153               0.000000000              -0.326229546              -0.283007509               0.000000000              -0.351053896              -0.305077865               0.000000000              -0.375878247              -0.327148221               0.000000000              -0.400702598              -0.349218577               0.000000000              -0.425526948              -0.371288933               0.000000000              -0.450351299              -0.393359288               0.000000000              -0.475175649              -0.415429644               0.000000000              -0.500000000              -0.437500000               0.000000000              -0.094045202              -0.094045202               0.000000000              -0.119417377              -0.119417377               0.000000000              -0.144789552              -0.144789552               0.000000000              -0.170161727              -0.170161727               0.000000000              -0.195533901              -0.195533901               0.000000000              -0.220906076              -0.220906076               0.000000000              -0.246278251              -0.246278251               0.000000000              -0.271650426              -0.271650426               0.000000000              -0.297022601              -0.297022601               0.000000000              -0.322394776              -0.322394776               0.000000000              -0.347766951              -0.347766951               0.000000000              -0.373139126              -0.373139126               0.000000000              -0.398511300              -0.398511300               0.000000000              -0.423883475              -0.423883475               0.000000000              -0.449255650              -0.449255650               0.000000000              -0.474627825              -0.474627825               0.000000000              -0.500000000              -0.500000000               0.000000000              -0.084374307              -0.102810390               0.000000000              -0.106444663              -0.127634741               0.000000000              -0.128515018              -0.152459092               0.000000000              -0.150585374              -0.177283442               0.000000000              -0.172655730              -0.202107793               0.000000000              -0.194726086              -0.226932143               0.000000000              -0.216796442              -0.251756494               0.000000000              -0.238866798              -0.276580845               0.000000000              -0.260937153              -0.301405195               0.000000000              -0.283007509              -0.326229546               0.000000000              -0.305077865              -0.351053896               0.000000000              -0.327148221              -0.375878247               0.000000000              -0.349218577              -0.400702598               0.000000000              -0.371288933              -0.425526948               0.000000000              -0.393359288              -0.450351299               0.000000000              -0.415429644              -0.475175649               0.000000000              -0.437500000              -0.500000000               0.000000000              -0.073890841              -0.110585458               0.000000000              -0.092710163              -0.134923867               0.000000000              -0.111529486              -0.159262276               0.000000000              -0.130348808              -0.183600685               0.000000000              -0.149168131              -0.207939094               0.000000000              -0.167987453              -0.232277503               0.000000000              -0.186806776              -0.256615912               0.000000000              -0.205626098              -0.280954320               0.000000000              -0.224445420              -0.305292729               0.000000000              -0.243264743              -0.329631138               0.000000000              -0.262084065              -0.353969547               0.000000000              -0.280903388              -0.378307956               0.000000000              -0.299722710              -0.402646365               0.000000000              -0.318542033              -0.426984773               0.000000000              -0.337361355              -0.451323182               0.000000000              -0.356180678              -0.475661591               0.000000000              -0.375000000              -0.500000000               0.000000000              -0.062695766              -0.117295528               0.000000000              -0.078308531              -0.141214558               0.000000000              -0.093921295              -0.165133587               0.000000000              -0.109534060              -0.189052617               0.000000000              -0.125146824              -0.212971646               0.000000000              -0.140759589              -0.236890676               0.000000000              -0.156372354              -0.260809705               0.000000000              -0.171985118              -0.284728735               0.000000000              -0.187597883              -0.308647764               0.000000000              -0.203210648              -0.332566794               0.000000000              -0.218823412              -0.356485823               0.000000000              -0.234436177              -0.380404853               0.000000000              -0.250048941              -0.404323882               0.000000000              -0.265661706              -0.428242912               0.000000000              -0.281274471              -0.452161941               0.000000000              -0.296887235              -0.476080971               0.000000000              -0.312500000              -0.500000000               0.000000000              -0.050896897              -0.122875978               0.000000000              -0.063340840              -0.146446229               0.000000000              -0.075784784              -0.170016481               0.000000000              -0.088228728              -0.193586732               0.000000000              -0.100672672              -0.217156983               0.000000000              -0.113116616              -0.240727235               0.000000000              -0.125560560              -0.264297486               0.000000000              -0.138004504              -0.287867738               0.000000000              -0.150448448              -0.311437989               0.000000000              -0.162892392              -0.335008240               0.000000000              -0.175336336              -0.358578492               0.000000000              -0.187780280              -0.382148743               0.000000000              -0.200224224              -0.405718994               0.000000000              -0.212668168              -0.429289246               0.000000000              -0.225112112              -0.452859497               0.000000000              -0.237556056              -0.476429749               0.000000000              -0.250000000              -0.500000000               0.000000000              -0.038607862              -0.127273065               0.000000000              -0.047913621              -0.150568498               0.000000000              -0.057219379              -0.173863932               0.000000000              -0.066525138              -0.197159365               0.000000000              -0.075830897              -0.220454798               0.000000000              -0.085136655              -0.243750232               0.000000000              -0.094442414              -0.267045665               0.000000000              -0.103748172              -0.290341099               0.000000000              -0.113053931              -0.313636532               0.000000000              -0.122359690              -0.336931966               0.000000000              -0.131665448              -0.360227399               0.000000000              -0.140971207              -0.383522833               0.000000000              -0.150276966              -0.406818266               0.000000000              -0.159582724              -0.430113700               0.000000000              -0.168888483              -0.453409133               0.000000000              -0.178194241              -0.476704567               0.000000000              -0.187500000              -0.500000000               0.000000000              -0.025947013              -0.130444442               0.000000000              -0.032137825              -0.153541665               0.000000000              -0.038328636              -0.176638887               0.000000000              -0.044519448              -0.199736109               0.000000000              -0.050710260              -0.222833332               0.000000000              -0.056901071              -0.245930554               0.000000000              -0.063091883              -0.269027776               0.000000000              -0.069282695              -0.292124999               0.000000000              -0.075473506              -0.315222221               0.000000000              -0.081664318              -0.338319444               0.000000000              -0.087855130              -0.361416666               0.000000000              -0.094045942              -0.384513888               0.000000000              -0.100236753              -0.407611111               0.000000000              -0.106427565              -0.430708333               0.000000000              -0.112618377              -0.453805555               0.000000000              -0.118809188              -0.476902778               0.000000000              -0.125000000              -0.500000000               0.000000000              -0.013036280              -0.132359569               0.000000000              -0.016127762              -0.155337096               0.000000000              -0.019219245              -0.178314623               0.000000000              -0.022310727              -0.201292150               0.000000000              -0.025402210              -0.224269676               0.000000000              -0.028493692              -0.247247203               0.000000000              -0.031585175              -0.270224730               0.000000000              -0.034676657              -0.293202257               0.000000000              -0.037768140              -0.316179784               0.000000000              -0.040859622              -0.339157311               0.000000000              -0.043951105              -0.362134838               0.000000000              -0.047042587              -0.385112365               0.000000000              -0.050134070              -0.408089892               0.000000000              -0.053225552              -0.431067419               0.000000000              -0.056317035              -0.454044946               0.000000000              -0.059408517              -0.477022473               0.000000000              -0.062500000              -0.500000000               0.000000000               0.000000000              -0.133000000               0.000000000               0.000000000              -0.155937500               0.000000000               0.000000000              -0.178875000               0.000000000               0.000000000              -0.201812500               0.000000000               0.000000000              -0.224750000               0.000000000               0.000000000              -0.247687500               0.000000000               0.000000000              -0.270625000               0.000000000               0.000000000              -0.293562500               0.000000000               0.000000000              -0.316500000               0.000000000               0.000000000              -0.339437500               0.000000000               0.000000000              -0.362375000               0.000000000               0.000000000              -0.385312500               0.000000000               0.000000000              -0.408250000               0.000000000               0.000000000              -0.431187500               0.000000000               0.000000000              -0.454125000               0.000000000               0.000000000              -0.477062500               0.000000000               0.000000000              -0.500000000               0.000000000              -0.133000000               0.000000000               0.000000000              -0.155937500               0.000000000               0.000000000              -0.178875000               0.000000000               0.000000000              -0.201812500               0.000000000               0.000000000              -0.224750000               0.000000000               0.000000000              -0.247687500               0.000000000               0.000000000              -0.270625000               0.000000000               0.000000000              -0.293562500               0.000000000               0.000000000              -0.316500000               0.000000000               0.000000000              -0.339437500               0.000000000               0.000000000              -0.362375000               0.000000000               0.000000000              -0.385312500               0.000000000               0.000000000              -0.408250000               0.000000000               0.000000000              -0.431187500               0.000000000               0.000000000              -0.454125000               0.000000000               0.000000000              -0.477062500               0.000000000               0.000000000              -0.500000000               0.000000000               0.000000000              -0.132359569               0.013036280               0.000000000              -0.155337096               0.016127762               0.000000000              -0.178314623               0.019219245               0.000000000              -0.201292150               0.022310727               0.000000000              -0.224269676               0.025402210               0.000000000              -0.247247203               0.028493692               0.000000000              -0.270224730               0.031585175               0.000000000              -0.293202257               0.034676657               0.000000000              -0.316179784               0.037768140               0.000000000              -0.339157311               0.040859622               0.000000000              -0.362134838               0.043951105               0.000000000              -0.385112365               0.047042587               0.000000000              -0.408089892               0.050134070               0.000000000              -0.431067419               0.053225552               0.000000000              -0.454044946               0.056317035               0.000000000              -0.477022473               0.059408517               0.000000000              -0.500000000               0.062500000               0.000000000              -0.130444442               0.025947013               0.000000000              -0.153541665               0.032137825               0.000000000              -0.176638887               0.038328636               0.000000000              -0.199736109               0.044519448               0.000000000              -0.222833332               0.050710260               0.000000000              -0.245930554               0.056901071               0.000000000              -0.269027776               0.063091883               0.000000000              -0.292124999               0.069282695               0.000000000              -0.315222221               0.075473506               0.000000000              -0.338319444               0.081664318               0.000000000              -0.361416666               0.087855130               0.000000000              -0.384513888               0.094045942               0.000000000              -0.407611111               0.100236753               0.000000000              -0.430708333               0.106427565               0.000000000              -0.453805555               0.112618377               0.000000000              -0.476902778               0.118809188               0.000000000              -0.500000000               0.125000000               0.000000000              -0.127273065               0.038607862               0.000000000              -0.150568498               0.047913621               0.000000000              -0.173863932               0.057219379               0.000000000              -0.197159365               0.066525138               0.000000000              -0.220454798               0.075830897               0.000000000              -0.243750232               0.085136655               0.000000000              -0.267045665               0.094442414               0.000000000              -0.290341099               0.103748172               0.000000000              -0.313636532               0.113053931               0.000000000              -0.336931966               0.122359690               0.000000000              -0.360227399               0.131665448               0.000000000              -0.383522833               0.140971207               0.000000000              -0.406818266               0.150276966               0.000000000              -0.430113700               0.159582724               0.000000000              -0.453409133               0.168888483               0.000000000              -0.476704567               0.178194241               0.000000000              -0.500000000               0.187500000               0.000000000              -0.122875978               0.050896897               0.000000000              -0.146446229               0.063340840               0.000000000              -0.170016481               0.075784784               0.000000000              -0.193586732               0.088228728               0.000000000              -0.217156983               0.100672672               0.000000000              -0.240727235               0.113116616               0.000000000              -0.264297486               0.125560560               0.000000000              -0.287867738               0.138004504               0.000000000              -0.311437989               0.150448448               0.000000000              -0.335008240               0.162892392               0.000000000              -0.358578492               0.175336336               0.000000000              -0.382148743               0.187780280               0.000000000              -0.405718994               0.200224224               0.000000000              -0.429289246               0.212668168               0.000000000              -0.452859497               0.225112112               0.000000000              -0.476429749               0.237556056               0.000000000              -0.500000000               0.250000000               0.000000000              -0.117295528               0.062695766               0.000000000              -0.141214558               0.078308531               0.000000000              -0.165133587               0.093921295               0.000000000              -0.189052617               0.109534060               0.000000000              -0.212971646               0.125146824               0.000000000              -0.236890676               0.140759589               0.000000000              -0.260809705               0.156372354               0.000000000              -0.284728735               0.171985118               0.000000000              -0.308647764               0.187597883               0.000000000              -0.332566794               0.203210648               0.000000000              -0.356485823               0.218823412               0.000000000              -0.380404853               0.234436177               0.000000000              -0.404323882               0.250048941               0.000000000              -0.428242912               0.265661706               0.000000000              -0.452161941               0.281274471               0.000000000              -0.476080971               0.296887235               0.000000000              -0.500000000               0.312500000               0.000000000              -0.110585458               0.073890841               0.000000000              -0.134923867               0.092710163               0.000000000              -0.159262276               0.111529486               0.000000000              -0.183600685               0.130348808               0.000000000              -0.207939094               0.149168131               0.000000000              -0.232277503               0.167987453               0.000000000              -0.256615912               0.186806776               0.000000000              -0.280954320               0.205626098               0.000000000              -0.305292729               0.224445420               0.000000000              -0.329631138               0.243264743               0.000000000              -0.353969547               0.262084065               0.000000000              -0.378307956               0.280903388               0.000000000              -0.402646365               0.299722710               0.000000000              -0.426984773               0.318542033               0.000000000              -0.451323182               0.337361355               0.000000000              -0.475661591               0.356180678               0.000000000              -0.500000000               0.375000000               0.000000000              -0.102810390               0.084374307               0.000000000              -0.127634741               0.106444663               0.000000000              -0.152459092               0.128515018               0.000000000              -0.177283442               0.150585374               0.000000000              -0.202107793               0.172655730               0.000000000              -0.226932143               0.194726086               0.000000000              -0.251756494               0.216796442               0.000000000              -0.276580845               0.238866798               0.000000000              -0.301405195               0.260937153               0.000000000              -0.326229546               0.283007509               0.000000000              -0.351053896               0.305077865               0.000000000              -0.375878247               0.327148221               0.000000000              -0.400702598               0.349218577               0.000000000              -0.425526948               0.371288933               0.000000000              -0.450351299               0.393359288               0.000000000              -0.475175649               0.415429644               0.000000000              -0.500000000               0.437500000               0.000000000              -0.094045202               0.094045202               0.000000000              -0.119417377               0.119417377               0.000000000              -0.144789552               0.144789552               0.000000000              -0.170161727               0.170161727               0.000000000              -0.195533901               0.195533901               0.000000000              -0.220906076               0.220906076               0.000000000              -0.246278251               0.246278251               0.000000000              -0.271650426               0.271650426               0.000000000              -0.297022601               0.297022601               0.000000000              -0.322394776               0.322394776               0.000000000              -0.347766951               0.347766951               0.000000000              -0.373139126               0.373139126               0.000000000              -0.398511300               0.398511300               0.000000000              -0.423883475               0.423883475               0.000000000              -0.449255650               0.449255650               0.000000000              -0.474627825               0.474627825               0.000000000              -0.500000000               0.500000000               0.000000000              -0.084374307               0.102810390               0.000000000              -0.106444663               0.127634741               0.000000000              -0.128515018               0.152459092               0.000000000              -0.150585374               0.177283442               0.000000000              -0.172655730               0.202107793               0.000000000              -0.194726086               0.226932143               0.000000000              -0.216796442               0.251756494               0.000000000              -0.238866798               0.276580845               0.000000000              -0.260937153               0.301405195               0.000000000              -0.283007509               0.326229546               0.000000000              -0.305077865               0.351053896               0.000000000              -0.327148221               0.375878247               0.000000000              -0.349218577               0.400702598               0.000000000              -0.371288933               0.425526948               0.000000000              -0.393359288               0.450351299               0.000000000              -0.415429644               0.475175649               0.000000000              -0.437500000               0.500000000               0.000000000              -0.073890841               0.110585458               0.000000000              -0.092710163               0.134923867               0.000000000              -0.111529486               0.159262276               0.000000000              -0.130348808               0.183600685               0.000000000              -0.149168131               0.207939094               0.000000000              -0.167987453               0.232277503               0.000000000              -0.186806776               0.256615912               0.000000000              -0.205626098               0.280954320               0.000000000              -0.224445420               0.305292729               0.000000000              -0.243264743               0.329631138               0.000000000              -0.262084065               0.353969547               0.000000000              -0.280903388               0.378307956               0.000000000              -0.299722710               0.402646365               0.000000000              -0.318542033               0.426984773               0.000000000              -0.337361355               0.451323182               0.000000000              -0.356180678               0.475661591               0.000000000              -0.375000000               0.500000000               0.000000000              -0.062695766               0.117295528               0.000000000              -0.078308531               0.141214558               0.000000000              -0.093921295               0.165133587               0.000000000              -0.109534060               0.189052617               0.000000000              -0.125146824               0.212971646               0.000000000              -0.140759589               0.236890676               0.000000000              -0.156372354               0.260809705               0.000000000              -0.171985118               0.284728735               0.000000000              -0.187597883               0.308647764               0.000000000              -0.203210648               0.332566794               0.000000000              -0.218823412               0.356485823               0.000000000              -0.234436177               0.380404853               0.000000000              -0.250048941               0.404323882               0.000000000              -0.265661706               0.428242912               0.000000000              -0.281274471               0.452161941               0.000000000              -0.296887235               0.476080971               0.000000000              -0.312500000               0.500000000               0.000000000              -0.050896897               0.122875978               0.000000000              -0.063340840               0.146446229               0.000000000              -0.075784784               0.170016481               0.000000000              -0.088228728               0.193586732               0.000000000              -0.100672672               0.217156983               0.000000000              -0.113116616               0.240727235               0.000000000              -0.125560560               0.264297486               0.000000000              -0.138004504               0.287867738               0.000000000              -0.150448448               0.311437989               0.000000000              -0.162892392               0.335008240               0.000000000              -0.175336336               0.358578492               0.000000000              -0.187780280               0.382148743               0.000000000              -0.200224224               0.405718994               0.000000000              -0.212668168               0.429289246               0.000000000              -0.225112112               0.452859497               0.000000000              -0.237556056               0.476429749               0.000000000              -0.250000000               0.500000000               0.000000000              -0.038607862               0.127273065               0.000000000              -0.047913621               0.150568498               0.000000000              -0.057219379               0.173863932               0.000000000              -0.066525138               0.197159365               0.000000000              -0.075830897               0.220454798               0.000000000              -0.085136655               0.243750232               0.000000000              -0.094442414               0.267045665               0.000000000              -0.103748172               0.290341099               0.000000000              -0.113053931               0.313636532               0.000000000              -0.122359690               0.336931966               0.000000000              -0.131665448               0.360227399               0.000000000              -0.140971207               0.383522833               0.000000000              -0.150276966               0.406818266               0.000000000              -0.159582724               0.430113700               0.000000000              -0.168888483               0.453409133               0.000000000              -0.178194241               0.476704567               0.000000000              -0.187500000               0.500000000               0.000000000              -0.025947013               0.130444442               0.000000000              -0.032137825               0.153541665               0.000000000              -0.038328636               0.176638887               0.000000000              -0.044519448               0.199736109               0.000000000              -0.050710260               0.222833332               0.000000000              -0.056901071               0.245930554               0.000000000              -0.063091883               0.269027776               0.000000000              -0.069282695               0.292124999               0.000000000              -0.075473506               0.315222221               0.000000000              -0.081664318               0.338319444               0.000000000              -0.087855130               0.361416666               0.000000000              -0.094045942               0.384513888               0.000000000              -0.100236753               0.407611111               0.000000000              -0.106427565               0.430708333               0.000000000              -0.112618377               0.453805555               0.000000000              -0.118809188               0.476902778               0.000000000              -0.125000000               0.500000000               0.000000000              -0.013036280               0.132359569               0.000000000              -0.016127762               0.155337096               0.000000000              -0.019219245               0.178314623               0.000000000              -0.022310727               0.201292150               0.000000000              -0.025402210               0.224269676               0.000000000              -0.028493692               0.247247203               0.000000000              -0.031585175               0.270224730               0.000000000              -0.034676657               0.293202257               0.000000000              -0.037768140               0.316179784               0.000000000              -0.040859622               0.339157311               0.000000000              -0.043951105               0.362134838               0.000000000              -0.047042587               0.385112365               0.000000000              -0.050134070               0.408089892               0.000000000              -0.053225552               0.431067419               0.000000000              -0.056317035               0.454044946               0.000000000              -0.059408517               0.477022473               0.000000000              -0.062500000               0.500000000               0.000000000               0.000000000               0.133000000               0.000000000               0.000000000               0.155937500               0.000000000               0.000000000               0.178875000               0.000000000               0.000000000               0.201812500               0.000000000               0.000000000               0.224750000               0.000000000               0.000000000               0.247687500               0.000000000               0.000000000               0.270625000               0.000000000               0.000000000               0.293562500               0.000000000               0.000000000               0.316500000               0.000000000               0.000000000               0.339437500               0.000000000               0.000000000               0.362375000               0.000000000               0.000000000               0.385312500               0.000000000               0.000000000               0.408250000               0.000000000               0.000000000               0.431187500               0.000000000               0.000000000               0.454125000               0.000000000               0.000000000               0.477062500               0.000000000               0.000000000               0.500000000               0.000000000 </DataArray>
</Points>
<Cells>
<DataArray type="Int32"                                    Name="connectivity"                                                      NumberOfComponents=" 1" format="ascii">
         0          1         18         17          1          2         19         18          2          3         20         19          3          4         21         20          4          5         22         21          5          6         23         22          6          7         24         23          7          8         25         24          8          9         26         25          9         10         27         26         10         11         28         27         11         12         29         28         12         13         30         29         13         14         31         30         14         15         32         31         15         16         33         32         17         18         35         34         18         19         36         35         19         20         37         36         20         21         38         37         21         22         39         38         22         23         40         39         23         24         41         40         24         25         42         41         25         26         43         42         26         27         44         43         27         28         45         44         28         29         46         45         29         30         47         46         30         31         48         47         31         32         49         48         32         33         50         49         34         35         52         51         35         36         53         52         36         37         54         53         37         38         55         54         38         39         56         55         39         40         57         56         40         41         58         57         41         42         59         58         42         43         60         59         43         44         61         60         44         45         62         61         45         46         63         62         46         47         64         63         47         48         65         64         48         49         66         65         49         50         67         66         51         52         69         68         52         53         70         69         53         54         71         70         54         55         72         71         55         56         73         72         56         57         74         73         57         58         75         74         58         59         76         75         59         60         77         76         60         61         78         77         61         62         79         78         62         63         80         79         63         64         81         80         64         65         82         81         65         66         83         82         66         67         84         83         68         69         86         85         69         70         87         86         70         71         88         87         71         72         89         88         72         73         90         89         73         74         91         90         74         75         92         91         75         76         93         92         76         77         94         93         77         78         95         94         78         79         96         95         79         80         97         96         80         81         98         97         81         82         99         98         82         83        100         99         83         84        101        100         85         86        103        102         86         87        104        103         87         88        105        104         88         89        106        105         89         90        107        106         90         91        108        107         91         92        109        108         92         93        110        109         93         94        111        110         94         95        112        111         95         96        113        112         96         97        114        113         97         98        115        114         98         99        116        115         99        100        117        116        100        101        118        117        102        103        120        119        103        104        121        120        104        105        122        121        105        106        123        122        106        107        124        123        107        108        125        124        108        109        126        125        109        110        127        126        110        111        128        127        111        112        129        128        112        113        130        129        113        114        131        130        114        115        132        131        115        116        133        132        116        117        134        133        117        118        135        134        119        120        137        136        120        121        138        137        121        122        139        138        122        123        140        139        123        124        141        140        124        125        142        141        125        126        143        142        126        127        144        143        127        128        145        144        128        129        146        145        129        130        147        146        130        131        148        147        131        132        149        148        132        133        150        149        133        134        151        150        134        135        152        151        136        137        154        153        137        138        155        154        138        139        156        155        139        140        157        156        140        141        158        157        141        142        159        158        142        143        160        159        143        144        161        160        144        145        162        161        145        146        163        162        146        147        164        163        147        148        165        164        148        149        166        165        149        150        167        166        150        151        168        167        151        152        169        168        153        154        171        170        154        155        172        171        155        156        173        172        156        157        174        173        157        158        175        174        158        159        176        175        159        160        177        176        160        161        178        177        161        162        179        178        162        163        180        179        163        164        181        180        164        165        182        181        165        166        183        182        166        167        184        183        167        168        185        184        168        169        186        185        170        171        188        187        171        172        189        188        172        173        190        189        173        174        191        190        174        175        192        191        175        176        193        192        176        177        194        193        177        178        195        194        178        179        196        195        179        180        197        196        180        181        198        197        181        182        199        198        182        183        200        199        183        184        201        200        184        185        202        201        185        186        203        202        187        188        205        204        188        189        206        205        189        190        207        206        190        191        208        207        191        192        209        208        192        193        210        209        193        194        211        210        194        195        212        211        195        196        213        212        196        197        214        213        197        198        215        214        198        199        216        215        199        200        217        216        200        201        218        217        201        202        219        218        202        203        220        219        204        205        222        221        205        206        223        222        206        207        224        223        207        208        225        224        208        209        226        225        209        210        227        226        210        211        228        227        211        212        229        228        212        213        230        229        213        214        231        230        214        215        232        231        215        216        233        232        216        217        234        233        217        218        235        234        218        219        236        235        219        220        237        236        221        222        239        238        222        223        240        239        223        224        241        240        224        225        242        241        225        226        243        242        226        227        244        243        227        228        245        244        228        229        246        245        229        230        247        246        230        231        248        247        231        232        249        248        232        233        250        249        233        234        251        250        234        235        252        251        235        236        253        252        236        237        254        253        238        239        256        255        239        240        257        256        240        241        258        257        241        242        259        258        242        243        260        259        243        244        261        260        244        245        262        261        245        246        263        262        246        247        264        263        247        248        265        264        248        249        266        265        249        250        267        266        250        251        268        267        251        252        269        268        252        253        270        269        253        254        271        270        255        256        273        272        256        257        274        273        257        258        275        274        258        259        276        275        259        260        277        276        260        261        278        277        261        262        279        278        262        263        280        279        263        264        281        280        264        265        282        281        265        266        283        282        266        267        284        283        267        268        285        284        268        269        286        285        269        270        287        286        270        271        288        287        306        307          1          0        307        308          2          1        308        309          3          2        309        310          4          3        310        311          5          4        311        312          6          5        312        313          7          6        313        314          8          7        314        315          9          8        315        316         10          9        316        317         11         10        317        318         12         11        318        319         13         12        319        320         14         13        320        321         15         14        321        322         16         15        323        324        307        306        324        325        308        307        325        326        309        308        326        327        310        309        327        328        311        310        328        329        312        311        329        330        313        312        330        331        314        313        331        332        315        314        332        333        316        315        333        334        317        316        334        335        318        317        335        336        319        318        336        337        320        319        337        338        321        320        338        339        322        321        340        341        324        323        341        342        325        324        342        343        326        325        343        344        327        326        344        345        328        327        345        346        329        328        346        347        330        329        347        348        331        330        348        349        332        331        349        350        333        332        350        351        334        333        351        352        335        334        352        353        336        335        353        354        337        336        354        355        338        337        355        356        339        338        357        358        341        340        358        359        342        341        359        360        343        342        360        361        344        343        361        362        345        344        362        363        346        345        363        364        347        346        364        365        348        347        365        366        349        348        366        367        350        349        367        368        351        350        368        369        352        351        369        370        353        352        370        371        354        353        371        372        355        354        372        373        356        355        374        375        358        357        375        376        359        358        376        377        360        359        377        378        361        360        378        379        362        361        379        380        363        362        380        381        364        363        381        382        365        364        382        383        366        365        383        384        367        366        384        385        368        367        385        386        369        368        386        387        370        369        387        388        371        370        388        389        372        371        389        390        373        372        391        392        375        374        392        393        376        375        393        394        377        376        394        395        378        377        395        396        379        378        396        397        380        379        397        398        381        380        398        399        382        381        399        400        383        382        400        401        384        383        401        402        385        384        402        403        386        385        403        404        387        386        404        405        388        387        405        406        389        388        406        407        390        389        408        409        392        391        409        410        393        392        410        411        394        393        411        412        395        394        412        413        396        395        413        414        397        396        414        415        398        397        415        416        399        398        416        417        400        399        417        418        401        400        418        419        402        401        419        420        403        402        420        421        404        403        421        422        405        404        422        423        406        405        423        424        407        406        425        426        409        408        426        427        410        409        427        428        411        410        428        429        412        411        429        430        413        412        430        431        414        413        431        432        415        414        432        433        416        415        433        434        417        416        434        435        418        417        435        436        419        418        436        437        420        419        437        438        421        420        438        439        422        421        439        440        423        422        440        441        424        423        442        443        426        425        443        444        427        426        444        445        428        427        445        446        429        428        446        447        430        429        447        448        431        430        448        449        432        431        449        450        433        432        450        451        434        433        451        452        435        434        452        453        436        435        453        454        437        436        454        455        438        437        455        456        439        438        456        457        440        439        457        458        441        440        459        460        443        442        460        461        444        443        461        462        445        444        462        463        446        445        463        464        447        446        464        465        448        447        465        466        449        448        466        467        450        449        467        468        451        450        468        469        452        451        469        470        453        452        470        471        454        453        471        472        455        454        472        473        456        455        473        474        457        456        474        475        458        457        476        477        460        459        477        478        461        460        478        479        462        461        479        480        463        462        480        481        464        463        481        482        465        464        482        483        466        465        483        484        467        466        484        485        468        467        485        486        469        468        486        487        470        469        487        488        471        470        488        489        472        471        489        490        473        472        490        491        474        473        491        492        475        474        493        494        477        476        494        495        478        477        495        496        479        478        496        497        480        479        497        498        481        480        498        499        482        481        499        500        483        482        500        501        484        483        501        502        485        484        502        503        486        485        503        504        487        486        504        505        488        487        505        506        489        488        506        507        490        489        507        508        491        490        508        509        492        491        510        511        494        493        511        512        495        494        512        513        496        495        513        514        497        496        514        515        498        497        515        516        499        498        516        517        500        499        517        518        501        500        518        519        502        501        519        520        503        502        520        521        504        503        521        522        505        504        522        523        506        505        523        524        507        506        524        525        508        507        525        526        509        508        527        528        511        510        528        529        512        511        529        530        513        512        530        531        514        513        531        532        515        514        532        533        516        515        533        534        517        516        534        535        518        517        535        536        519        518        536        537        520        519        537        538        521        520        538        539        522        521        539        540        523        522        540        541        524        523        541        542        525        524        542        543        526        525        544        545        528        527        545        546        529        528        546        547        530        529        547        548        531        530        548        549        532        531        549        550        533        532        550        551        534        533        551        552        535        534        552        553        536        535        553        554        537        536        554        555        538        537        555        556        539        538        556        557        540        539        557        558        541        540        558        559        542        541        559        560        543        542        561        562        545        544        562        563        546        545        563        564        547        546        564        565        548        547        565        566        549        548        566        567        550        549        567        568        551        550        568        569        552        551        569        570        553        552        570        571        554        553        571        572        555        554        572        573        556        555        573        574        557        556        574        575        558        557        575        576        559        558        576        577        560        559        578        579        596        595        579        580        597        596        580        581        598        597        581        582        599        598        582        583        600        599        583        584        601        600        584        585        602        601        585        586        603        602        586        587        604        603        587        588        605        604        588        589        606        605        589        590        607        606        590        591        608        607        591        592        609        608        592        593        610        609        593        594        611        610        595        596        613        612        596        597        614        613        597        598        615        614        598        599        616        615        599        600        617        616        600        601        618        617        601        602        619        618        602        603        620        619        603        604        621        620        604        605        622        621        605        606        623        622        606        607        624        623        607        608        625        624        608        609        626        625        609        610        627        626        610        611        628        627        612        613        630        629        613        614        631        630        614        615        632        631        615        616        633        632        616        617        634        633        617        618        635        634        618        619        636        635        619        620        637        636        620        621        638        637        621        622        639        638        622        623        640        639        623        624        641        640        624        625        642        641        625        626        643        642        626        627        644        643        627        628        645        644        629        630        647        646        630        631        648        647        631        632        649        648        632        633        650        649        633        634        651        650        634        635        652        651        635        636        653        652        636        637        654        653        637        638        655        654        638        639        656        655        639        640        657        656        640        641        658        657        641        642        659        658        642        643        660        659        643        644        661        660        644        645        662        661        646        647        664        663        647        648        665        664        648        649        666        665        649        650        667        666        650        651        668        667        651        652        669        668        652        653        670        669        653        654        671        670        654        655        672        671        655        656        673        672        656        657        674        673        657        658        675        674        658        659        676        675        659        660        677        676        660        661        678        677        661        662        679        678        663        664        681        680        664        665        682        681        665        666        683        682        666        667        684        683        667        668        685        684        668        669        686        685        669        670        687        686        670        671        688        687        671        672        689        688        672        673        690        689        673        674        691        690        674        675        692        691        675        676        693        692        676        677        694        693        677        678        695        694        678        679        696        695        680        681        698        697        681        682        699        698        682        683        700        699        683        684        701        700        684        685        702        701        685        686        703        702        686        687        704        703        687        688        705        704        688        689        706        705        689        690        707        706        690        691        708        707        691        692        709        708        692        693        710        709        693        694        711        710        694        695        712        711        695        696        713        712        697        698        715        714        698        699        716        715        699        700        717        716        700        701        718        717        701        702        719        718        702        703        720        719        703        704        721        720        704        705        722        721        705        706        723        722        706        707        724        723        707        708        725        724        708        709        726        725        709        710        727        726        710        711        728        727        711        712        729        728        712        713        730        729        714        715        732        731        715        716        733        732        716        717        734        733        717        718        735        734        718        719        736        735        719        720        737        736        720        721        738        737        721        722        739        738        722        723        740        739        723        724        741        740        724        725        742        741        725        726        743        742        726        727        744        743        727        728        745        744        728        729        746        745        729        730        747        746        731        732        749        748        732        733        750        749        733        734        751        750        734        735        752        751        735        736        753        752        736        737        754        753        737        738        755        754        738        739        756        755        739        740        757        756        740        741        758        757        741        742        759        758        742        743        760        759        743        744        761        760        744        745        762        761        745        746        763        762        746        747        764        763        748        749        766        765        749        750        767        766        750        751        768        767        751        752        769        768        752        753        770        769        753        754        771        770        754        755        772        771        755        756        773        772        756        757        774        773        757        758        775        774        758        759        776        775        759        760        777        776        760        761        778        777        761        762        779        778        762        763        780        779        763        764        781        780        765        766        783        782        766        767        784        783        767        768        785        784        768        769        786        785        769        770        787        786        770        771        788        787        771        772        789        788        772        773        790        789        773        774        791        790        774        775        792        791        775        776        793        792        776        777        794        793        777        778        795        794        778        779        796        795        779        780        797        796        780        781        798        797        782        783        800        799        783        784        801        800        784        785        802        801        785        786        803        802        786        787        804        803        787        788        805        804        788        789        806        805        789        790        807        806        790        791        808        807        791        792        809        808        792        793        810        809        793        794        811        810        794        795        812        811        795        796        813        812        796        797        814        813        797        798        815        814        799        800        817        816        800        801        818        817        801        802        819        818        802        803        820        819        803        804        821        820        804        805        822        821        805        806        823        822        806        807        824        823        807        808        825        824        808        809        826        825        809        810        827        826        810        811        828        827        811        812        829        828        812        813        830        829        813        814        831        830        814        815        832        831        816        817        834        833        817        818        835        834        818        819        836        835        819        820        837        836        820        821        838        837        821        822        839        838        822        823        840        839        823        824        841        840        824        825        842        841        825        826        843        842        826        827        844        843        827        828        845        844        828        829        846        845        829        830        847        846        830        831        848        847        831        832        849        848        833        834        562        561        834        835        563        562        835        836        564        563        836        837        565        564        837        838        566        565        838        839        567        566        839        840        568        567        840        841        569        568        841        842        570        569        842        843        571        570        843        844        572        571        844        845        573        572        845        846        574        573        846        847        575        574        847        848        576        575        848        849        577        576        884        885        579        578        885        886        580        579        886        887        581        580        887        888        582        581        888        889        583        582        889        890        584        583        890        891        585        584        891        892        586        585        892        893        587        586        893        894        588        587        894        895        589        588        895        896        590        589        896        897        591        590        897        898        592        591        898        899        593        592        899        900        594        593        901        902        885        884        902        903        886        885        903        904        887        886        904        905        888        887        905        906        889        888        906        907        890        889        907        908        891        890        908        909        892        891        909        910        893        892        910        911        894        893        911        912        895        894        912        913        896        895        913        914        897        896        914        915        898        897        915        916        899        898        916        917        900        899        918        919        902        901        919        920        903        902        920        921        904        903        921        922        905        904        922        923        906        905        923        924        907        906        924        925        908        907        925        926        909        908        926        927        910        909        927        928        911        910        928        929        912        911        929        930        913        912        930        931        914        913        931        932        915        914        932        933        916        915        933        934        917        916        935        936        919        918        936        937        920        919        937        938        921        920        938        939        922        921        939        940        923        922        940        941        924        923        941        942        925        924        942        943        926        925        943        944        927        926        944        945        928        927        945        946        929        928        946        947        930        929        947        948        931        930        948        949        932        931        949        950        933        932        950        951        934        933        952        953        936        935        953        954        937        936        954        955        938        937        955        956        939        938        956        957        940        939        957        958        941        940        958        959        942        941        959        960        943        942        960        961        944        943        961        962        945        944        962        963        946        945        963        964        947        946        964        965        948        947        965        966        949        948        966        967        950        949        967        968        951        950        969        970        953        952        970        971        954        953        971        972        955        954        972        973        956        955        973        974        957        956        974        975        958        957        975        976        959        958        976        977        960        959        977        978        961        960        978        979        962        961        979        980        963        962        980        981        964        963        981        982        965        964        982        983        966        965        983        984        967        966        984        985        968        967        986        987        970        969        987        988        971        970        988        989        972        971        989        990        973        972        990        991        974        973        991        992        975        974        992        993        976        975        993        994        977        976        994        995        978        977        995        996        979        978        996        997        980        979        997        998        981        980        998        999        982        981        999       1000        983        982       1000       1001        984        983       1001       1002        985        984       1003       1004        987        986       1004       1005        988        987       1005       1006        989        988       1006       1007        990        989       1007       1008        991        990       1008       1009        992        991       1009       1010        993        992       1010       1011        994        993       1011       1012        995        994       1012       1013        996        995       1013       1014        997        996       1014       1015        998        997       1015       1016        999        998       1016       1017       1000        999       1017       1018       1001       1000       1018       1019       1002       1001       1020       1021       1004       1003       1021       1022       1005       1004       1022       1023       1006       1005       1023       1024       1007       1006       1024       1025       1008       1007       1025       1026       1009       1008       1026       1027       1010       1009       1027       1028       1011       1010       1028       1029       1012       1011       1029       1030       1013       1012       1030       1031       1014       1013       1031       1032       1015       1014       1032       1033       1016       1015       1033       1034       1017       1016       1034       1035       1018       1017       1035       1036       1019       1018       1037       1038       1021       1020       1038       1039       1022       1021       1039       1040       1023       1022       1040       1041       1024       1023       1041       1042       1025       1024       1042       1043       1026       1025       1043       1044       1027       1026       1044       1045       1028       1027       1045       1046       1029       1028       1046       1047       1030       1029       1047       1048       1031       1030       1048       1049       1032       1031       1049       1050       1033       1032       1050       1051       1034       1033       1051       1052       1035       1034       1052       1053       1036       1035       1054       1055       1038       1037       1055       1056       1039       1038       1056       1057       1040       1039       1057       1058       1041       1040       1058       1059       1042       1041       1059       1060       1043       1042       1060       1061       1044       1043       1061       1062       1045       1044       1062       1063       1046       1045       1063       1064       1047       1046       1064       1065       1048       1047       1065       1066       1049       1048       1066       1067       1050       1049       1067       1068       1051       1050       1068       1069       1052       1051       1069       1070       1053       1052       1071       1072       1055       1054       1072       1073       1056       1055       1073       1074       1057       1056       1074       1075       1058       1057       1075       1076       1059       1058       1076       1077       1060       1059       1077       1078       1061       1060       1078       1079       1062       1061       1079       1080       1063       1062       1080       1081       1064       1063       1081       1082       1065       1064       1082       1083       1066       1065       1083       1084       1067       1066       1084       1085       1068       1067       1085       1086       1069       1068       1086       1087       1070       1069       1088       1089       1072       1071       1089       1090       1073       1072       1090       1091       1074       1073       1091       1092       1075       1074       1092       1093       1076       1075       1093       1094       1077       1076       1094       1095       1078       1077       1095       1096       1079       1078       1096       1097       1080       1079       1097       1098       1081       1080       1098       1099       1082       1081       1099       1100       1083       1082       1100       1101       1084       1083       1101       1102       1085       1084       1102       1103       1086       1085       1103       1104       1087       1086       1105       1106       1089       1088       1106       1107       1090       1089       1107       1108       1091       1090       1108       1109       1092       1091       1109       1110       1093       1092       1110       1111       1094       1093       1111       1112       1095       1094       1112       1113       1096       1095       1113       1114       1097       1096       1114       1115       1098       1097       1115       1116       1099       1098       1116       1117       1100       1099       1117       1118       1101       1100       1118       1119       1102       1101       1119       1120       1103       1102       1120       1121       1104       1103       1122       1123       1106       1105       1123       1124       1107       1106       1124       1125       1108       1107       1125       1126       1109       1108       1126       1127       1110       1109       1127       1128       1111       1110       1128       1129       1112       1111       1129       1130       1113       1112       1130       1131       1114       1113       1131       1132       1115       1114       1132       1133       1116       1115       1133       1134       1117       1116       1134       1135       1118       1117       1135       1136       1119       1118       1136       1137       1120       1119       1137       1138       1121       1120        272        273       1123       1122        273        274       1124       1123        274        275       1125       1124        275        276       1126       1125        276        277       1127       1126        277        278       1128       1127        278        279       1129       1128        279        280       1130       1129        280        281       1131       1130        281        282       1132       1131        282        283       1133       1132        283        284       1134       1133        284        285       1135       1134        285        286       1136       1135        286        287       1137       1136        287        288       1138       1137 </DataArray>
<DataArray type="Int32"                                    Name="offsets"                                                      NumberOfComponents=" 1" format="ascii">
         4          8         12         16         20         24         28         32         36         40         44         48         52         56         60         64         68         72         76         80         84         88         92         96        100        104        108        112        116        120        124        128        132        136        140        144        148        152        156        160        164        168        172        176        180        184        188        192        196        200        204        208        212        216        220        224        228        232        236        240        244        248        252        256        260        264        268        272        276        280        284        288        292        296        300        304        308        312        316        320        324        328        332        336        340        344        348        352        356        360        364        368        372        376        380        384        388        392        396        400        404        408        412        416        420        424        428        432        436        440        444        448        452        456        460        464        468        472        476        480        484        488        492        496        500        504        508        512        516        520        524        528        532        536        540        544        548        552        556        560        564        568        572        576        580        584        588        592        596        600        604        608        612        616        620        624        628        632        636        640        644        648        652        656        660        664        668        672        676        680        684        688        692        696        700        704        708        712        716        720        724        728        732        736        740        744        748        752        756        760        764        768        772        776        780        784        788        792        796        800        804        808        812        816        820        824        828        832        836        840        844        848        852        856        860        864        868        872        876        880        884        888        892        896        900        904        908        912        916        920        924        928        932        936        940        944        948        952        956        960        964        968        972        976        980        984        988        992        996       1000       1004       1008       1012       1016       1020       1024       1028       1032       1036       1040       1044       1048       1052       1056       1060       1064       1068       1072       1076       1080       1084       1088       1092       1096       1100       1104       1108       1112       1116       1120       1124       1128       1132       1136       1140       1144       1148       1152       1156       1160       1164       1168       1172       1176       1180       1184       1188       1192       1196       1200       1204       1208       1212       1216       1220       1224       1228       1232       1236       1240       1244       1248       1252       1256       1260       1264       1268       1272       1276       1280       1284       1288       1292       1296       1300       1304       1308       1312       1316       1320       1324       1328       1332       1336       1340       1344       1348       1352       1356       1360       1364       1368       1372       1376       1380       1384       1388       1392       1396       1400       1404       1408       1412       1416       1420       1424       1428       1432       1436       1440       1444       1448       1452       1456       1460       1464       1468       1472       1476       1480       1484       1488       1492       1496       1500       1504       1508       1512       1516       1520       1524       1528       1532       1536       1540       1544       1548       1552       1556       1560       1564       1568       1572       1576       1580       1584       1588       1592       1596       1600       1604       1608       1612       1616       1620       1624       1628       1632       1636       1640       1644       1648       1652       1656       1660       1664       1668       1672       1676       1680       1684       1688       1692       1696       1700       1704       1708       1712       1716       1720       1724       1728       1732       1736       1740       1744       1748       1752       1756       1760       1764       1768       1772       1776       1780       1784       1788       1792       1796       1800       1804       1808       1812       1816       1820       1824       1828       1832       1836       1840       1844       1848       1852       1856       1860       1864       1868       1872       1876       1880       1884       1888       1892       1896       1900       1904       1908       1912       1916       1920       1924       1928       1932       1936       1940       1944       1948       1952       1956       1960       1964       1968       1972       1976       1980       1984       1988       1992       1996       2000       2004       2008       2012       2016       2020       2024       2028       2032       2036       2040       2044       2048       2052       2056       2060       2064       2068       2072       2076       2080       2084       2088       2092       2096       2100       2104       2108       2112       2116       2120       2124       2128       2132       2136       2140       2144       2148       2152       2156       2160       2164       2168       2172       2176       2180       2184       2188       2192       2196       2200       2204       2208       2212       2216       2220       2224       2228       2232       2236       2240       2244       2248       2252       2256       2260       2264       2268       2272       2276       2280       2284       2288       2292       2296       2300       2304       2308       2312       2316       2320       2324       2328       2332       2336       2340       2344       2348       2352       2356       2360       2364       2368       2372       2376       2380       2384       2388       2392       2396       2400       2404       2408       2412       2416       2420       2424       2428       2432       2436       2440       2444       2448       2452       2456       2460       2464       2468       2472       2476       2480       2484       2488       2492       2496       2500       2504       2508       2512       2516       2520       2524       2528       2532       2536       2540       2544       2548       2552       2556       2560       2564       2568       2572       2576       2580       2584       2588       2592       2596       2600       2604       2608       2612       2616       2620       2624       2628       2632       2636       2640       2644       2648       2652       2656       2660       2664       2668       2672       2676       2680       2684       2688       2692       2696       2700       2704       2708       2712       2716       2720       2724       2728       2732       2736       2740       2744       2748       2752       2756       2760       2764       2768       2772       2776       2780       2784       2788       2792       2796       2800       2804       2808       2812       2816       2820       2824       2828       2832       2836       2840       2844       2848       2852       2856       2860       2864       2868       2872       2876       2880       2884       2888       2892       2896       2900       2904       2908       2912       2916       2920       2924       2928       2932       2936       2940       2944       2948       2952       2956       2960       2964       2968       2972       2976       2980       2984       2988       2992       2996       3000       3004       3008       3012       3016       3020       3024       3028       3032       3036       3040       3044       3048       3052       3056       3060       3064       3068       3072       3076       3080       3084       3088       3092       3096       3100       3104       3108       3112       3116       3120       3124       3128       3132       3136       3140       3144       3148       3152       3156       3160       3164       3168       3172       3176       3180       3184       3188       3192       3196       3200       3204       3208       3212       3216       3220       3224       3228       3232       3236       3240       3244       3248       3252       3256       3260       3264       3268       3272       3276       3280       3284       3288       3292       3296       3300       3304       3308       3312       3316       3320       3324       3328       3332       3336       3340       3344       3348       3352       3356       3360       3364       3368       3372       3376       3380       3384       3388       3392       3396       3400       3404       3408       3412       3416       3420       3424       3428       3432       3436       3440       3444       3448       3452       3456       3460       3464       3468       3472       3476       3480       3484       3488       3492       3496       3500       3504       3508       3512       3516       3520       3524       3528       3532       3536       3540       3544       3548       3552       3556       3560       3564       3568       3572       3576       3580       3584       3588       3592       3596       3600       3604       3608       3612       3616       3620       3624       3628       3632       3636       3640       3644       3648       3652       3656       3660       3664       3668       3672       3676       3680       3684       3688       3692       3696       3700       3704       3708       3712       3716       3720       3724       3728       3732       3736       3740       3744       3748       3752       3756       3760       3764       3768       3772       3776       3780       3784       3788       3792       3796       3800       3804       3808       3812       3816       3820       3824       3828       3832       3836       3840       3844       3848       3852       3856       3860       3864       3868       3872       3876       3880       3884       3888       3892       3896       3900       3904       3908       3912       3916       3920       3924       3928       3932       3936       3940       3944       3948       3952       3956       3960       3964       3968       3972       3976       3980       3984       3988       3992       3996       4000       4004       4008       4012       4016       4020       4024       4028       4032       4036       4040       4044       4048       4052       4056       4060       4064       4068       4072       4076       4080       4084       4088       4092       4096 </DataArray>
<DataArray type="UInt8"                                    Name="types"                                                      NumberOfComponents=" 1" format="ascii">
         9          9          9          9          9          9          9          9          9          9          9          9          9          9          9          9          9          9          9          9          9          9          9          9          9          9          9          9          9          9          9          9          9          9          9          9          9          9          9          9          9          9          9          9          9          9          9          9          9          9          9          9          9          9          9          9          9          9          9          9          9          9          9          9          9          9          9          9          9          9          9          9          9          9          9          9          9          9          9          9          9          9          9          9          9          9          9          9          9          9          9          9          9          9          9          9          9          9          9          9          9          9          9          9          9          9          9          9          9          9          9          9          9          9          9          9          9          9          9          9          9          9          9          9          9          9          9          9          9          9          9          9          9          9          9          9          9          9          9          9          9          9          9          9          9          9          9          9          9          9          9          9          9          9          9          9          9          9          9          9          9          9          9          9          9          9          9          9          9          9          9          9          9          9          9          9          9          9          9          9          9          9          9          9          9          9          9          9          9          9          9          9          9          9          9          9          9          9          9          9          9          9          9          9          9          9          9          9          9          9          9          9          9          9          9          9          9          9          9          9          9          9          9          9          9          9          9          9          9          9          9          9          9          9          9          9          9          9          9          9          9          9          9          9          9          9          9          9          9          9          9          9          9          9          9          9          9          9          9          9          9          9          9          9          9          9          9          9          9          9          9          9          9          9          9          9          9          9          9          9          9          9          9          9          9          9          9          9          9          9          9          9          9          9          9          9          9          9          9          9          9          9          9          9          9          9          9          9          9          9          9          9          9          9          9          9          9          9          9          9          9          9          9          9          9          9          9          9          9          9          9          9          9          9          9          9          9          9          9          9          9          9          9          9          9          9          9          9          9          9          9          9          9          9          9          9          9          9          9          9          9          9          9          9          9          9          9          9          9          9          9          9          9          9          9          9          9          9          9          9          9          9          9          9          9          9          9          9          9          9          9          9          9          9          9          9          9          9          9          9          9          9          9          9          9          9          9          9          9          9          9          9          9          9          9          9          9          9          9          9          9          9          9          9          9          9          9          9          9          9          9          9          9          9          9          9          9          9          9          9          9          9          9          9          9          9          9          9          9          9          9          9          9          9          9          9          9          9          9          9          9          9          9          9          9          9          9          9          9          9          9          9          9          9          9          9          9          9          9          9          9          9          9          9          9          9          9          9          9          9          9          9          9          9          9          9          9          9          9          9          9          9          9          9          9          9          9          9          9          9          9          9          9          9          9          9          9          9          9          9          9          9          9          9          9          9          9          9          9          9          9          9          9          9          9          9          9          9          9          9          9          9          9          9          9          9          9          9          9          9          9          9          9          9          9          9          9          9          9          9          9          9          9          9          9          9          9          9          9          9          9          9          9          9          9          9          9          9          9          9          9          9          9          9          9          9          9          9          9          9          9          9          9          9          9          9          9          9          9          9          9          9          9          9          9          9          9          9          9          9          9          9          9          9          9          9          9          9          9          9          9          9          9          9          9          9          9          9          9          9          9          9          9          9          9          9          9          9          9          9          9          9          9          9          9          9          9          9          9          9          9          9          9          9          9          9          9          9          9          9          9          9          9          9          9          9          9          9          9          9          9          9          9          9          9          9          9          9          9          9          9          9          9          9          9          9          9          9          9          9          9          9          9          9          9          9          9          9          9          9          9          9          9          9          9          9          9          9          9          9          9          9          9          9          9          9          9          9          9          9          9          9          9          9          9          9          9          9          9          9          9          9          9          9          9          9          9          9          9          9          9          9          9          9          9          9          9          9          9          9          9          9          9          9          9          9          9          9          9          9          9          9          9          9          9          9          9          9          9          9          9          9          9          9          9          9          9          9          9          9          9          9          9          9          9          9          9          9          9          9          9          9          9          9          9          9          9          9          9          9          9          9          9          9          9          9          9          9          9          9          9          9          9          9          9          9          9          9          9          9          9          9          9          9          9          9          9          9          9          9          9          9          9          9          9          9          9          9          9          9          9          9          9          9          9          9          9          9          9          9          9          9          9          9          9          9          9          9          9          9          9          9          9          9          9          9          9          9          9          9          9          9          9          9          9          9          9          9          9          9          9          9          9          9          9          9          9          9          9          9          9          9          9          9          9          9          9          9          9          9          9          9          9          9          9          9          9          9          9          9          9          9          9          9          9          9          9          9          9          9          9          9          9          9          9          9          9          9          9          9          9          9          9          9          9          9          9          9          9          9          9          9          9          9          9          9          9          9          9          9          9          9          9          9          9          9          9          9          9          9          9          9          9          9          9          9          9          9          9          9          9          9          9          9          9          9          9          9          9          9          9          9          9          9          9          9          9          9          9          9          9          9          9          9          9          9          9          9          9          9          9          9          9          9          9          9          9          9          9          9          9          9          9          9          9          9          9          9          9          9          9          9          9          9 </DataArray>
</Cells>
<CellData>
<DataArray type="Int32"                                    Name="material"                                                      NumberOfComponents=" 1" format="ascii">
         1          1          1          1          1          1          1          1          1          1          1          1          1          1          1          1          1          1          1          1          1          1          1          1          1          1          1          1          1          1          1          1          1          1          1          1          1          1          1          1          1          1          1          1          1          1          1          1          1          1          1          1          1          1          1          1          1          1          1          1          1          1          1          1          1          1          1          1          1          1          1          1          1          1          1          1          1          1          1          1          1          1          1          1          1          1          1          1          1          1          1          1          1          1          1          1          1          1          1          1          1          1          1          1          1          1          1          1          1          1          1          1          1          1          1          1          1          1          1          1          1          1          1          1          1          1          1          1          1          1          1          1          1          1          1          1          1          1          1          1          1          1          1          1          1          1          1          1          1          1          1          1          1          1          1          1          1          1          1          1          1          1          1          1          1          1          1          1          1          1          1          1          1          1          1          1          1          1          1          1          1          1          1          1          1          1          1          1          1          1          1          1          1          1          1          1          1          1          1          1          1          1          1          1          1          1          1          1          1          1          1          1          1          1          1          1          1          1          1          1          1          1          1          1          1          1          1          1          1          1          1          1          1          1          1          1          1          1          1          1          1          1          1          1          1          1          1          1          1          1          1          1          1          1          1          1          1          1          1          1          1          1          1          1          1          1          1          1          1          1          1          1          1          1          1          1          1          1          1          1          1          1          1          1          1          1          1          1          1          1          1          1          1          1          1          1          1          1          1          1          1          1          1          1          1          1          1          1          1          1          1          1          1          1          1          1          1          1          1          1          1          1          1          1          1          1          1          1          1          1          1          1          1          1          1          1          1          1          1          1          1          1          1          1          1          1          1          1          1          1          1          1          1          1          1          1          1          1          1          1          1          1          1          1          1          1          1          1          1          1          1          1          1          1          1          1          1          1          1          1          1          1          1          1          1          1          1          1          1          1          1          1          1          1          1          1          1          1          1          1          1          1          1          1          1          1          1          1          1          1          1          1          1          1          1          1          1          1          1          1          1          1          1          1          1          1          1          1          1          1          1          1          1          1          1          1          1          1          1          1          1          1          1          1          1          1          1          1          1          1          1          1          1          1          1          1          1          1          1          1          1          1          1          1          1          1          1          1          1          1          1          1          1          1          1          1          1          1          1          1          1          1          1          1          1          1          1          1          1          1          1          1          1          1          1          1          1          1          1          1          1          1          1          1          1          1          1          1          1          1          1          1          1          1          1          1          1          1          1          1          1          1          1          1          1          1          1          1          1          1          1          1          1          1          1          1          1          1          1          1          1          1          1          1          1          1          1          1          1          1          1          1          1          1          1          1          1          1          1          1          1          1          1          1          1          1          1          1          1          1          1          1          1          1          1          1          1          1          1          1          1          1          1          1          1          1          1          1          1          1          1          1          1          1          1          1          1          1          1          1          1          1          1          1          1          1          1          1          1          1          1          1          1          1          1          1          1          1          1          1          1          1          1          1          1          1          1          1          1          1          1          1          1          1          1          1          1          1          1          1          1          1          1          1          1          1          1          1          1          1          1          1          1          1          1          1          1          1          1          1          1          1          1          1          1          1          1          1          1          1          1          1          1          1          1          1          1          1          1          1          1          1          1          1          1          1          1          1          1          1          1          1          1          1          1          1          1          1          1          1          1          1          1          1          1          1          1          1          1          1          1          1          1          1          1          1          1          1          1          1          1          1          1          1          1          1          1          1          1          1          1          1          1          1          1          1          1          1          1          1          1          1          1          1          1          1          1          1          1          1          1          1          1          1          1          1          1          1          1          1          1          1          1          1          1          1          1          1          1          1          1          1          1          1          1          1          1          1          1          1          1          1          1          1          1          1          1          1          1          1          1          1          1          1          1          1          1          1          1          1          1          1          1          1          1          1          1          1          1          1          1          1          1          1          1          1          1          1          1          1          1          1          1          1          1          1          1          1          1          1          1          1          1          1          1          1          1          1          1          1          1          1          1          1          1          1          1          1          1          1          1          1          1          1          1          1          1          1          1          1          1          1          1          1          1          1          1          1          1          1          1          1          1          1          1          1          1          1          1          1          1          1          1          1          1          1          1          1          1          1          1          1          1          1          1          1          1          1          1          1          1          1          1          1          1          1          1          1          1          1          1          1          1          1          1          1          1          1          1          1          1          1          1          1          1          1          1          1          1          1          1          1          1          1          1          1          1          1          1          1          1          1          1          1          1          1          1          1          1          1          1          1          1          1          1          1          1          1          1          1          1          1          1          1          1          1          1          1          1          1          1          1          1          1          1          1          1          1          1          1          1          1          1          1          1          1          1          1          1          1          1          1          1          1          1          1          1          1          1          1          1          1          1          1          1          1          1          1          1          1          1          1          1          1          1          1          1          1          1          1          1          1          1          1 </DataArray>
</CellData>
<PointData>
<DataArray type="Float64"                                    Name="u"                                                      NumberOfComponents=" 3" format="ascii">
             -0.000823899               0.000000000               0.999999984              -0.000875269              -0.000000000               0.999999984              -0.000897311              -0.000000000               0.999999984              -0.000909583              -0.000000000               0.999999984              -0.000919334               0.000000000               0.999999984              -0.000929183               0.000000000               0.999999984              -0.000940111               0.000000000               0.999999984              -0.000952269               0.000000000               0.999999984              -0.000965604               0.000000000               0.999999984              -0.000980016               0.000000000               0.999999984              -0.000995114               0.000000000               0.999999984              -0.001010410               0.000000000               0.999999984              -0.001025509               0.000000000               0.999999984              -0.001039823               0.000000000               0.999999984              -0.001052716               0.000000000               0.999999984              -0.001063399               0.000000000               0.999999984              -0.001071038               0.000000000               0.999999984              -0.000819391               0.000133393               0.999999984              -0.000866667               0.000107365               0.999999984              -0.000886172               0.000095558               0.999999984              -0.000896821               0.000090843               0.999999984              -0.000905348               0.000089773               0.999999984              -0.000914306               0.000090445               0.999999984              -0.000924465               0.000091890               0.999999984              -0.000935983               0.000093546               0.999999984              -0.000948607               0.000095041               0.999999984              -0.000962042               0.000095977               0.999999984              -0.000975958               0.000095851               0.999999984              -0.000989814               0.000094360               0.999999984              -0.001003119               0.000091075               0.999999984              -0.001015361               0.000085443               0.999999984              -0.001025902               0.000076963               0.999999984              -0.001034162               0.000064478               0.999999984              -0.001039523               0.000047039               0.999999984              -0.000805907               0.000265661               0.999999984              -0.000841307               0.000214155               0.999999984              -0.000853478               0.000191883               0.999999984              -0.000859600               0.000183498               0.999999984              -0.000865184               0.000182121               0.999999984              -0.000871990               0.000184073               0.999999984              -0.000880277               0.000187431               0.999999984              -0.000889885               0.000190903               0.999999984              -0.000900309               0.000193969               0.999999984              -0.000911030               0.000195756               0.999999984              -0.000921426               0.000195410               0.999999984              -0.000930989               0.000192392               0.999999984              -0.000939316               0.000185938               0.999999984              -0.000945840               0.000175347               0.999999984              -0.000950136               0.000159590               0.999999984              -0.000951914               0.000137360               0.999999984              -0.000951084               0.000107366               0.999999984              -0.000783699               0.000395600               0.999999984              -0.000800389               0.000320102               0.999999984              -0.000801859               0.000289535               0.999999984              -0.000801758               0.000279449               0.999999984              -0.000803610               0.000279057               0.999999984              -0.000807704               0.000283142               0.999999984              -0.000813552               0.000288805               0.999999984              -0.000820374               0.000294382               0.999999984              -0.000827397               0.000299005               0.999999984              -0.000833830               0.000301458               0.999999984              -0.000839106               0.000300645               0.999999984              -0.000842650               0.000295978               0.999999984              -0.000843899               0.000286633               0.999999984              -0.000842545               0.000271835               0.999999984              -0.000838464               0.000250994               0.999999984              -0.000831743               0.000223025               0.999999984              -0.000822839               0.000187327               0.999999984              -0.000753201               0.000521918               0.999999984              -0.000745780               0.000425189               0.999999984              -0.000735338               0.000389092               0.999999984              -0.000729242               0.000379202               0.999999984              -0.000727617               0.000381186               0.999999984              -0.000729258               0.000388006               0.999999984              -0.000732533               0.000396332               0.999999984              -0.000736166               0.000404084               0.999999984              -0.000739155               0.000409887               0.999999984              -0.000740484               0.000412536               0.999999984              -0.000739431               0.000410916               0.999999984              -0.000735527               0.000404525               0.999999984              -0.000728539               0.000392649               0.999999984              -0.000718438               0.000374760               0.999999984              -0.000705336               0.000350705               0.999999984              -0.000689702               0.000320452               0.999999984              -0.000672212               0.000284279               0.999999984              -0.000714854               0.000643505               0.999999984              -0.000680392               0.000529375               0.999999984              -0.000658965               0.000490663               0.999999984              -0.000648432               0.000482604               0.999999984              -0.000644772               0.000487577               0.999999984              -0.000644590               0.000497446               0.999999984              -0.000645451               0.000508282               0.999999984              -0.000645676               0.000517687               0.999999984              -0.000643870               0.000524335               0.999999984              -0.000639184               0.000526617               0.999999984              -0.000631079               0.000523731               0.999999984              -0.000619240               0.000515390               0.999999984              -0.000603607               0.000501317               0.999999984              -0.000584367               0.000481269               0.999999984              -0.000561964               0.000455677               0.999999984              -0.000537107               0.000425288               0.999999984              -0.000510562               0.000391064               0.999999984              -0.000669398               0.000759259               0.999999984              -0.000607578               0.000632721               0.999999984              -0.000577946               0.000593737               0.999999984              -0.000565459               0.000588411               0.999999984              -0.000561196               0.000596442               0.999999984              -0.000559880               0.000608969               0.999999984              -0.000558354               0.000621719               0.999999984              -0.000554566               0.000632291               0.999999984              -0.000547517               0.000639029               0.999999984              -0.000536275               0.000640487               0.999999984              -0.000520439               0.000636081               0.999999984              -0.000499797               0.000626009               0.999999984              -0.000474600               0.000610168               0.999999984              -0.000445434               0.000589064               0.999999984              -0.000413189               0.000563400               0.999999984              -0.000378732               0.000534265               0.999999984              -0.000343029               0.000503213               0.999999984              -0.000617955               0.000867835               0.999999984              -0.000530841               0.000735026               0.999999984              -0.000496745               0.000697485               0.999999984              -0.000485025               0.000694721               0.999999984              -0.000481329               0.000705281               0.999999984              -0.000479131               0.000719973               0.999999984              -0.000474996               0.000733984               0.999999984              -0.000467104               0.000744752               0.999999984              -0.000454215               0.000750963               0.999999984              -0.000435431               0.000751232               0.999999984              -0.000410575               0.000745319               0.999999984              -0.000379847               0.000733867               0.999999984              -0.000344048               0.000717240               0.999999984              -0.000304288               0.000696141               0.999999984              -0.000261795               0.000671776               0.999999984              -0.000217712               0.000645428               0.999999984              -0.000172907               0.000618481               0.999999984              -0.000562118               0.000967332               0.999999984              -0.000452878               0.000836098               0.999999984              -0.000419515               0.000800306               0.999999984              -0.000410290               0.000799451               0.999999984              -0.000407843               0.000811952               0.999999984              -0.000404856               0.000827968               0.999999984              -0.000397923               0.000842461               0.999999984              -0.000385119               0.000852979               0.999999984              -0.000365226               0.000858226               0.999999984              -0.000337607               0.000857120               0.999999984              -0.000302325               0.000849984               0.999999984              -0.000260327               0.000837727               0.999999984              -0.000213102               0.000821112               0.999999984              -0.000162275               0.000801310               0.999999984              -0.000109278               0.000779734               0.999999984              -0.000055339               0.000757527               0.999999984              -0.000001310               0.000735302               0.999999984              -0.000504338               0.001061491               0.999999984              -0.000387733               0.000949054               0.999999984              -0.000351476               0.000909151               0.999999984              -0.000341388               0.000902728               0.999999984              -0.000339077               0.000911233               0.999999984              -0.000337276               0.000925436               0.999999984              -0.000332377               0.000940498               0.999999984              -0.000322409               0.000953508               0.999999984              -0.000306639               0.000963120               0.999999984              -0.000283840               0.000968461               0.999999984              -0.000253462               0.000969128               0.999999984              -0.000215963               0.000965383               0.999999984              -0.000172303               0.000957953               0.999999984              -0.000123836               0.000947376               0.999999984              -0.000071973               0.000934780               0.999999984              -0.000017941               0.000920903               0.999999984               0.000036882               0.000906824               0.999999984              -0.000441290               0.001147143               0.999999984              -0.000325457               0.001058320               0.999999984              -0.000286562               0.001020771               0.999999984              -0.000274685               0.001011347               0.999999984              -0.000271667               0.001016939               0.999999984              -0.000270269               0.001029849               0.999999984              -0.000266872               0.001045290               0.999999984              -0.000259437               0.001060499               0.999999984              -0.000246919               0.001074041               0.999999984              -0.000228444               0.001084858               0.999999984              -0.000203169               0.001092241               0.999999984              -0.000170653               0.001096021               0.999999984              -0.000131316               0.001096574               0.999999984              -0.000086014               0.001094400               0.999999984              -0.000035933               0.001090053               0.999999984               0.000017689               0.001084250               0.999999984               0.000073294               0.001077923               0.999999984              -0.000374182               0.001222205               0.999999984              -0.000266055               0.001160592               0.999999984              -0.000226377               0.001130112               0.999999984              -0.000212537               0.001121138               0.999999984              -0.000208223               0.001125593               0.999999984              -0.000206629               0.001137930               0.999999984              -0.000204167               0.001154072               0.999999984              -0.000198657               0.001171545               0.999999984              -0.000188930               0.001188736               0.999999984              -0.000174211               0.001204658               0.999999984              -0.000153602               0.001218347               0.999999984              -0.000126329               0.001229320               0.999999984              -0.000091902               0.001237411               0.999999984              -0.000050790               0.001242845               0.999999984              -0.000003506               0.001246061               0.999999984               0.000049125               0.001247738               0.999999984               0.000105726               0.001248757               0.999999984              -0.000303600               0.001285362               0.999999984              -0.000209510               0.001251526               0.999999984              -0.000171731               0.001231628               0.999999984              -0.000156788               0.001226174               0.999999984              -0.000151288               0.001231680               0.999999984              -0.000149178               0.001244510               0.999999984              -0.000147064               0.001261926               0.999999984              -0.000142844               0.001281937               0.999999984              -0.000135490               0.001302929               0.999999984              -0.000124179               0.001323668               0.999999984              -0.000107919               0.001343351               0.999999984              -0.000085853               0.001361214               0.999999984              -0.000057183               0.001376826               0.999999984              -0.000021456               0.001389982               0.999999984               0.000021490               0.001400910               0.999999984               0.000071782               0.001410180               0.999999984               0.000128885               0.001418428               0.999999984              -0.000230214               0.001335622               0.999999984              -0.000155269               0.001327025               0.999999984              -0.000122709               0.001319153               0.999999984              -0.000108496               0.001319398               0.999999984              -0.000102557               0.001327768               0.999999984              -0.000099958               0.001342575               0.999999984              -0.000097897               0.001362090               0.999999984              -0.000094686               0.001384727               0.999999984              -0.000089256               0.001409248               0.999999984              -0.000080888               0.001434590               0.999999984              -0.000068797               0.001459904               0.999999984              -0.000052064               0.001484421               0.999999984              -0.000029694               0.001507555               0.999999984              -0.000000882               0.001528866               0.999999984               0.000035412               0.001548175               0.999999984               0.000080281               0.001565466               0.999999984               0.000134415               0.001581213               0.999999984              -0.000154723               0.001372122               0.999999984              -0.000102661               0.001383630               0.999999984              -0.000078686               0.001386703               0.999999984              -0.000067517               0.001393107               0.999999984              -0.000062306               0.001405209               0.999999984              -0.000059741               0.001422799               0.999999984              -0.000058094               0.001444830               0.999999984              -0.000055829               0.001470183               0.999999984              -0.000052042               0.001497886               0.999999984              -0.000046317               0.001527240               0.999999984              -0.000038273               0.001557545               0.999999984              -0.000026948               0.001587992               0.999999984              -0.000011491               0.001618045               0.999999984               0.000009073               0.001647146               0.999999984               0.000035824               0.001674698               0.999999984               0.000070318               0.001700144               0.999999984               0.000114473               0.001723438               0.999999984              -0.000077756               0.001394233               0.999999984              -0.000051086               0.001418679               0.999999984              -0.000038387               0.001429387               0.999999984              -0.000032204               0.001440477               0.999999984              -0.000029068               0.001455673               0.999999984              -0.000027565               0.001475530               0.999999984              -0.000026626               0.001499637               0.999999984              -0.000025429               0.001527272               0.999999984              -0.000023431               0.001557598               0.999999984              -0.000020482               0.001590024               0.999999984              -0.000016372               0.001623882               0.999999984              -0.000010567               0.001658593               0.999999984              -0.000002541               0.001693641               0.999999984               0.000008229               0.001728280               0.999999984               0.000022503               0.001761845               0.999999984               0.000041377               0.001793666               0.999999984               0.000066602               0.001823049               0.999999984              -0.000000000               0.001401627               0.999999984              -0.000000000               0.001430518               0.999999984              -0.000000000               0.001444003               0.999999984               0.000000000               0.001456899               0.999999984               0.000000000               0.001473254               0.999999984              -0.000000000               0.001494008               0.999999984               0.000000000               0.001518938               0.999999984               0.000000000               0.001547512               0.999999984              -0.000000000               0.001578929               0.999999984               0.000000000               0.001612535               0.999999984              -0.000000000               0.001647751               0.999999984              -0.000000000               0.001683955               0.999999984               0.000000000               0.001720693               0.999999984               0.000000000               0.001757325               0.999999984              -0.000000000               0.001793197               0.999999984               0.000000000               0.001827463               0.999999984               0.000000000               0.001859164               0.999999984              -0.000823899               0.000000000               0.999999984              -0.000875269              -0.000000000               0.999999984              -0.000897311              -0.000000000               0.999999984              -0.000909583              -0.000000000               0.999999984              -0.000919334               0.000000000               0.999999984              -0.000929183               0.000000000               0.999999984              -0.000940111               0.000000000               0.999999984              -0.000952269               0.000000000               0.999999984              -0.000965604               0.000000000               0.999999984              -0.000980016               0.000000000               0.999999984              -0.000995114               0.000000000               0.999999984              -0.001010410               0.000000000               0.999999984              -0.001025509               0.000000000               0.999999984              -0.001039823               0.000000000               0.999999984              -0.001052716               0.000000000               0.999999984              -0.001063399               0.000000000               0.999999984              -0.001071038               0.000000000               0.999999984              -0.000819391              -0.000133393               0.999999984              -0.000866667              -0.000107365               0.999999984              -0.000886172              -0.000095558               0.999999984              -0.000896821              -0.000090843               0.999999984              -0.000905348              -0.000089773               0.999999984              -0.000914306              -0.000090445               0.999999984              -0.000924465              -0.000091890               0.999999984              -0.000935983              -0.000093546               0.999999984              -0.000948607              -0.000095041               0.999999984              -0.000962042              -0.000095977               0.999999984              -0.000975958              -0.000095851               0.999999984              -0.000989814              -0.000094360               0.999999984              -0.001003119              -0.000091075               0.999999984              -0.001015361              -0.000085443               0.999999984              -0.001025902              -0.000076963               0.999999984              -0.001034162              -0.000064478               0.999999984              -0.001039523              -0.000047039               0.999999984              -0.000805907              -0.000265661               0.999999984              -0.000841307              -0.000214155               0.999999984              -0.000853478              -0.000191883               0.999999984              -0.000859600              -0.000183498               0.999999984              -0.000865184              -0.000182121               0.999999984              -0.000871990              -0.000184073               0.999999984              -0.000880277              -0.000187431               0.999999984              -0.000889885              -0.000190903               0.999999984              -0.000900309              -0.000193969               0.999999984              -0.000911030              -0.000195756               0.999999984              -0.000921426              -0.000195410               0.999999984              -0.000930989              -0.000192392               0.999999984              -0.000939316              -0.000185938               0.999999984              -0.000945840              -0.000175347               0.999999984              -0.000950136              -0.000159590               0.999999984              -0.000951914              -0.000137360               0.999999984              -0.000951084              -0.000107366               0.999999984              -0.000783699              -0.000395600               0.999999984              -0.000800389              -0.000320102               0.999999984              -0.000801859              -0.000289535               0.999999984              -0.000801758              -0.000279449               0.999999984              -0.000803610              -0.000279057               0.999999984              -0.000807704              -0.000283142               0.999999984              -0.000813552              -0.000288805               0.999999984              -0.000820374              -0.000294382               0.999999984              -0.000827397              -0.000299005               0.999999984              -0.000833830              -0.000301458               0.999999984              -0.000839106              -0.000300645               0.999999984              -0.000842650              -0.000295978               0.999999984              -0.000843899              -0.000286633               0.999999984              -0.000842545              -0.000271835               0.999999984              -0.000838464              -0.000250994               0.999999984              -0.000831743              -0.000223025               0.999999984              -0.000822839              -0.000187327               0.999999984              -0.000753201              -0.000521918               0.999999984              -0.000745780              -0.000425189               0.999999984              -0.000735338              -0.000389092               0.999999984              -0.000729242              -0.000379202               0.999999984              -0.000727617              -0.000381186               0.999999984              -0.000729258              -0.000388006               0.999999984              -0.000732533              -0.000396332               0.999999984              -0.000736166              -0.000404084               0.999999984              -0.000739155              -0.000409887               0.999999984              -0.000740484              -0.000412536               0.999999984              -0.000739431              -0.000410916               0.999999984              -0.000735527              -0.000404525               0.999999984              -0.000728539              -0.000392649               0.999999984              -0.000718438              -0.000374760               0.999999984              -0.000705336              -0.000350705               0.999999984              -0.000689702              -0.000320452               0.999999984              -0.000672212              -0.000284279               0.999999984              -0.000714854              -0.000643505               0.999999984              -0.000680392              -0.000529375               0.999999984              -0.000658965              -0.000490663               0.999999984              -0.000648432              -0.000482604               0.999999984              -0.000644772              -0.000487577               0.999999984              -0.000644590              -0.000497446               0.999999984              -0.000645451              -0.000508282               0.999999984              -0.000645676              -0.000517687               0.999999984              -0.000643870              -0.000524335               0.999999984              -0.000639184              -0.000526617               0.999999984              -0.000631079              -0.000523731               0.999999984              -0.000619240              -0.000515390               0.999999984              -0.000603607              -0.000501317               0.999999984              -0.000584367              -0.000481269               0.999999984              -0.000561964              -0.000455677               0.999999984              -0.000537107              -0.000425288               0.999999984              -0.000510562              -0.000391064               0.999999984              -0.000669398              -0.000759259               0.999999984              -0.000607578              -0.000632721               0.999999984              -0.000577946              -0.000593737               0.999999984              -0.000565459              -0.000588411               0.999999984              -0.000561196              -0.000596442               0.999999984              -0.000559880              -0.000608969               0.999999984              -0.000558354              -0.000621719               0.999999984              -0.000554566              -0.000632291               0.999999984              -0.000547517              -0.000639029               0.999999984              -0.000536275              -0.000640487               0.999999984              -0.000520439              -0.000636081               0.999999984              -0.000499797              -0.000626009               0.999999984              -0.000474600              -0.000610168               0.999999984              -0.000445434              -0.000589064               0.999999984              -0.000413189              -0.000563400               0.999999984              -0.000378732              -0.000534265               0.999999984              -0.000343029              -0.000503213               0.999999984              -0.000617955              -0.000867835               0.999999984              -0.000530841              -0.000735026               0.999999984              -0.000496745              -0.000697485               0.999999984              -0.000485025              -0.000694721               0.999999984              -0.000481329              -0.000705281               0.999999984              -0.000479131              -0.000719973               0.999999984              -0.000474996              -0.000733984               0.999999984              -0.000467104              -0.000744752               0.999999984              -0.000454215              -0.000750963               0.999999984              -0.000435431              -0.000751232               0.999999984              -0.000410575              -0.000745319               0.999999984              -0.000379847              -0.000733867               0.999999984              -0.000344048              -0.000717240               0.999999984              -0.000304288              -0.000696141               0.999999984              -0.000261795              -0.000671776               0.999999984              -0.000217712              -0.000645428               0.999999984              -0.000172907              -0.000618481               0.999999984              -0.000562118              -0.000967332               0.999999984              -0.000452878              -0.000836098               0.999999984              -0.000419515              -0.000800306               0.999999984              -0.000410290              -0.000799451               0.999999984              -0.000407843              -0.000811952               0.999999984              -0.000404856              -0.000827968               0.999999984              -0.000397923              -0.000842461               0.999999984              -0.000385119              -0.000852979               0.999999984              -0.000365226              -0.000858226               0.999999984              -0.000337607              -0.000857120               0.999999984              -0.000302325              -0.000849984               0.999999984              -0.000260327              -0.000837727               0.999999984              -0.000213102              -0.000821112               0.999999984              -0.000162275              -0.000801310               0.999999984              -0.000109278              -0.000779734               0.999999984              -0.000055339              -0.000757527               0.999999984              -0.000001310              -0.000735302               0.999999984              -0.000504338              -0.001061491               0.999999984              -0.000387733              -0.000949054               0.999999984              -0.000351476              -0.000909151               0.999999984              -0.000341388              -0.000902728               0.999999984              -0.000339077              -0.000911233               0.999999984              -0.000337276              -0.000925436               0.999999984              -0.000332377              -0.000940498               0.999999984              -0.000322409              -0.000953508               0.999999984              -0.000306639              -0.000963120               0.999999984              -0.000283840              -0.000968461               0.999999984              -0.000253462              -0.000969128               0.999999984              -0.000215963              -0.000965383               0.999999984              -0.000172303              -0.000957953               0.999999984              -0.000123836              -0.000947376               0.999999984              -0.000071973              -0.000934780               0.999999984              -0.000017941              -0.000920903               0.999999984               0.000036882              -0.000906824               0.999999984              -0.000441290              -0.001147143               0.999999984              -0.000325457              -0.001058320               0.999999984              -0.000286562              -0.001020771               0.999999984              -0.000274685              -0.001011347               0.999999984              -0.000271667              -0.001016939               0.999999984              -0.000270269              -0.001029849               0.999999984              -0.000266872              -0.001045290               0.999999984              -0.000259437              -0.001060499               0.999999984              -0.000246919              -0.001074041               0.999999984              -0.000228444              -0.001084858               0.999999984              -0.000203169              -0.001092241               0.999999984              -0.000170653              -0.001096021               0.999999984              -0.000131316              -0.001096574               0.999999984              -0.000086014              -0.001094400               0.999999984              -0.000035933              -0.001090053               0.999999984               0.000017689              -0.001084250               0.999999984               0.000073294              -0.001077923               0.999999984              -0.000374182              -0.001222205               0.999999984              -0.000266055              -0.001160592               0.999999984              -0.000226377              -0.001130112               0.999999984              -0.000212537              -0.001121138               0.999999984              -0.000208223              -0.001125593               0.999999984              -0.000206629              -0.001137930               0.999999984              -0.000204167              -0.001154072               0.999999984              -0.000198657              -0.001171545               0.999999984              -0.000188930              -0.001188736               0.999999984              -0.000174211              -0.001204658               0.999999984              -0.000153602              -0.001218347               0.999999984              -0.000126329              -0.001229320               0.999999984              -0.000091902              -0.001237411               0.999999984              -0.000050790              -0.001242845               0.999999984              -0.000003506              -0.001246061               0.999999984               0.000049125              -0.001247738               0.999999984               0.000105726              -0.001248757               0.999999984              -0.000303600              -0.001285362               0.999999984              -0.000209510              -0.001251526               0.999999984              -0.000171731              -0.001231628               0.999999984              -0.000156788              -0.001226174               0.999999984              -0.000151288              -0.001231680               0.999999984              -0.000149178              -0.001244510               0.999999984              -0.000147064              -0.001261926               0.999999984              -0.000142844              -0.001281937               0.999999984              -0.000135490              -0.001302929               0.999999984              -0.000124179              -0.001323668               0.999999984              -0.000107919              -0.001343351               0.999999984              -0.000085853              -0.001361214               0.999999984              -0.000057183              -0.001376826               0.999999984              -0.000021456              -0.001389982               0.999999984               0.000021490              -0.001400910               0.999999984               0.000071782              -0.001410180               0.999999984               0.000128885              -0.001418428               0.999999984              -0.000230214              -0.001335622               0.999999984              -0.000155269              -0.001327025               0.999999984              -0.000122709              -0.001319153               0.999999984              -0.000108496              -0.001319398               0.999999984              -0.000102557              -0.001327768               0.999999984              -0.000099958              -0.001342575               0.999999984              -0.000097897              -0.001362090               0.999999984              -0.000094686              -0.001384727               0.999999984              -0.000089256              -0.001409248               0.999999984              -0.000080888              -0.001434590               0.999999984              -0.000068797              -0.001459904               0.999999984              -0.000052064              -0.001484421               0.999999984              -0.000029694              -0.001507555               0.999999984              -0.000000882              -0.001528866               0.999999984               0.000035412              -0.001548175               0.999999984               0.000080281              -0.001565466               0.999999984               0.000134415              -0.001581213               0.999999984              -0.000154723              -0.001372122               0.999999984              -0.000102661              -0.001383630               0.999999984              -0.000078686              -0.001386703               0.999999984              -0.000067517              -0.001393107               0.999999984              -0.000062306              -0.001405209               0.999999984              -0.000059741              -0.001422799               0.999999984              -0.000058094              -0.001444830               0.999999984              -0.000055829              -0.001470183               0.999999984              -0.000052042              -0.001497886               0.999999984              -0.000046317              -0.001527240               0.999999984              -0.000038273              -0.001557545               0.999999984              -0.000026948              -0.001587992               0.999999984              -0.000011491              -0.001618045               0.999999984               0.000009073              -0.001647146               0.999999984               0.000035824              -0.001674698               0.999999984               0.000070318              -0.001700144               0.999999984               0.000114473              -0.001723438               0.999999984              -0.000077756              -0.001394233               0.999999984              -0.000051086              -0.001418679               0.999999984              -0.000038387              -0.001429387               0.999999984              -0.000032204              -0.001440477               0.999999984              -0.000029068              -0.001455673               0.999999984              -0.000027565              -0.001475530               0.999999984              -0.000026626              -0.001499637               0.999999984              -0.000025429              -0.001527272               0.999999984              -0.000023431              -0.001557598               0.999999984              -0.000020482              -0.001590024               0.999999984              -0.000016372              -0.001623882               0.999999984              -0.000010567              -0.001658593               0.999999984              -0.000002541              -0.001693641               0.999999984               0.000008229              -0.001728280               0.999999984               0.000022503              -0.001761845               0.999999984               0.000041377              -0.001793666               0.999999984               0.000066602              -0.001823049               0.999999984               0.000000000              -0.001401627               0.999999984              -0.000000000              -0.001430518               0.999999984               0.000000000              -0.001444003               0.999999984              -0.000000000              -0.001456899               0.999999984               0.000000000              -0.001473254               0.999999984              -0.000000000              -0.001494008               0.999999984              -0.000000000              -0.001518938               0.999999984              -0.000000000              -0.001547512               0.999999984               0.000000000              -0.001578929               0.999999984               0.000000000              -0.001612535               0.999999984              -0.000000000              -0.001647751               0.999999984              -0.000000000              -0.001683955               0.999999984              -0.000000000              -0.001720693               0.999999984               0.000000000              -0.001757325               0.999999984               0.000000000              -0.001793197               0.999999984              -0.000000000              -0.001827463               0.999999984              -0.000000000              -0.001859164               0.999999984               0.000823899               0.000000000               0.999999984               0.000875269               0.000000000               0.999999984               0.000897311               0.000000000               0.999999984               0.000909583              -0.000000000               0.999999984               0.000919334               0.000000000               0.999999984               0.000929183               0.000000000               0.999999984               0.000940111               0.000000000               0.999999984               0.000952269               0.000000000               0.999999984               0.000965604               0.000000000               0.999999984               0.000980016               0.000000000               0.999999984               0.000995114              -0.000000000               0.999999984               0.001010410               0.000000000               0.999999984               0.001025509              -0.000000000               0.999999984               0.001039823               0.000000000               0.999999984               0.001052716               0.000000000               0.999999984               0.001063399               0.000000000               0.999999984               0.001071038               0.000000000               0.999999984               0.000819391              -0.000133393               0.999999984               0.000866667              -0.000107365               0.999999984               0.000886172              -0.000095558               0.999999984               0.000896821              -0.000090843               0.999999984               0.000905348              -0.000089773               0.999999984               0.000914306              -0.000090445               0.999999984               0.000924465              -0.000091890               0.999999984               0.000935983              -0.000093546               0.999999984               0.000948607              -0.000095041               0.999999984               0.000962042              -0.000095977               0.999999984               0.000975958              -0.000095851               0.999999984               0.000989814              -0.000094360               0.999999984               0.001003119              -0.000091075               0.999999984               0.001015361              -0.000085443               0.999999984               0.001025902              -0.000076963               0.999999984               0.001034162              -0.000064478               0.999999984               0.001039523              -0.000047039               0.999999984               0.000805907              -0.000265661               0.999999984               0.000841307              -0.000214155               0.999999984               0.000853478              -0.000191883               0.999999984               0.000859600              -0.000183498               0.999999984               0.000865184              -0.000182121               0.999999984               0.000871990              -0.000184073               0.999999984               0.000880277              -0.000187431               0.999999984               0.000889885              -0.000190903               0.999999984               0.000900309              -0.000193969               0.999999984               0.000911030              -0.000195756               0.999999984               0.000921426              -0.000195410               0.999999984               0.000930989              -0.000192392               0.999999984               0.000939316              -0.000185938               0.999999984               0.000945840              -0.000175347               0.999999984               0.000950136              -0.000159590               0.999999984               0.000951914              -0.000137360               0.999999984               0.000951084              -0.000107366               0.999999984               0.000783699              -0.000395600               0.999999984               0.000800389              -0.000320102               0.999999984               0.000801859              -0.000289535               0.999999984               0.000801758              -0.000279449               0.999999984               0.000803610              -0.000279057               0.999999984               0.000807704              -0.000283142               0.999999984               0.000813552              -0.000288805               0.999999984               0.000820374              -0.000294382               0.999999984               0.000827397              -0.000299005               0.999999984               0.000833830              -0.000301458               0.999999984               0.000839106              -0.000300645               0.999999984               0.000842650              -0.000295978               0.999999984               0.000843899              -0.000286633               0.999999984               0.000842545              -0.000271835               0.999999984               0.000838464              -0.000250994               0.999999984               0.000831743              -0.000223025               0.999999984               0.000822839              -0.000187327               0.999999984               0.000753201              -0.000521918               0.999999984               0.000745780              -0.000425189               0.999999984               0.000735338              -0.000389092               0.999999984               0.000729242              -0.000379202               0.999999984               0.000727617              -0.000381186               0.999999984               0.000729258              -0.000388006               0.999999984               0.000732533              -0.000396332               0.999999984               0.000736166              -0.000404084               0.999999984               0.000739155              -0.000409887               0.999999984               0.000740484              -0.000412536               0.999999984               0.000739431              -0.000410916               0.999999984               0.000735527              -0.000404525               0.999999984               0.000728539              -0.000392649               0.999999984               0.000718438              -0.000374760               0.999999984               0.000705336              -0.000350705               0.999999984               0.000689702              -0.000320452               0.999999984               0.000672212              -0.000284279               0.999999984               0.000714854              -0.000643505               0.999999984               0.000680392              -0.000529375               0.999999984               0.000658965              -0.000490663               0.999999984               0.000648432              -0.000482604               0.999999984               0.000644772              -0.000487577               0.999999984               0.000644590              -0.000497446               0.999999984               0.000645451              -0.000508282               0.999999984               0.000645676              -0.000517687               0.999999984               0.000643870              -0.000524335               0.999999984               0.000639184              -0.000526617               0.999999984               0.000631079              -0.000523731               0.999999984               0.000619240              -0.000515390               0.999999984               0.000603607              -0.000501317               0.999999984               0.000584367              -0.000481269               0.999999984               0.000561964              -0.000455677               0.999999984               0.000537107              -0.000425288               0.999999984               0.000510562              -0.000391064               0.999999984               0.000669398              -0.000759259               0.999999984               0.000607578              -0.000632721               0.999999984               0.000577946              -0.000593737               0.999999984               0.000565459              -0.000588411               0.999999984               0.000561196              -0.000596442               0.999999984               0.000559880              -0.000608969               0.999999984               0.000558354              -0.000621719               0.999999984               0.000554566              -0.000632291               0.999999984               0.000547517              -0.000639029               0.999999984               0.000536275              -0.000640487               0.999999984               0.000520439              -0.000636081               0.999999984               0.000499797              -0.000626009               0.999999984               0.000474600              -0.000610168               0.999999984               0.000445434              -0.000589064               0.999999984               0.000413189              -0.000563400               0.999999984               0.000378732              -0.000534265               0.999999984               0.000343029              -0.000503213               0.999999984               0.000617955              -0.000867835               0.999999984               0.000530841              -0.000735026               0.999999984               0.000496745              -0.000697485               0.999999984               0.000485025              -0.000694721               0.999999984               0.000481329              -0.000705281               0.999999984               0.000479131              -0.000719973               0.999999984               0.000474996              -0.000733984               0.999999984               0.000467104              -0.000744752               0.999999984               0.000454215              -0.000750963               0.999999984               0.000435431              -0.000751232               0.999999984               0.000410575              -0.000745319               0.999999984               0.000379847              -0.000733867               0.999999984               0.000344048              -0.000717240               0.999999984               0.000304288              -0.000696141               0.999999984               0.000261795              -0.000671776               0.999999984               0.000217712              -0.000645428               0.999999984               0.000172907              -0.000618481               0.999999984               0.000562118              -0.000967332               0.999999984               0.000452878              -0.000836098               0.999999984               0.000419515              -0.000800306               0.999999984               0.000410290              -0.000799451               0.999999984               0.000407843              -0.000811952               0.999999984               0.000404856              -0.000827968               0.999999984               0.000397923              -0.000842461               0.999999984               0.000385119              -0.000852979               0.999999984               0.000365226              -0.000858226               0.999999984               0.000337607              -0.000857120               0.999999984               0.000302325              -0.000849984               0.999999984               0.000260327              -0.000837727               0.999999984               0.000213102              -0.000821112               0.999999984               0.000162275              -0.000801310               0.999999984               0.000109278              -0.000779734               0.999999984               0.000055339              -0.000757527               0.999999984               0.000001310              -0.000735302               0.999999984               0.000504338              -0.001061491               0.999999984               0.000387733              -0.000949054               0.999999984               0.000351476              -0.000909151               0.999999984               0.000341388              -0.000902728               0.999999984               0.000339077              -0.000911233               0.999999984               0.000337276              -0.000925436               0.999999984               0.000332377              -0.000940498               0.999999984               0.000322409              -0.000953508               0.999999984               0.000306639              -0.000963120               0.999999984               0.000283840              -0.000968461               0.999999984               0.000253462              -0.000969128               0.999999984               0.000215963              -0.000965383               0.999999984               0.000172303              -0.000957953               0.999999984               0.000123836              -0.000947376               0.999999984               0.000071973              -0.000934780               0.999999984               0.000017941              -0.000920903               0.999999984              -0.000036882              -0.000906824               0.999999984               0.000441290              -0.001147143               0.999999984               0.000325457              -0.001058320               0.999999984               0.000286562              -0.001020771               0.999999984               0.000274685              -0.001011347               0.999999984               0.000271667              -0.001016939               0.999999984               0.000270269              -0.001029849               0.999999984               0.000266872              -0.001045290               0.999999984               0.000259437              -0.001060499               0.999999984               0.000246919              -0.001074041               0.999999984               0.000228444              -0.001084858               0.999999984               0.000203169              -0.001092241               0.999999984               0.000170653              -0.001096021               0.999999984               0.000131316              -0.001096574               0.999999984               0.000086014              -0.001094400               0.999999984               0.000035933              -0.001090053               0.999999984              -0.000017689              -0.001084250               0.999999984              -0.000073294              -0.001077923               0.999999984               0.000374182              -0.001222205               0.999999984               0.000266055              -0.001160592               0.999999984               0.000226377              -0.001130112               0.999999984               0.000212537              -0.001121138               0.999999984               0.000208223              -0.001125593               0.999999984               0.000206629              -0.001137930               0.999999984               0.000204167              -0.001154072               0.999999984               0.000198657              -0.001171545               0.999999984               0.000188930              -0.001188736               0.999999984               0.000174211              -0.001204658               0.999999984               0.000153602              -0.001218347               0.999999984               0.000126329              -0.001229320               0.999999984               0.000091902              -0.001237411               0.999999984               0.000050790              -0.001242845               0.999999984               0.000003506              -0.001246061               0.999999984              -0.000049125              -0.001247738               0.999999984              -0.000105726              -0.001248757               0.999999984               0.000303600              -0.001285362               0.999999984               0.000209510              -0.001251526               0.999999984               0.000171731              -0.001231628               0.999999984               0.000156788              -0.001226174               0.999999984               0.000151288              -0.001231680               0.999999984               0.000149178              -0.001244510               0.999999984               0.000147064              -0.001261926               0.999999984               0.000142844              -0.001281937               0.999999984               0.000135490              -0.001302929               0.999999984               0.000124179              -0.001323668               0.999999984               0.000107919              -0.001343351               0.999999984               0.000085853              -0.001361214               0.999999984               0.000057183              -0.001376826               0.999999984               0.000021456              -0.001389982               0.999999984              -0.000021490              -0.001400910               0.999999984              -0.000071782              -0.001410180               0.999999984              -0.000128885              -0.001418428               0.999999984               0.000230214              -0.001335622               0.999999984               0.000155269              -0.001327025               0.999999984               0.000122709              -0.001319153               0.999999984               0.000108496              -0.001319398               0.999999984               0.000102557              -0.001327768               0.999999984               0.000099958              -0.001342575               0.999999984               0.000097897              -0.001362090               0.999999984               0.000094686              -0.001384727               0.999999984               0.000089256              -0.001409248               0.999999984               0.000080888              -0.001434590               0.999999984               0.000068797              -0.001459904               0.999999984               0.000052064              -0.001484421               0.999999984               0.000029694              -0.001507555               0.999999984               0.000000882              -0.001528866               0.999999984              -0.000035412              -0.001548175               0.999999984              -0.000080281              -0.001565466               0.999999984              -0.000134415              -0.001581213               0.999999984               0.000154723              -0.001372122               0.999999984               0.000102661              -0.001383630               0.999999984               0.000078686              -0.001386703               0.999999984               0.000067517              -0.001393107               0.999999984               0.000062306              -0.001405209               0.999999984               0.000059741              -0.001422799               0.999999984               0.000058094              -0.001444830               0.999999984               0.000055829              -0.001470183               0.999999984               0.000052042              -0.001497886               0.999999984               0.000046317              -0.001527240               0.999999984               0.000038273              -0.001557545               0.999999984               0.000026948              -0.001587992               0.999999984               0.000011491              -0.001618045               0.999999984              -0.000009073              -0.001647146               0.999999984              -0.000035824              -0.001674698               0.999999984              -0.000070318              -0.001700144               0.999999984              -0.000114473              -0.001723438               0.999999984               0.000077756              -0.001394233               0.999999984               0.000051086              -0.001418679               0.999999984               0.000038387              -0.001429387               0.999999984               0.000032204              -0.001440477               0.999999984               0.000029068              -0.001455673               0.999999984               0.000027565              -0.001475530               0.999999984               0.000026626              -0.001499637               0.999999984               0.000025429              -0.001527272               0.999999984               0.000023431              -0.001557598               0.999999984               0.000020482              -0.001590024               0.999999984               0.000016372              -0.001623882               0.999999984               0.000010567              -0.001658593               0.999999984               0.000002541              -0.001693641               0.999999984              -0.000008229              -0.001728280               0.999999984              -0.000022503              -0.001761845               0.999999984              -0.000041377              -0.001793666               0.999999984              -0.000066602              -0.001823049               0.999999984               0.000000000              -0.001401627               0.999999984              -0.000000000              -0.001430518               0.999999984               0.000000000              -0.001444003               0.999999984              -0.000000000              -0.001456899               0.999999984               0.000000000              -0.001473254               0.999999984              -0.000000000              -0.001494008               0.999999984              -0.000000000              -0.001518938               0.999999984              -0.000000000              -0.001547512               0.999999984               0.000000000              -0.001578929               0.999999984               0.000000000              -0.001612535               0.999999984              -0.000000000              -0.001647751               0.999999984              -0.000000000              -0.001683955               0.999999984              -0.000000000              -0.001720693               0.999999984               0.000000000              -0.001757325               0.999999984               0.000000000              -0.001793197               0.999999984              -0.000000000              -0.001827463               0.999999984              -0.000000000              -0.001859164               0.999999984               0.000823899               0.000000000               0.999999984               0.000875269               0.000000000               0.999999984               0.000897311               0.000000000               0.999999984               0.000909583              -0.000000000               0.999999984               0.000919334               0.000000000               0.999999984               0.000929183               0.000000000               0.999999984               0.000940111               0.000000000               0.999999984               0.000952269               0.000000000               0.999999984               0.000965604               0.000000000               0.999999984               0.000980016               0.000000000               0.999999984               0.000995114              -0.000000000               0.999999984               0.001010410               0.000000000               0.999999984               0.001025509              -0.000000000               0.999999984               0.001039823               0.000000000               0.999999984               0.001052716               0.000000000               0.999999984               0.001063399               0.000000000               0.999999984               0.001071038               0.000000000               0.999999984               0.000819391               0.000133393               0.999999984               0.000866667               0.000107365               0.999999984               0.000886172               0.000095558               0.999999984               0.000896821               0.000090843               0.999999984               0.000905348               0.000089773               0.999999984               0.000914306               0.000090445               0.999999984               0.000924465               0.000091890               0.999999984               0.000935983               0.000093546               0.999999984               0.000948607               0.000095041               0.999999984               0.000962042               0.000095977               0.999999984               0.000975958               0.000095851               0.999999984               0.000989814               0.000094360               0.999999984               0.001003119               0.000091075               0.999999984               0.001015361               0.000085443               0.999999984               0.001025902               0.000076963               0.999999984               0.001034162               0.000064478               0.999999984               0.001039523               0.000047039               0.999999984               0.000805907               0.000265661               0.999999984               0.000841307               0.000214155               0.999999984               0.000853478               0.000191883               0.999999984               0.000859600               0.000183498               0.999999984               0.000865184               0.000182121               0.999999984               0.000871990               0.000184073               0.999999984               0.000880277               0.000187431               0.999999984               0.000889885               0.000190903               0.999999984               0.000900309               0.000193969               0.999999984               0.000911030               0.000195756               0.999999984               0.000921426               0.000195410               0.999999984               0.000930989               0.000192392               0.999999984               0.000939316               0.000185938               0.999999984               0.000945840               0.000175347               0.999999984               0.000950136               0.000159590               0.999999984               0.000951914               0.000137360               0.999999984               0.000951084               0.000107366               0.999999984               0.000783699               0.000395600               0.999999984               0.000800389               0.000320102               0.999999984               0.000801859               0.000289535               0.999999984               0.000801758               0.000279449               0.999999984               0.000803610               0.000279057               0.999999984               0.000807704               0.000283142               0.999999984               0.000813552               0.000288805               0.999999984               0.000820374               0.000294382               0.999999984               0.000827397               0.000299005               0.999999984               0.000833830               0.000301458               0.999999984               0.000839106               0.000300645               0.999999984               0.000842650               0.000295978               0.999999984               0.000843899               0.000286633               0.999999984               0.000842545               0.000271835               0.999999984               0.000838464               0.000250994               0.999999984               0.000831743               0.000223025               0.999999984               0.000822839               0.000187327               0.999999984               0.000753201               0.000521918               0.999999984               0.000745780               0.000425189               0.999999984               0.000735338               0.000389092               0.999999984               0.000729242               0.000379202               0.999999984               0.000727617               0.000381186               0.999999984               0.000729258               0.000388006               0.999999984               0.000732533               0.000396332               0.999999984               0.000736166               0.000404084               0.999999984               0.000739155               0.000409887               0.999999984               0.000740484               0.000412536               0.999999984               0.000739431               0.000410916               0.999999984               0.000735527               0.000404525               0.999999984               0.000728539               0.000392649               0.999999984               0.000718438               0.000374760               0.999999984               0.000705336               0.000350705               0.999999984               0.000689702               0.000320452               0.999999984               0.000672212               0.000284279               0.999999984               0.000714854               0.000643505               0.999999984               0.000680392               0.000529375               0.999999984               0.000658965               0.000490663               0.999999984               0.000648432               0.000482604               0.999999984               0.000644772               0.000487577               0.999999984               0.000644590               0.000497446               0.999999984               0.000645451               0.000508282               0.999999984               0.000645676               0.000517687               0.999999984               0.000643870               0.000524335               0.999999984               0.000639184               0.000526617               0.999999984               0.000631079               0.000523731               0.999999984               0.000619240               0.000515390               0.999999984               0.000603607               0.000501317               0.999999984               0.000584367               0.000481269               0.999999984               0.000561964               0.000455677               0.999999984               0.000537107               0.000425288               0.999999984               0.000510562               0.000391064               0.999999984               0.000669398               0.000759259               0.999999984               0.000607578               0.000632721               0.999999984               0.000577946               0.000593737               0.999999984               0.000565459               0.000588411               0.999999984               0.000561196               0.000596442               0.999999984               0.000559880               0.000608969               0.999999984               0.000558354               0.000621719               0.999999984               0.000554566               0.000632291               0.999999984               0.000547517               0.000639029               0.999999984               0.000536275               0.000640487               0.999999984               0.000520439               0.000636081               0.999999984               0.000499797               0.000626009               0.999999984               0.000474600               0.000610168               0.999999984               0.000445434               0.000589064               0.999999984               0.000413189               0.000563400               0.999999984               0.000378732               0.000534265               0.999999984               0.000343029               0.000503213               0.999999984               0.000617955               0.000867835               0.999999984               0.000530841               0.000735026               0.999999984               0.000496745               0.000697485               0.999999984               0.000485025               0.000694721               0.999999984               0.000481329               0.000705281               0.999999984               0.000479131               0.000719973               0.999999984               0.000474996               0.000733984               0.999999984               0.000467104               0.000744752               0.999999984               0.000454215               0.000750963               0.999999984               0.000435431               0.000751232               0.999999984               0.000410575               0.000745319               0.999999984               0.000379847               0.000733867               0.999999984               0.000344048               0.000717240               0.999999984               0.000304288               0.000696141               0.999999984               0.000261795               0.000671776               0.999999984               0.000217712               0.000645428               0.999999984               0.000172907               0.000618481               0.999999984               0.000562118               0.000967332               0.999999984               0.000452878               0.000836098               0.999999984               0.000419515               0.000800306               0.999999984               0.000410290               0.000799451               0.999999984               0.000407843               0.000811952               0.999999984               0.000404856               0.000827968               0.999999984               0.000397923               0.000842461               0.999999984               0.000385119               0.000852979               0.999999984               0.000365226               0.000858226               0.999999984               0.000337607               0.000857120               0.999999984               0.000302325               0.000849984               0.999999984               0.000260327               0.000837727               0.999999984               0.000213102               0.000821112               0.999999984               0.000162275               0.000801310               0.999999984               0.000109278               0.000779734               0.999999984               0.000055339               0.000757527               0.999999984               0.000001310               0.000735302               0.999999984               0.000504338               0.001061491               0.999999984               0.000387733               0.000949054               0.999999984               0.000351476               0.000909151               0.999999984               0.000341388               0.000902728               0.999999984               0.000339077               0.000911233               0.999999984               0.000337276               0.000925436               0.999999984               0.000332377               0.000940498               0.999999984               0.000322409               0.000953508               0.999999984               0.000306639               0.000963120               0.999999984               0.000283840               0.000968461               0.999999984               0.000253462               0.000969128               0.999999984               0.000215963               0.000965383               0.999999984               0.000172303               0.000957953               0.999999984               0.000123836               0.000947376               0.999999984               0.000071973               0.000934780               0.999999984               0.000017941               0.000920903               0.999999984              -0.000036882               0.000906824               0.999999984               0.000441290               0.001147143               0.999999984               0.000325457               0.001058320               0.999999984               0.000286562               0.001020771               0.999999984               0.000274685               0.001011347               0.999999984               0.000271667               0.001016939               0.999999984               0.000270269               0.001029849               0.999999984               0.000266872               0.001045290               0.999999984               0.000259437               0.001060499               0.999999984               0.000246919               0.001074041               0.999999984               0.000228444               0.001084858               0.999999984               0.000203169               0.001092241               0.999999984               0.000170653               0.001096021               0.999999984               0.000131316               0.001096574               0.999999984               0.000086014               0.001094400               0.999999984               0.000035933               0.001090053               0.999999984              -0.000017689               0.001084250               0.999999984              -0.000073294               0.001077923               0.999999984               0.000374182               0.001222205               0.999999984               0.000266055               0.001160592               0.999999984               0.000226377               0.001130112               0.999999984               0.000212537               0.001121138               0.999999984               0.000208223               0.001125593               0.999999984               0.000206629               0.001137930               0.999999984               0.000204167               0.001154072               0.999999984               0.000198657               0.001171545               0.999999984               0.000188930               0.001188736               0.999999984               0.000174211               0.001204658               0.999999984               0.000153602               0.001218347               0.999999984               0.000126329               0.001229320               0.999999984               0.000091902               0.001237411               0.999999984               0.000050790               0.001242845               0.999999984               0.000003506               0.001246061               0.999999984              -0.000049125               0.001247738               0.999999984              -0.000105726               0.001248757               0.999999984               0.000303600               0.001285362               0.999999984               0.000209510               0.001251526               0.999999984               0.000171731               0.001231628               0.999999984               0.000156788               0.001226174               0.999999984               0.000151288               0.001231680               0.999999984               0.000149178               0.001244510               0.999999984               0.000147064               0.001261926               0.999999984               0.000142844               0.001281937               0.999999984               0.000135490               0.001302929               0.999999984               0.000124179               0.001323668               0.999999984               0.000107919               0.001343351               0.999999984               0.000085853               0.001361214               0.999999984               0.000057183               0.001376826               0.999999984               0.000021456               0.001389982               0.999999984              -0.000021490               0.001400910               0.999999984              -0.000071782               0.001410180               0.999999984              -0.000128885               0.001418428               0.999999984               0.000230214               0.001335622               0.999999984               0.000155269               0.001327025               0.999999984               0.000122709               0.001319153               0.999999984               0.000108496               0.001319398               0.999999984               0.000102557               0.001327768               0.999999984               0.000099958               0.001342575               0.999999984               0.000097897               0.001362090               0.999999984               0.000094686               0.001384727               0.999999984               0.000089256               0.001409248               0.999999984               0.000080888               0.001434590               0.999999984               0.000068797               0.001459904               0.999999984               0.000052064               0.001484421               0.999999984               0.000029694               0.001507555               0.999999984               0.000000882               0.001528866               0.999999984              -0.000035412               0.001548175               0.999999984              -0.000080281               0.001565466               0.999999984              -0.000134415               0.001581213               0.999999984               0.000154723               0.001372122               0.999999984               0.000102661               0.001383630               0.999999984               0.000078686               0.001386703               0.999999984               0.000067517               0.001393107               0.999999984               0.000062306               0.001405209               0.999999984               0.000059741               0.001422799               0.999999984               0.000058094               0.001444830               0.999999984               0.000055829               0.001470183               0.999999984               0.000052042               0.001497886               0.999999984               0.000046317               0.001527240               0.999999984               0.000038273               0.001557545               0.999999984               0.000026948               0.001587992               0.999999984               0.000011491               0.001618045               0.999999984              -0.000009073               0.001647146               0.999999984              -0.000035824               0.001674698               0.999999984              -0.000070318               0.001700144               0.999999984              -0.000114473               0.001723438               0.999999984               0.000077756               0.001394233               0.999999984               0.000051086               0.001418679               0.999999984               0.000038387               0.001429387               0.999999984               0.000032204               0.001440477               0.999999984               0.000029068               0.001455673               0.999999984               0.000027565               0.001475530               0.999999984               0.000026626               0.001499637               0.999999984               0.000025429               0.001527272               0.999999984               0.000023431               0.001557598               0.999999984               0.000020482               0.001590024               0.999999984               0.000016372               0.001623882               0.999999984               0.000010567               0.001658593               0.999999984               0.000002541               0.001693641               0.999999984              -0.000008229               0.001728280               0.999999984              -0.000022503               0.001761845               0.999999984              -0.000041377               0.001793666               0.999999984              -0.000066602               0.001823049               0.999999984              -0.000000000               0.001401627               0.999999984              -0.000000000               0.001430518               0.999999984              -0.000000000               0.001444003               0.999999984               0.000000000               0.001456899               0.999999984               0.000000000               0.001473254               0.999999984              -0.000000000               0.001494008               0.999999984               0.000000000               0.001518938               0.999999984               0.000000000               0.001547512               0.999999984              -0.000000000               0.001578929               0.999999984               0.000000000               0.001612535               0.999999984              -0.000000000               0.001647751               0.999999984              -0.000000000               0.001683955               0.999999984               0.000000000               0.001720693               0.999999984               0.000000000               0.001757325               0.999999984              -0.000000000               0.001793197               0.999999984               0.000000000               0.001827463               0.999999984               0.000000000               0.001859164               0.999999984 </DataArray>
<DataArray type="Float64"                                    Name="defo"                                                      NumberOfComponents=" 3" format="ascii">
             -0.000823899               0.000000000               0.999999984              -0.000875269              -0.000000000               0.999999984              -0.000897311              -0.000000000               0.999999984              -0.000909583              -0.000000000               0.999999984              -0.000919334               0.000000000               0.999999984              -0.000929183               0.000000000               0.999999984              -0.000940111               0.000000000               0.999999984              -0.000952269               0.000000000               0.999999984              -0.000965604               0.000000000               0.999999984              -0.000980016               0.000000000               0.999999984              -0.000995114               0.000000000               0.999999984              -0.001010410               0.000000000               0.999999984              -0.001025509               0.000000000               0.999999984              -0.001039823               0.000000000               0.999999984              -0.001052716               0.000000000               0.999999984              -0.001063399               0.000000000               0.999999984              -0.001071038               0.000000000               0.999999984              -0.000819391               0.000133393               0.999999984              -0.000866667               0.000107365               0.999999984              -0.000886172               0.000095558               0.999999984              -0.000896821               0.000090843               0.999999984              -0.000905348               0.000089773               0.999999984              -0.000914306               0.000090445               0.999999984              -0.000924465               0.000091890               0.999999984              -0.000935983               0.000093546               0.999999984              -0.000948607               0.000095041               0.999999984              -0.000962042               0.000095977               0.999999984              -0.000975958               0.000095851               0.999999984              -0.000989814               0.000094360               0.999999984              -0.001003119               0.000091075               0.999999984              -0.001015361               0.000085443               0.999999984              -0.001025902               0.000076963               0.999999984              -0.001034162               0.000064478               0.999999984              -0.001039523               0.000047039               0.999999984              -0.000805907               0.000265661               0.999999984              -0.000841307               0.000214155               0.999999984              -0.000853478               0.000191883               0.999999984              -0.000859600               0.000183498               0.999999984              -0.000865184               0.000182121               0.999999984              -0.000871990               0.000184073               0.999999984              -0.000880277               0.000187431               0.999999984              -0.000889885               0.000190903               0.999999984              -0.000900309               0.000193969               0.999999984              -0.000911030               0.000195756               0.999999984              -0.000921426               0.000195410               0.999999984              -0.000930989               0.000192392               0.999999984              -0.000939316               0.000185938               0.999999984              -0.000945840               0.000175347               0.999999984              -0.000950136               0.000159590               0.999999984              -0.000951914               0.000137360               0.999999984              -0.000951084               0.000107366               0.999999984              -0.000783699               0.000395600               0.999999984              -0.000800389               0.000320102               0.999999984              -0.000801859               0.000289535               0.999999984              -0.000801758               0.000279449               0.999999984              -0.000803610               0.000279057               0.999999984              -0.000807704               0.000283142               0.999999984              -0.000813552               0.000288805               0.999999984              -0.000820374               0.000294382               0.999999984              -0.000827397               0.000299005               0.999999984              -0.000833830               0.000301458               0.999999984              -0.000839106               0.000300645               0.999999984              -0.000842650               0.000295978               0.999999984              -0.000843899               0.000286633               0.999999984              -0.000842545               0.000271835               0.999999984              -0.000838464               0.000250994               0.999999984              -0.000831743               0.000223025               0.999999984              -0.000822839               0.000187327               0.999999984              -0.000753201               0.000521918               0.999999984              -0.000745780               0.000425189               0.999999984              -0.000735338               0.000389092               0.999999984              -0.000729242               0.000379202               0.999999984              -0.000727617               0.000381186               0.999999984              -0.000729258               0.000388006               0.999999984              -0.000732533               0.000396332               0.999999984              -0.000736166               0.000404084               0.999999984              -0.000739155               0.000409887               0.999999984              -0.000740484               0.000412536               0.999999984              -0.000739431               0.000410916               0.999999984              -0.000735527               0.000404525               0.999999984              -0.000728539               0.000392649               0.999999984              -0.000718438               0.000374760               0.999999984              -0.000705336               0.000350705               0.999999984              -0.000689702               0.000320452               0.999999984              -0.000672212               0.000284279               0.999999984              -0.000714854               0.000643505               0.999999984              -0.000680392               0.000529375               0.999999984              -0.000658965               0.000490663               0.999999984              -0.000648432               0.000482604               0.999999984              -0.000644772               0.000487577               0.999999984              -0.000644590               0.000497446               0.999999984              -0.000645451               0.000508282               0.999999984              -0.000645676               0.000517687               0.999999984              -0.000643870               0.000524335               0.999999984              -0.000639184               0.000526617               0.999999984              -0.000631079               0.000523731               0.999999984              -0.000619240               0.000515390               0.999999984              -0.000603607               0.000501317               0.999999984              -0.000584367               0.000481269               0.999999984              -0.000561964               0.000455677               0.999999984              -0.000537107               0.000425288               0.999999984              -0.000510562               0.000391064               0.999999984              -0.000669398               0.000759259               0.999999984              -0.000607578               0.000632721               0.999999984              -0.000577946               0.000593737               0.999999984              -0.000565459               0.000588411               0.999999984              -0.000561196               0.000596442               0.999999984              -0.000559880               0.000608969               0.999999984              -0.000558354               0.000621719               0.999999984              -0.000554566               0.000632291               0.999999984              -0.000547517               0.000639029               0.999999984              -0.000536275               0.000640487               0.999999984              -0.000520439               0.000636081               0.999999984              -0.000499797               0.000626009               0.999999984              -0.000474600               0.000610168               0.999999984              -0.000445434               0.000589064               0.999999984              -0.000413189               0.000563400               0.999999984              -0.000378732               0.000534265               0.999999984              -0.000343029               0.000503213               0.999999984              -0.000617955               0.000867835               0.999999984              -0.000530841               0.000735026               0.999999984              -0.000496745               0.000697485               0.999999984              -0.000485025               0.000694721               0.999999984              -0.000481329               0.000705281               0.999999984              -0.000479131               0.000719973               0.999999984              -0.000474996               0.000733984               0.999999984              -0.000467104               0.000744752               0.999999984              -0.000454215               0.000750963               0.999999984              -0.000435431               0.000751232               0.999999984              -0.000410575               0.000745319               0.999999984              -0.000379847               0.000733867               0.999999984              -0.000344048               0.000717240               0.999999984              -0.000304288               0.000696141               0.999999984              -0.000261795               0.000671776               0.999999984              -0.000217712               0.000645428               0.999999984              -0.000172907               0.000618481               0.999999984              -0.000562118               0.000967332               0.999999984              -0.000452878               0.000836098               0.999999984              -0.000419515               0.000800306               0.999999984              -0.000410290               0.000799451               0.999999984              -0.000407843               0.000811952               0.999999984              -0.000404856               0.000827968               0.999999984              -0.000397923               0.000842461               0.999999984              -0.000385119               0.000852979               0.999999984              -0.000365226               0.000858226               0.999999984              -0.000337607               0.000857120               0.999999984              -0.000302325               0.000849984               0.999999984              -0.000260327               0.000837727               0.999999984              -0.000213102               0.000821112               0.999999984              -0.000162275               0.000801310               0.999999984              -0.000109278               0.000779734               0.999999984              -0.000055339               0.000757527               0.999999984              -0.000001310               0.000735302               0.999999984              -0.000504338               0.001061491               0.999999984              -0.000387733               0.000949054               0.999999984              -0.000351476               0.000909151               0.999999984              -0.000341388               0.000902728               0.999999984              -0.000339077               0.000911233               0.999999984              -0.000337276               0.000925436               0.999999984              -0.000332377               0.000940498               0.999999984              -0.000322409               0.000953508               0.999999984              -0.000306639               0.000963120               0.999999984              -0.000283840               0.000968461               0.999999984              -0.000253462               0.000969128               0.999999984              -0.000215963               0.000965383               0.999999984              -0.000172303               0.000957953               0.999999984              -0.000123836               0.000947376               0.999999984              -0.000071973               0.000934780               0.999999984              -0.000017941               0.000920903               0.999999984               0.000036882               0.000906824               0.999999984              -0.000441290               0.001147143               0.999999984              -0.000325457               0.001058320               0.999999984              -0.000286562               0.001020771               0.999999984              -0.000274685               0.001011347               0.999999984              -0.000271667               0.001016939               0.999999984              -0.000270269               0.001029849               0.999999984              -0.000266872               0.001045290               0.999999984              -0.000259437               0.001060499               0.999999984              -0.000246919               0.001074041               0.999999984              -0.000228444               0.001084858               0.999999984              -0.000203169               0.001092241               0.999999984              -0.000170653               0.001096021               0.999999984              -0.000131316               0.001096574               0.999999984              -0.000086014               0.001094400               0.999999984              -0.000035933               0.001090053               0.999999984               0.000017689               0.001084250               0.999999984               0.000073294               0.001077923               0.999999984              -0.000374182               0.001222205               0.999999984              -0.000266055               0.001160592               0.999999984              -0.000226377               0.001130112               0.999999984              -0.000212537               0.001121138               0.999999984              -0.000208223               0.001125593               0.999999984              -0.000206629               0.001137930               0.999999984              -0.000204167               0.001154072               0.999999984              -0.000198657               0.001171545               0.999999984              -0.000188930               0.001188736               0.999999984              -0.000174211               0.001204658               0.999999984              -0.000153602               0.001218347               0.999999984              -0.000126329               0.001229320               0.999999984              -0.000091902               0.001237411               0.999999984              -0.000050790               0.001242845               0.999999984              -0.000003506               0.001246061               0.999999984               0.000049125               0.001247738               0.999999984               0.000105726               0.001248757               0.999999984              -0.000303600               0.001285362               0.999999984              -0.000209510               0.001251526               0.999999984              -0.000171731               0.001231628               0.999999984              -0.000156788               0.001226174               0.999999984              -0.000151288               0.001231680               0.999999984              -0.000149178               0.001244510               0.999999984              -0.000147064               0.001261926               0.999999984              -0.000142844               0.001281937               0.999999984              -0.000135490               0.001302929               0.999999984              -0.000124179               0.001323668               0.999999984              -0.000107919               0.001343351               0.999999984              -0.000085853               0.001361214               0.999999984              -0.000057183               0.001376826               0.999999984              -0.000021456               0.001389982               0.999999984               0.000021490               0.001400910               0.999999984               0.000071782               0.001410180               0.999999984               0.000128885               0.001418428               0.999999984              -0.000230214               0.001335622               0.999999984              -0.000155269               0.001327025               0.999999984              -0.000122709               0.001319153               0.999999984              -0.000108496               0.001319398               0.999999984              -0.000102557               0.001327768               0.999999984              -0.000099958               0.001342575               0.999999984              -0.000097897               0.001362090               0.999999984              -0.000094686               0.001384727               0.999999984              -0.000089256               0.001409248               0.999999984              -0.000080888               0.001434590               0.999999984              -0.000068797               0.001459904               0.999999984              -0.000052064               0.001484421               0.999999984              -0.000029694               0.001507555               0.999999984              -0.000000882               0.001528866               0.999999984               0.000035412               0.001548175               0.999999984               0.000080281               0.001565466               0.999999984               0.000134415               0.001581213               0.999999984              -0.000154723               0.001372122               0.999999984              -0.000102661               0.001383630               0.999999984              -0.000078686               0.001386703               0.999999984              -0.000067517               0.001393107               0.999999984              -0.000062306               0.001405209               0.999999984              -0.000059741               0.001422799               0.999999984              -0.000058094               0.001444830               0.999999984              -0.000055829               0.001470183               0.999999984              -0.000052042               0.001497886               0.999999984              -0.000046317               0.001527240               0.999999984              -0.000038273               0.001557545               0.999999984              -0.000026948               0.001587992               0.999999984              -0.000011491               0.001618045               0.999999984               0.000009073               0.001647146               0.999999984               0.000035824               0.001674698               0.999999984               0.000070318               0.001700144               0.999999984               0.000114473               0.001723438               0.999999984              -0.000077756               0.001394233               0.999999984              -0.000051086               0.001418679               0.999999984              -0.000038387               0.001429387               0.999999984              -0.000032204               0.001440477               0.999999984              -0.000029068               0.001455673               0.999999984              -0.000027565               0.001475530               0.999999984              -0.000026626               0.001499637               0.999999984              -0.000025429               0.001527272               0.999999984              -0.000023431               0.001557598               0.999999984              -0.000020482               0.001590024               0.999999984              -0.000016372               0.001623882               0.999999984              -0.000010567               0.001658593               0.999999984              -0.000002541               0.001693641               0.999999984               0.000008229               0.001728280               0.999999984               0.000022503               0.001761845               0.999999984               0.000041377               0.001793666               0.999999984               0.000066602               0.001823049               0.999999984              -0.000000000               0.001401627               0.999999984              -0.000000000               0.001430518               0.999999984              -0.000000000               0.001444003               0.999999984               0.000000000               0.001456899               0.999999984               0.000000000               0.001473254               0.999999984              -0.000000000               0.001494008               0.999999984               0.000000000               0.001518938               0.999999984               0.000000000               0.001547512               0.999999984              -0.000000000               0.001578929               0.999999984               0.000000000               0.001612535               0.999999984              -0.000000000               0.001647751               0.999999984              -0.000000000               0.001683955               0.999999984               0.000000000               0.001720693               0.999999984               0.000000000               0.001757325               0.999999984              -0.000000000               0.001793197               0.999999984               0.000000000               0.001827463               0.999999984               0.000000000               0.001859164               0.999999984              -0.000823899               0.000000000               0.999999984              -0.000875269              -0.000000000               0.999999984              -0.000897311              -0.000000000               0.999999984              -0.000909583              -0.000000000               0.999999984              -0.000919334               0.000000000               0.999999984              -0.000929183               0.000000000               0.999999984              -0.000940111               0.000000000               0.999999984              -0.000952269               0.000000000               0.999999984              -0.000965604               0.000000000               0.999999984              -0.000980016               0.000000000               0.999999984              -0.000995114               0.000000000               0.999999984              -0.001010410               0.000000000               0.999999984              -0.001025509               0.000000000               0.999999984              -0.001039823               0.000000000               0.999999984              -0.001052716               0.000000000               0.999999984              -0.001063399               0.000000000               0.999999984              -0.001071038               0.000000000               0.999999984              -0.000819391              -0.000133393               0.999999984              -0.000866667              -0.000107365               0.999999984              -0.000886172              -0.000095558               0.999999984              -0.000896821              -0.000090843               0.999999984              -0.000905348              -0.000089773               0.999999984              -0.000914306              -0.000090445               0.999999984              -0.000924465              -0.000091890               0.999999984              -0.000935983              -0.000093546               0.999999984              -0.000948607              -0.000095041               0.999999984              -0.000962042              -0.000095977               0.999999984              -0.000975958              -0.000095851               0.999999984              -0.000989814              -0.000094360               0.999999984              -0.001003119              -0.000091075               0.999999984              -0.001015361              -0.000085443               0.999999984              -0.001025902              -0.000076963               0.999999984              -0.001034162              -0.000064478               0.999999984              -0.001039523              -0.000047039               0.999999984              -0.000805907              -0.000265661               0.999999984              -0.000841307              -0.000214155               0.999999984              -0.000853478              -0.000191883               0.999999984              -0.000859600              -0.000183498               0.999999984              -0.000865184              -0.000182121               0.999999984              -0.000871990              -0.000184073               0.999999984              -0.000880277              -0.000187431               0.999999984              -0.000889885              -0.000190903               0.999999984              -0.000900309              -0.000193969               0.999999984              -0.000911030              -0.000195756               0.999999984              -0.000921426              -0.000195410               0.999999984              -0.000930989              -0.000192392               0.999999984              -0.000939316              -0.000185938               0.999999984              -0.000945840              -0.000175347               0.999999984              -0.000950136              -0.000159590               0.999999984              -0.000951914              -0.000137360               0.999999984              -0.000951084              -0.000107366               0.999999984              -0.000783699              -0.000395600               0.999999984              -0.000800389              -0.000320102               0.999999984              -0.000801859              -0.000289535               0.999999984              -0.000801758              -0.000279449               0.999999984              -0.000803610              -0.000279057               0.999999984              -0.000807704              -0.000283142               0.999999984              -0.000813552              -0.000288805               0.999999984              -0.000820374              -0.000294382               0.999999984              -0.000827397              -0.000299005               0.999999984              -0.000833830              -0.000301458               0.999999984              -0.000839106              -0.000300645               0.999999984              -0.000842650              -0.000295978               0.999999984              -0.000843899              -0.000286633               0.999999984              -0.000842545              -0.000271835               0.999999984              -0.000838464              -0.000250994               0.999999984              -0.000831743              -0.000223025               0.999999984              -0.000822839              -0.000187327               0.999999984              -0.000753201              -0.000521918               0.999999984              -0.000745780              -0.000425189               0.999999984              -0.000735338              -0.000389092               0.999999984              -0.000729242              -0.000379202               0.999999984              -0.000727617              -0.000381186               0.999999984              -0.000729258              -0.000388006               0.999999984              -0.000732533              -0.000396332               0.999999984              -0.000736166              -0.000404084               0.999999984              -0.000739155              -0.000409887               0.999999984              -0.000740484              -0.000412536               0.999999984              -0.000739431              -0.000410916               0.999999984              -0.000735527              -0.000404525               0.999999984              -0.000728539              -0.000392649               0.999999984              -0.000718438              -0.000374760               0.999999984              -0.000705336              -0.000350705               0.999999984              -0.000689702              -0.000320452               0.999999984              -0.000672212              -0.000284279               0.999999984              -0.000714854              -0.000643505               0.999999984              -0.000680392              -0.000529375               0.999999984              -0.000658965              -0.000490663               0.999999984              -0.000648432              -0.000482604               0.999999984              -0.000644772              -0.000487577               0.999999984              -0.000644590              -0.000497446               0.999999984              -0.000645451              -0.000508282               0.999999984              -0.000645676              -0.000517687               0.999999984              -0.000643870              -0.000524335               0.999999984              -0.000639184              -0.000526617               0.999999984              -0.000631079              -0.000523731               0.999999984              -0.000619240              -0.000515390               0.999999984              -0.000603607              -0.000501317               0.999999984              -0.000584367              -0.000481269               0.999999984              -0.000561964              -0.000455677               0.999999984              -0.000537107              -0.000425288               0.999999984              -0.000510562              -0.000391064               0.999999984              -0.000669398              -0.000759259               0.999999984              -0.000607578              -0.000632721               0.999999984              -0.000577946              -0.000593737               0.999999984              -0.000565459              -0.000588411               0.999999984              -0.000561196              -0.000596442               0.999999984              -0.000559880              -0.000608969               0.999999984              -0.000558354              -0.000621719               0.999999984              -0.000554566              -0.000632291               0.999999984              -0.000547517              -0.000639029               0.999999984              -0.000536275              -0.000640487               0.999999984              -0.000520439              -0.000636081               0.999999984              -0.000499797              -0.000626009               0.999999984              -0.000474600              -0.000610168               0.999999984              -0.000445434              -0.000589064               0.999999984              -0.000413189              -0.000563400               0.999999984              -0.000378732              -0.000534265               0.999999984              -0.000343029              -0.000503213               0.999999984              -0.000617955              -0.000867835               0.999999984              -0.000530841              -0.000735026               0.999999984              -0.000496745              -0.000697485               0.999999984              -0.000485025              -0.000694721               0.999999984              -0.000481329              -0.000705281               0.999999984              -0.000479131              -0.000719973               0.999999984              -0.000474996              -0.000733984               0.999999984              -0.000467104              -0.000744752               0.999999984              -0.000454215              -0.000750963               0.999999984              -0.000435431              -0.000751232               0.999999984              -0.000410575              -0.000745319               0.999999984              -0.000379847              -0.000733867               0.999999984              -0.000344048              -0.000717240               0.999999984              -0.000304288              -0.000696141               0.999999984              -0.000261795              -0.000671776               0.999999984              -0.000217712              -0.000645428               0.999999984              -0.000172907              -0.000618481               0.999999984              -0.000562118              -0.000967332               0.999999984              -0.000452878              -0.000836098               0.999999984              -0.000419515              -0.000800306               0.999999984              -0.000410290              -0.000799451               0.999999984              -0.000407843              -0.000811952               0.999999984              -0.000404856              -0.000827968               0.999999984              -0.000397923              -0.000842461               0.999999984              -0.000385119              -0.000852979               0.999999984              -0.000365226              -0.000858226               0.999999984              -0.000337607              -0.000857120               0.999999984              -0.000302325              -0.000849984               0.999999984              -0.000260327              -0.000837727               0.999999984              -0.000213102              -0.000821112               0.999999984              -0.000162275              -0.000801310               0.999999984              -0.000109278              -0.000779734               0.999999984              -0.000055339              -0.000757527               0.999999984              -0.000001310              -0.000735302               0.999999984              -0.000504338              -0.001061491               0.999999984              -0.000387733              -0.000949054               0.999999984              -0.000351476              -0.000909151               0.999999984              -0.000341388              -0.000902728               0.999999984              -0.000339077              -0.000911233               0.999999984              -0.000337276              -0.000925436               0.999999984              -0.000332377              -0.000940498               0.999999984              -0.000322409              -0.000953508               0.999999984              -0.000306639              -0.000963120               0.999999984              -0.000283840              -0.000968461               0.999999984              -0.000253462              -0.000969128               0.999999984              -0.000215963              -0.000965383               0.999999984              -0.000172303              -0.000957953               0.999999984              -0.000123836              -0.000947376               0.999999984              -0.000071973              -0.000934780               0.999999984              -0.000017941              -0.000920903               0.999999984               0.000036882              -0.000906824               0.999999984              -0.000441290              -0.001147143               0.999999984              -0.000325457              -0.001058320               0.999999984              -0.000286562              -0.001020771               0.999999984              -0.000274685              -0.001011347               0.999999984              -0.000271667              -0.001016939               0.999999984              -0.000270269              -0.001029849               0.999999984              -0.000266872              -0.001045290               0.999999984              -0.000259437              -0.001060499               0.999999984              -0.000246919              -0.001074041               0.999999984              -0.000228444              -0.001084858               0.999999984              -0.000203169              -0.001092241               0.999999984              -0.000170653              -0.001096021               0.999999984              -0.000131316              -0.001096574               0.999999984              -0.000086014              -0.001094400               0.999999984              -0.000035933              -0.001090053               0.999999984               0.000017689              -0.001084250               0.999999984               0.000073294              -0.001077923               0.999999984              -0.000374182              -0.001222205               0.999999984              -0.000266055              -0.001160592               0.999999984              -0.000226377              -0.001130112               0.999999984              -0.000212537              -0.001121138               0.999999984              -0.000208223              -0.001125593               0.999999984              -0.000206629              -0.001137930               0.999999984              -0.000204167              -0.001154072               0.999999984              -0.000198657              -0.001171545               0.999999984              -0.000188930              -0.001188736               0.999999984              -0.000174211              -0.001204658               0.999999984              -0.000153602              -0.001218347               0.999999984              -0.000126329              -0.001229320               0.999999984              -0.000091902              -0.001237411               0.999999984              -0.000050790              -0.001242845               0.999999984              -0.000003506              -0.001246061               0.999999984               0.000049125              -0.001247738               0.999999984               0.000105726              -0.001248757               0.999999984              -0.000303600              -0.001285362               0.999999984              -0.000209510              -0.001251526               0.999999984              -0.000171731              -0.001231628               0.999999984              -0.000156788              -0.001226174               0.999999984              -0.000151288              -0.001231680               0.999999984              -0.000149178              -0.001244510               0.999999984              -0.000147064              -0.001261926               0.999999984              -0.000142844              -0.001281937               0.999999984              -0.000135490              -0.001302929               0.999999984              -0.000124179              -0.001323668               0.999999984              -0.000107919              -0.001343351               0.999999984              -0.000085853              -0.001361214               0.999999984              -0.000057183              -0.001376826               0.999999984              -0.000021456              -0.001389982               0.999999984               0.000021490              -0.001400910               0.999999984               0.000071782              -0.001410180               0.999999984               0.000128885              -0.001418428               0.999999984              -0.000230214              -0.001335622               0.999999984              -0.000155269              -0.001327025               0.999999984              -0.000122709              -0.001319153               0.999999984              -0.000108496              -0.001319398               0.999999984              -0.000102557              -0.001327768               0.999999984              -0.000099958              -0.001342575               0.999999984              -0.000097897              -0.001362090               0.999999984              -0.000094686              -0.001384727               0.999999984              -0.000089256              -0.001409248               0.999999984              -0.000080888              -0.001434590               0.999999984              -0.000068797              -0.001459904               0.999999984              -0.000052064              -0.001484421               0.999999984              -0.000029694              -0.001507555               0.999999984              -0.000000882              -0.001528866               0.999999984               0.000035412              -0.001548175               0.999999984               0.000080281              -0.001565466               0.999999984               0.000134415              -0.001581213               0.999999984              -0.000154723              -0.001372122               0.999999984              -0.000102661              -0.001383630               0.999999984              -0.000078686              -0.001386703               0.999999984              -0.000067517              -0.001393107               0.999999984              -0.000062306              -0.001405209               0.999999984              -0.000059741              -0.001422799               0.999999984              -0.000058094              -0.001444830               0.999999984              -0.000055829              -0.001470183               0.999999984              -0.000052042              -0.001497886               0.999999984              -0.000046317              -0.001527240               0.999999984              -0.000038273              -0.001557545               0.999999984              -0.000026948              -0.001587992               0.999999984              -0.000011491              -0.001618045               0.999999984               0.000009073              -0.001647146               0.999999984               0.000035824              -0.001674698               0.999999984               0.000070318              -0.001700144               0.999999984               0.000114473              -0.001723438               0.999999984              -0.000077756              -0.001394233               0.999999984              -0.000051086              -0.001418679               0.999999984              -0.000038387              -0.001429387               0.999999984              -0.000032204              -0.001440477               0.999999984              -0.000029068              -0.001455673               0.999999984              -0.000027565              -0.001475530               0.999999984              -0.000026626              -0.001499637               0.999999984              -0.000025429              -0.001527272               0.999999984              -0.000023431              -0.001557598               0.999999984              -0.000020482              -0.001590024               0.999999984              -0.000016372              -0.001623882               0.999999984              -0.000010567              -0.001658593               0.999999984              -0.000002541              -0.001693641               0.999999984               0.000008229              -0.001728280               0.999999984               0.000022503              -0.001761845               0.999999984               0.000041377              -0.001793666               0.999999984               0.000066602              -0.001823049               0.999999984               0.000000000              -0.001401627               0.999999984              -0.000000000              -0.001430518               0.999999984               0.000000000              -0.001444003               0.999999984              -0.000000000              -0.001456899               0.999999984               0.000000000              -0.001473254               0.999999984              -0.000000000              -0.001494008               0.999999984              -0.000000000              -0.001518938               0.999999984              -0.000000000              -0.001547512               0.999999984               0.000000000              -0.001578929               0.999999984               0.000000000              -0.001612535               0.999999984              -0.000000000              -0.001647751               0.999999984              -0.000000000              -0.001683955               0.999999984              -0.000000000              -0.001720693               0.999999984               0.000000000              -0.001757325               0.999999984               0.000000000              -0.001793197               0.999999984              -0.000000000              -0.001827463               0.999999984              -0.000000000              -0.001859164               0.999999984               0.000823899               0.000000000               0.999999984               0.000875269               0.000000000               0.999999984               0.000897311               0.000000000               0.999999984               0.000909583              -0.000000000               0.999999984               0.000919334               0.000000000               0.999999984               0.000929183               0.000000000               0.999999984               0.000940111               0.000000000               0.999999984               0.000952269               0.000000000               0.999999984               0.000965604               0.000000000               0.999999984               0.000980016               0.000000000               0.999999984               0.000995114              -0.000000000               0.999999984               0.001010410               0.000000000               0.999999984               0.001025509              -0.000000000               0.999999984               0.001039823               0.000000000               0.999999984               0.001052716               0.000000000               0.999999984               0.001063399               0.000000000               0.999999984               0.001071038               0.000000000               0.999999984               0.000819391              -0.000133393               0.999999984               0.000866667              -0.000107365               0.999999984               0.000886172              -0.000095558               0.999999984               0.000896821              -0.000090843               0.999999984               0.000905348              -0.000089773               0.999999984               0.000914306              -0.000090445               0.999999984               0.000924465              -0.000091890               0.999999984               0.000935983              -0.000093546               0.999999984               0.000948607              -0.000095041               0.999999984               0.000962042              -0.000095977               0.999999984               0.000975958              -0.000095851               0.999999984               0.000989814              -0.000094360               0.999999984               0.001003119              -0.000091075               0.999999984               0.001015361              -0.000085443               0.999999984               0.001025902              -0.000076963               0.999999984               0.001034162              -0.000064478               0.999999984               0.001039523              -0.000047039               0.999999984               0.000805907              -0.000265661               0.999999984               0.000841307              -0.000214155               0.999999984               0.000853478              -0.000191883               0.999999984               0.000859600              -0.000183498               0.999999984               0.000865184              -0.000182121               0.999999984               0.000871990              -0.000184073               0.999999984               0.000880277              -0.000187431               0.999999984               0.000889885              -0.000190903               0.999999984               0.000900309              -0.000193969               0.999999984               0.000911030              -0.000195756               0.999999984               0.000921426              -0.000195410               0.999999984               0.000930989              -0.000192392               0.999999984               0.000939316              -0.000185938               0.999999984               0.000945840              -0.000175347               0.999999984               0.000950136              -0.000159590               0.999999984               0.000951914              -0.000137360               0.999999984               0.000951084              -0.000107366               0.999999984               0.000783699              -0.000395600               0.999999984               0.000800389              -0.000320102               0.999999984               0.000801859              -0.000289535               0.999999984               0.000801758              -0.000279449               0.999999984               0.000803610              -0.000279057               0.999999984               0.000807704              -0.000283142               0.999999984               0.000813552              -0.000288805               0.999999984               0.000820374              -0.000294382               0.999999984               0.000827397              -0.000299005               0.999999984               0.000833830              -0.000301458               0.999999984               0.000839106              -0.000300645               0.999999984               0.000842650              -0.000295978               0.999999984               0.000843899              -0.000286633               0.999999984               0.000842545              -0.000271835               0.999999984               0.000838464              -0.000250994               0.999999984               0.000831743              -0.000223025               0.999999984               0.000822839              -0.000187327               0.999999984               0.000753201              -0.000521918               0.999999984               0.000745780              -0.000425189               0.999999984               0.000735338              -0.000389092               0.999999984               0.000729242              -0.000379202               0.999999984               0.000727617              -0.000381186               0.999999984               0.000729258              -0.000388006               0.999999984               0.000732533              -0.000396332               0.999999984               0.000736166              -0.000404084               0.999999984               0.000739155              -0.000409887               0.999999984               0.000740484              -0.000412536               0.999999984               0.000739431              -0.000410916               0.999999984               0.000735527              -0.000404525               0.999999984               0.000728539              -0.000392649               0.999999984               0.000718438              -0.000374760               0.999999984               0.000705336              -0.000350705               0.999999984               0.000689702              -0.000320452               0.999999984               0.000672212              -0.000284279               0.999999984               0.000714854              -0.000643505               0.999999984               0.000680392              -0.000529375               0.999999984               0.000658965              -0.000490663               0.999999984               0.000648432              -0.000482604               0.999999984               0.000644772              -0.000487577               0.999999984               0.000644590              -0.000497446               0.999999984               0.000645451              -0.000508282               0.999999984               0.000645676              -0.000517687               0.999999984               0.000643870              -0.000524335               0.999999984               0.000639184              -0.000526617               0.999999984               0.000631079              -0.000523731               0.999999984               0.000619240              -0.000515390               0.999999984               0.000603607              -0.000501317               0.999999984               0.000584367              -0.000481269               0.999999984               0.000561964              -0.000455677               0.999999984               0.000537107              -0.000425288               0.999999984               0.000510562              -0.000391064               0.999999984               0.000669398              -0.000759259               0.999999984               0.000607578              -0.000632721               0.999999984               0.000577946              -0.000593737               0.999999984               0.000565459              -0.000588411               0.999999984               0.000561196              -0.000596442               0.999999984               0.000559880              -0.000608969               0.999999984               0.000558354              -0.000621719               0.999999984               0.000554566              -0.000632291               0.999999984               0.000547517              -0.000639029               0.999999984               0.000536275              -0.000640487               0.999999984               0.000520439              -0.000636081               0.999999984               0.000499797              -0.000626009               0.999999984               0.000474600              -0.000610168               0.999999984               0.000445434              -0.000589064               0.999999984               0.000413189              -0.000563400               0.999999984               0.000378732              -0.000534265               0.999999984               0.000343029              -0.000503213               0.999999984               0.000617955              -0.000867835               0.999999984               0.000530841              -0.000735026               0.999999984               0.000496745              -0.000697485               0.999999984               0.000485025              -0.000694721               0.999999984               0.000481329              -0.000705281               0.999999984               0.000479131              -0.000719973               0.999999984               0.000474996              -0.000733984               0.999999984               0.000467104              -0.000744752               0.999999984               0.000454215              -0.000750963               0.999999984               0.000435431              -0.000751232               0.999999984               0.000410575              -0.000745319               0.999999984               0.000379847              -0.000733867               0.999999984               0.000344048              -0.000717240               0.999999984               0.000304288              -0.000696141               0.999999984               0.000261795              -0.000671776               0.999999984               0.000217712              -0.000645428               0.999999984               0.000172907              -0.000618481               0.999999984               0.000562118              -0.000967332               0.999999984               0.000452878              -0.000836098               0.999999984               0.000419515              -0.000800306               0.999999984               0.000410290              -0.000799451               0.999999984               0.000407843              -0.000811952               0.999999984               0.000404856              -0.000827968               0.999999984               0.000397923              -0.000842461               0.999999984               0.000385119              -0.000852979               0.999999984               0.000365226              -0.000858226               0.999999984               0.000337607              -0.000857120               0.999999984               0.000302325              -0.000849984               0.999999984               0.000260327              -0.000837727               0.999999984               0.000213102              -0.000821112               0.999999984               0.000162275              -0.000801310               0.999999984               0.000109278              -0.000779734               0.999999984               0.000055339              -0.000757527               0.999999984               0.000001310              -0.000735302               0.999999984               0.000504338              -0.001061491               0.999999984               0.000387733              -0.000949054               0.999999984               0.000351476              -0.000909151               0.999999984               0.000341388              -0.000902728               0.999999984               0.000339077              -0.000911233               0.999999984               0.000337276              -0.000925436               0.999999984               0.000332377              -0.000940498               0.999999984               0.000322409              -0.000953508               0.999999984               0.000306639              -0.000963120               0.999999984               0.000283840              -0.000968461               0.999999984               0.000253462              -0.000969128               0.999999984               0.000215963              -0.000965383               0.999999984               0.000172303              -0.000957953               0.999999984               0.000123836              -0.000947376               0.999999984               0.000071973              -0.000934780               0.999999984               0.000017941              -0.000920903               0.999999984              -0.000036882              -0.000906824               0.999999984               0.000441290              -0.001147143               0.999999984               0.000325457              -0.001058320               0.999999984               0.000286562              -0.001020771               0.999999984               0.000274685              -0.001011347               0.999999984               0.000271667              -0.001016939               0.999999984               0.000270269              -0.001029849               0.999999984               0.000266872              -0.001045290               0.999999984               0.000259437              -0.001060499               0.999999984               0.000246919              -0.001074041               0.999999984               0.000228444              -0.001084858               0.999999984               0.000203169              -0.001092241               0.999999984               0.000170653              -0.001096021               0.999999984               0.000131316              -0.001096574               0.999999984               0.000086014              -0.001094400               0.999999984               0.000035933              -0.001090053               0.999999984              -0.000017689              -0.001084250               0.999999984              -0.000073294              -0.001077923               0.999999984               0.000374182              -0.001222205               0.999999984               0.000266055              -0.001160592               0.999999984               0.000226377              -0.001130112               0.999999984               0.000212537              -0.001121138               0.999999984               0.000208223              -0.001125593               0.999999984               0.000206629              -0.001137930               0.999999984               0.000204167              -0.001154072               0.999999984               0.000198657              -0.001171545               0.999999984               0.000188930              -0.001188736               0.999999984               0.000174211              -0.001204658               0.999999984               0.000153602              -0.001218347               0.999999984               0.000126329              -0.001229320               0.999999984               0.000091902              -0.001237411               0.999999984               0.000050790              -0.001242845               0.999999984               0.000003506              -0.001246061               0.999999984              -0.000049125              -0.001247738               0.999999984              -0.000105726              -0.001248757               0.999999984               0.000303600              -0.001285362               0.999999984               0.000209510              -0.001251526               0.999999984               0.000171731              -0.001231628               0.999999984               0.000156788              -0.001226174               0.999999984               0.000151288              -0.001231680               0.999999984               0.000149178              -0.001244510               0.999999984               0.000147064              -0.001261926               0.999999984               0.000142844              -0.001281937               0.999999984               0.000135490              -0.001302929               0.999999984               0.000124179              -0.001323668               0.999999984               0.000107919              -0.001343351               0.999999984               0.000085853              -0.001361214               0.999999984               0.000057183              -0.001376826               0.999999984               0.000021456              -0.001389982               0.999999984              -0.000021490              -0.001400910               0.999999984              -0.000071782              -0.001410180               0.999999984              -0.000128885              -0.001418428               0.999999984               0.000230214              -0.001335622               0.999999984               0.000155269              -0.001327025               0.999999984               0.000122709              -0.001319153               0.999999984               0.000108496              -0.001319398               0.999999984               0.000102557              -0.001327768               0.999999984               0.000099958              -0.001342575               0.999999984               0.000097897              -0.001362090               0.999999984               0.000094686              -0.001384727               0.999999984               0.000089256              -0.001409248               0.999999984               0.000080888              -0.001434590               0.999999984               0.000068797              -0.001459904               0.999999984               0.000052064              -0.001484421               0.999999984               0.000029694              -0.001507555               0.999999984               0.000000882              -0.001528866               0.999999984              -0.000035412              -0.001548175               0.999999984              -0.000080281              -0.001565466               0.999999984              -0.000134415              -0.001581213               0.999999984               0.000154723              -0.001372122               0.999999984               0.000102661              -0.001383630               0.999999984               0.000078686              -0.001386703               0.999999984               0.000067517              -0.001393107               0.999999984               0.000062306              -0.001405209               0.999999984               0.000059741              -0.001422799               0.999999984               0.000058094              -0.001444830               0.999999984               0.000055829              -0.001470183               0.999999984               0.000052042              -0.001497886               0.999999984               0.000046317              -0.001527240               0.999999984               0.000038273              -0.001557545               0.999999984               0.000026948              -0.001587992               0.999999984               0.000011491              -0.001618045               0.999999984              -0.000009073              -0.001647146               0.999999984              -0.000035824              -0.001674698               0.999999984              -0.000070318              -0.001700144               0.999999984              -0.000114473              -0.001723438               0.999999984               0.000077756              -0.001394233               0.999999984               0.000051086              -0.001418679               0.999999984               0.000038387              -0.001429387               0.999999984               0.000032204              -0.001440477               0.999999984               0.000029068              -0.001455673               0.999999984               0.000027565              -0.001475530               0.999999984               0.000026626              -0.001499637               0.999999984               0.000025429              -0.001527272               0.999999984               0.000023431              -0.001557598               0.999999984               0.000020482              -0.001590024               0.999999984               0.000016372              -0.001623882               0.999999984               0.000010567              -0.001658593               0.999999984               0.000002541              -0.001693641               0.999999984              -0.000008229              -0.001728280               0.999999984              -0.000022503              -0.001761845               0.999999984              -0.000041377              -0.001793666               0.999999984              -0.000066602              -0.001823049               0.999999984               0.000000000              -0.001401627               0.999999984              -0.000000000              -0.001430518               0.999999984               0.000000000              -0.001444003               0.999999984              -0.000000000              -0.001456899               0.999999984               0.000000000              -0.001473254               0.999999984              -0.000000000              -0.001494008               0.999999984              -0.000000000              -0.001518938               0.999999984              -0.000000000              -0.001547512               0.999999984               0.000000000              -0.001578929               0.999999984               0.000000000              -0.001612535               0.999999984              -0.000000000              -0.001647751               0.999999984              -0.000000000              -0.001683955               0.999999984              -0.000000000              -0.001720693               0.999999984               0.000000000              -0.001757325               0.999999984               0.000000000              -0.001793197               0.999999984              -0.000000000              -0.001827463               0.999999984              -0.000000000              -0.001859164               0.999999984               0.000823899               0.000000000               0.999999984               0.000875269               0.000000000               0.999999984               0.000897311               0.000000000               0.999999984               0.000909583              -0.000000000               0.999999984               0.000919334               0.000000000               0.999999984               0.000929183               0.000000000               0.999999984               0.000940111               0.000000000               0.999999984               0.000952269               0.000000000               0.999999984               0.000965604               0.000000000               0.999999984               0.000980016               0.000000000               0.999999984               0.000995114              -0.000000000               0.999999984               0.001010410               0.000000000               0.999999984               0.001025509              -0.000000000               0.999999984               0.001039823               0.000000000               0.999999984               0.001052716               0.000000000               0.999999984               0.001063399               0.000000000               0.999999984               0.001071038               0.000000000               0.999999984               0.000819391               0.000133393               0.999999984               0.000866667               0.000107365               0.999999984               0.000886172               0.000095558               0.999999984               0.000896821               0.000090843               0.999999984               0.000905348               0.000089773               0.999999984               0.000914306               0.000090445               0.999999984               0.000924465               0.000091890               0.999999984               0.000935983               0.000093546               0.999999984               0.000948607               0.000095041               0.999999984               0.000962042               0.000095977               0.999999984               0.000975958               0.000095851               0.999999984               0.000989814               0.000094360               0.999999984               0.001003119               0.000091075               0.999999984               0.001015361               0.000085443               0.999999984               0.001025902               0.000076963               0.999999984               0.001034162               0.000064478               0.999999984               0.001039523               0.000047039               0.999999984               0.000805907               0.000265661               0.999999984               0.000841307               0.000214155               0.999999984               0.000853478               0.000191883               0.999999984               0.000859600               0.000183498               0.999999984               0.000865184               0.000182121               0.999999984               0.000871990               0.000184073               0.999999984               0.000880277               0.000187431               0.999999984               0.000889885               0.000190903               0.999999984               0.000900309               0.000193969               0.999999984               0.000911030               0.000195756               0.999999984               0.000921426               0.000195410               0.999999984               0.000930989               0.000192392               0.999999984               0.000939316               0.000185938               0.999999984               0.000945840               0.000175347               0.999999984               0.000950136               0.000159590               0.999999984               0.000951914               0.000137360               0.999999984               0.000951084               0.000107366               0.999999984               0.000783699               0.000395600               0.999999984               0.000800389               0.000320102               0.999999984               0.000801859               0.000289535               0.999999984               0.000801758               0.000279449               0.999999984               0.000803610               0.000279057               0.999999984               0.000807704               0.000283142               0.999999984               0.000813552               0.000288805               0.999999984               0.000820374               0.000294382               0.999999984               0.000827397               0.000299005               0.999999984               0.000833830               0.000301458               0.999999984               0.000839106               0.000300645               0.999999984               0.000842650               0.000295978               0.999999984               0.000843899               0.000286633               0.999999984               0.000842545               0.000271835               0.999999984               0.000838464               0.000250994               0.999999984               0.000831743               0.000223025               0.999999984               0.000822839               0.000187327               0.999999984               0.000753201               0.000521918               0.999999984               0.000745780               0.000425189               0.999999984               0.000735338               0.000389092               0.999999984               0.000729242               0.000379202               0.999999984               0.000727617               0.000381186               0.999999984               0.000729258               0.000388006               0.999999984               0.000732533               0.000396332               0.999999984               0.000736166               0.000404084               0.999999984               0.000739155               0.000409887               0.999999984               0.000740484               0.000412536               0.999999984               0.000739431               0.000410916               0.999999984               0.000735527               0.000404525               0.999999984               0.000728539               0.000392649               0.999999984               0.000718438               0.000374760               0.999999984               0.000705336               0.000350705               0.999999984               0.000689702               0.000320452               0.999999984               0.000672212               0.000284279               0.999999984               0.000714854               0.000643505               0.999999984               0.000680392               0.000529375               0.999999984               0.000658965               0.000490663               0.999999984               0.000648432               0.000482604               0.999999984               0.000644772               0.000487577               0.999999984               0.000644590               0.000497446               0.999999984               0.000645451               0.000508282               0.999999984               0.000645676               0.000517687               0.999999984               0.000643870               0.000524335               0.999999984               0.000639184               0.000526617               0.999999984               0.000631079               0.000523731               0.999999984               0.000619240               0.000515390               0.999999984               0.000603607               0.000501317               0.999999984               0.000584367               0.000481269               0.999999984               0.000561964               0.000455677               0.999999984               0.000537107               0.000425288               0.999999984               0.000510562               0.000391064               0.999999984               0.000669398               0.000759259               0.999999984               0.000607578               0.000632721               0.999999984               0.000577946               0.000593737               0.999999984               0.000565459               0.000588411               0.999999984               0.000561196               0.000596442               0.999999984               0.000559880               0.000608969               0.999999984               0.000558354               0.000621719               0.999999984               0.000554566               0.000632291               0.999999984               0.000547517               0.000639029               0.999999984               0.000536275               0.000640487               0.999999984               0.000520439               0.000636081               0.999999984               0.000499797               0.000626009               0.999999984               0.000474600               0.000610168               0.999999984               0.000445434               0.000589064               0.999999984               0.000413189               0.000563400               0.999999984               0.000378732               0.000534265               0.999999984               0.000343029               0.000503213               0.999999984               0.000617955               0.000867835               0.999999984               0.000530841               0.000735026               0.999999984               0.000496745               0.000697485               0.999999984               0.000485025               0.000694721               0.999999984               0.000481329               0.000705281               0.999999984               0.000479131               0.000719973               0.999999984               0.000474996               0.000733984               0.999999984               0.000467104               0.000744752               0.999999984               0.000454215               0.000750963               0.999999984               0.000435431               0.000751232               0.999999984               0.000410575               0.000745319               0.999999984               0.000379847               0.000733867               0.999999984               0.000344048               0.000717240               0.999999984               0.000304288               0.000696141               0.999999984               0.000261795               0.000671776               0.999999984               0.000217712               0.000645428               0.999999984               0.000172907               0.000618481               0.999999984               0.000562118               0.000967332               0.999999984               0.000452878               0.000836098               0.999999984               0.000419515               0.000800306               0.999999984               0.000410290               0.000799451               0.999999984               0.000407843               0.000811952               0.999999984               0.000404856               0.000827968               0.999999984               0.000397923               0.000842461               0.999999984               0.000385119               0.000852979               0.999999984               0.000365226               0.000858226               0.999999984               0.000337607               0.000857120               0.999999984               0.000302325               0.000849984               0.999999984               0.000260327               0.000837727               0.999999984               0.000213102               0.000821112               0.999999984               0.000162275               0.000801310               0.999999984               0.000109278               0.000779734               0.999999984               0.000055339               0.000757527               0.999999984               0.000001310               0.000735302               0.999999984               0.000504338               0.001061491               0.999999984               0.000387733               0.000949054               0.999999984               0.000351476               0.000909151               0.999999984               0.000341388               0.000902728               0.999999984               0.000339077               0.000911233               0.999999984               0.000337276               0.000925436               0.999999984               0.000332377               0.000940498               0.999999984               0.000322409               0.000953508               0.999999984               0.000306639               0.000963120               0.999999984               0.000283840               0.000968461               0.999999984               0.000253462               0.000969128               0.999999984               0.000215963               0.000965383               0.999999984               0.000172303               0.000957953               0.999999984               0.000123836               0.000947376               0.999999984               0.000071973               0.000934780               0.999999984               0.000017941               0.000920903               0.999999984              -0.000036882               0.000906824               0.999999984               0.000441290               0.001147143               0.999999984               0.000325457               0.001058320               0.999999984               0.000286562               0.001020771               0.999999984               0.000274685               0.001011347               0.999999984               0.000271667               0.001016939               0.999999984               0.000270269               0.001029849               0.999999984               0.000266872               0.001045290               0.999999984               0.000259437               0.001060499               0.999999984               0.000246919               0.001074041               0.999999984               0.000228444               0.001084858               0.999999984               0.000203169               0.001092241               0.999999984               0.000170653               0.001096021               0.999999984               0.000131316               0.001096574               0.999999984               0.000086014               0.001094400               0.999999984               0.000035933               0.001090053               0.999999984              -0.000017689               0.001084250               0.999999984              -0.000073294               0.001077923               0.999999984               0.000374182               0.001222205               0.999999984               0.000266055               0.001160592               0.999999984               0.000226377               0.001130112               0.999999984               0.000212537               0.001121138               0.999999984               0.000208223               0.001125593               0.999999984               0.000206629               0.001137930               0.999999984               0.000204167               0.001154072               0.999999984               0.000198657               0.001171545               0.999999984               0.000188930               0.001188736               0.999999984               0.000174211               0.001204658               0.999999984               0.000153602               0.001218347               0.999999984               0.000126329               0.001229320               0.999999984               0.000091902               0.001237411               0.999999984               0.000050790               0.001242845               0.999999984               0.000003506               0.001246061               0.999999984              -0.000049125               0.001247738               0.999999984              -0.000105726               0.001248757               0.999999984               0.000303600               0.001285362               0.999999984               0.000209510               0.001251526               0.999999984               0.000171731               0.001231628               0.999999984               0.000156788               0.001226174               0.999999984               0.000151288               0.001231680               0.999999984               0.000149178               0.001244510               0.999999984               0.000147064               0.001261926               0.999999984               0.000142844               0.001281937               0.999999984               0.000135490               0.001302929               0.999999984               0.000124179               0.001323668               0.999999984               0.000107919               0.001343351               0.999999984               0.000085853               0.001361214               0.999999984               0.000057183               0.001376826               0.999999984               0.000021456               0.001389982               0.999999984              -0.000021490               0.001400910               0.999999984              -0.000071782               0.001410180               0.999999984              -0.000128885               0.001418428               0.999999984               0.000230214               0.001335622               0.999999984               0.000155269               0.001327025               0.999999984               0.000122709               0.001319153               0.999999984               0.000108496               0.001319398               0.999999984               0.000102557               0.001327768               0.999999984               0.000099958               0.001342575               0.999999984               0.000097897               0.001362090               0.999999984               0.000094686               0.001384727               0.999999984               0.000089256               0.001409248               0.999999984               0.000080888               0.001434590               0.999999984               0.000068797               0.001459904               0.999999984               0.000052064               0.001484421               0.999999984               0.000029694               0.001507555               0.999999984               0.000000882               0.001528866               0.999999984              -0.000035412               0.001548175               0.999999984              -0.000080281               0.001565466               0.999999984              -0.000134415               0.001581213               0.999999984               0.000154723               0.001372122               0.999999984               0.000102661               0.001383630               0.999999984               0.000078686               0.001386703               0.999999984               0.000067517               0.001393107               0.999999984               0.000062306               0.001405209               0.999999984               0.000059741               0.001422799               0.999999984               0.000058094               0.001444830               0.999999984               0.000055829               0.001470183               0.999999984               0.000052042               0.001497886               0.999999984               0.000046317               0.001527240               0.999999984               0.000038273               0.001557545               0.999999984               0.000026948               0.001587992               0.999999984               0.000011491               0.001618045               0.999999984              -0.000009073               0.001647146               0.999999984              -0.000035824               0.001674698               0.999999984              -0.000070318               0.001700144               0.999999984              -0.000114473               0.001723438               0.999999984               0.000077756               0.001394233               0.999999984               0.000051086               0.001418679               0.999999984               0.000038387               0.001429387               0.999999984               0.000032204               0.001440477               0.999999984               0.000029068               0.001455673               0.999999984               0.000027565               0.001475530               0.999999984               0.000026626               0.001499637               0.999999984               0.000025429               0.001527272               0.999999984               0.000023431               0.001557598               0.999999984               0.000020482               0.001590024               0.999999984               0.000016372               0.001623882               0.999999984               0.000010567               0.001658593               0.999999984               0.000002541               0.001693641               0.999999984              -0.000008229               0.001728280               0.999999984              -0.000022503               0.001761845               0.999999984              -0.000041377               0.001793666               0.999999984              -0.000066602               0.001823049               0.999999984              -0.000000000               0.001401627               0.999999984              -0.000000000               0.001430518               0.999999984              -0.000000000               0.001444003               0.999999984               0.000000000               0.001456899               0.999999984               0.000000000               0.001473254               0.999999984              -0.000000000               0.001494008               0.999999984               0.000000000               0.001518938               0.999999984               0.000000000               0.001547512               0.999999984              -0.000000000               0.001578929               0.999999984               0.000000000               0.001612535               0.999999984              -0.000000000               0.001647751               0.999999984              -0.000000000               0.001683955               0.999999984               0.000000000               0.001720693               0.999999984               0.000000000               0.001757325               0.999999984              -0.000000000               0.001793197               0.999999984               0.000000000               0.001827463               0.999999984               0.000000000               0.001859164               0.999999984 </DataArray>
<DataArray type="Float64"                                    Name="stress"                                                      NumberOfComponents="10" format="ascii">
              0.002252104               0.024301686              -0.000000000              -0.002193166               0.008831537               0.006638370               0.000000000               0.000000000               0.000000000               0.000000000               0.002187265               0.018815846              -0.000000000              -0.001531753               0.006782470               0.005250718               0.000000000               0.000000000               0.000000000               0.000000000               0.002830467               0.014339360               0.000000000              -0.000730993               0.005023403               0.004292410               0.000000000               0.000000000               0.000000000               0.000000000               0.002648497               0.011799407               0.000000000              -0.000481738               0.004093676               0.003611937               0.000000000               0.000000000               0.000000000               0.000000000               0.002234221               0.010191319               0.000000000              -0.000436081               0.003542433               0.003106352               0.000000000               0.000000000               0.000000000               0.000000000               0.001783124               0.009065855               0.000000000              -0.000464559               0.003176774               0.002712215               0.000000000               0.000000000               0.000000000               0.000000000               0.001362438               0.008211607               0.000000000              -0.000515535               0.002909020               0.002393485               0.000000000               0.000000000               0.000000000               0.000000000               0.000994416               0.007520520               0.000000000              -0.000567158               0.002695867               0.002128710               0.000000000               0.000000000               0.000000000               0.000000000               0.000674674               0.006926734               0.000000000              -0.000612838               0.002513168               0.001900330               0.000000000               0.000000000               0.000000000               0.000000000               0.000402511               0.006384740              -0.000000000              -0.000647149               0.002343942               0.001696792               0.000000000               0.000000000               0.000000000               0.000000000               0.000187222               0.005862689              -0.000000000              -0.000662626               0.002175085               0.001512459               0.000000000               0.000000000               0.000000000               0.000000000               0.000024580               0.005338813              -0.000000000              -0.000658133               0.001998964               0.001340832               0.000000000               0.000000000               0.000000000               0.000000000              -0.000088580               0.004792832              -0.000000000              -0.000632320               0.001808368               0.001176048               0.000000000               0.000000000               0.000000000               0.000000000              -0.000145692               0.004207476               0.000000000              -0.000580568               0.001596001               0.001015433               0.000000000               0.000000000               0.000000000               0.000000000              -0.000143753               0.003564006               0.000000000              -0.000499407               0.001354459               0.000855052               0.000000000               0.000000000               0.000000000               0.000000000              -0.000086601               0.002827857              -0.000000000              -0.000385957               0.001071262               0.000685305               0.000000000               0.000000000               0.000000000               0.000000000              -0.000106901               0.002257040              -0.000000000              -0.000322217               0.000859745               0.000537528               0.000000000               0.000000000               0.000000000               0.000000000               0.002328636               0.023797613              -0.001636112              -0.002101458               0.008632944               0.006531486               0.000000000               0.000000000               0.000000000               0.000000000               0.002130138               0.018485979              -0.000778651              -0.001511942               0.006665912               0.005153970               0.000000000               0.000000000               0.000000000               0.000000000               0.002634964               0.014203782               0.000067754              -0.000787359               0.004997000               0.004209641               0.000000000               0.000000000               0.000000000               0.000000000               0.002405250               0.011765739               0.000419687              -0.000568747               0.004111456               0.003542709               0.000000000               0.000000000               0.000000000               0.000000000               0.001981891               0.010210114               0.000558941              -0.000533054               0.003581022               0.003047968               0.000000000               0.000000000               0.000000000               0.000000000               0.001538969               0.009114005               0.000601649              -0.000562136               0.003225350               0.002663214               0.000000000               0.000000000               0.000000000               0.000000000               0.001133744               0.008275166               0.000602355              -0.000609240               0.002961441               0.002352201               0.000000000               0.000000000               0.000000000               0.000000000               0.000784672               0.007587632               0.000585683              -0.000654201               0.002747252               0.002093051               0.000000000               0.000000000               0.000000000               0.000000000               0.000494751               0.006995691               0.000561507              -0.000688928               0.002561516               0.001872588               0.000000000               0.000000000               0.000000000               0.000000000               0.000255281               0.006452996               0.000530818              -0.000710892               0.002387941               0.001677049               0.000000000               0.000000000               0.000000000               0.000000000               0.000069687               0.005929910               0.000497379              -0.000715104               0.002214985               0.001499881               0.000000000               0.000000000               0.000000000               0.000000000              -0.000063192               0.005408228               0.000460996              -0.000699724               0.002035966               0.001336242               0.000000000               0.000000000               0.000000000               0.000000000              -0.000147522               0.004870672               0.000416015              -0.000664153               0.001844925               0.001180772               0.000000000               0.000000000               0.000000000               0.000000000              -0.000178111               0.004305582               0.000358869              -0.000604988               0.001636842               0.001031854               0.000000000               0.000000000               0.000000000               0.000000000              -0.000157516               0.003695638               0.000275851              -0.000521022               0.001405541               0.000884519               0.000000000               0.000000000               0.000000000               0.000000000              -0.000092770               0.003020253               0.000155634              -0.000412320               0.001144181               0.000731861               0.000000000               0.000000000               0.000000000               0.000000000              -0.000105435               0.002509833               0.000097442              -0.000353266               0.000954358               0.000601092               0.000000000               0.000000000               0.000000000               0.000000000               0.002505939               0.022349648              -0.003037750              -0.001853975               0.008067800               0.006213824               0.000000000               0.000000000               0.000000000               0.000000000               0.001951117               0.017556328              -0.001438942              -0.001462869               0.006339674               0.004876805               0.000000000               0.000000000               0.000000000               0.000000000               0.002078189               0.013821573               0.000125511              -0.000948373               0.004923269               0.003974896               0.000000000               0.000000000               0.000000000               0.000000000               0.001713547               0.011666716               0.000749891              -0.000815757               0.004160786               0.003345028               0.000000000               0.000000000               0.000000000               0.000000000               0.001270031               0.010254346               0.000983310              -0.000805530               0.003686591               0.002881061               0.000000000               0.000000000               0.000000000               0.000000000               0.000862275               0.009232848               0.001047648              -0.000830751               0.003354502               0.002523751               0.000000000               0.000000000               0.000000000               0.000000000               0.000516223               0.008429307               0.001039563              -0.000860078               0.003096433               0.002236355               0.000000000               0.000000000               0.000000000               0.000000000               0.000236845               0.007755981               0.001007296              -0.000880679               0.002878861               0.001998182               0.000000000               0.000000000               0.000000000               0.000000000               0.000025271               0.007166424               0.000964804              -0.000886325               0.002684225               0.001797901               0.000000000               0.000000000               0.000000000               0.000000000              -0.000127897               0.006620763               0.000909235              -0.000875555               0.002498750               0.001623196               0.000000000               0.000000000               0.000000000               0.000000000              -0.000227969               0.006096193               0.000847377              -0.000847511               0.002314547               0.001467037               0.000000000               0.000000000               0.000000000               0.000000000              -0.000283235               0.005580215               0.000778395              -0.000803738               0.002127966               0.001324228               0.000000000               0.000000000               0.000000000               0.000000000              -0.000294256               0.005065119               0.000695676              -0.000743484               0.001936184               0.001192700               0.000000000               0.000000000               0.000000000               0.000000000              -0.000260290               0.004548527               0.000591281              -0.000666173               0.001738218               0.001072045               0.000000000               0.000000000               0.000000000               0.000000000              -0.000191094               0.004028533               0.000446450              -0.000575226               0.001534573               0.000959347               0.000000000               0.000000000               0.000000000               0.000000000              -0.000100219               0.003505955               0.000248480              -0.000475825               0.001327248               0.000851423               0.000000000               0.000000000               0.000000000               0.000000000              -0.000090462               0.003142302               0.000150870              -0.000426710               0.001189660               0.000762950               0.000000000               0.000000000               0.000000000               0.000000000               0.002663867               0.020140633              -0.004019302              -0.001518628               0.007219686               0.005701058               0.000000000               0.000000000               0.000000000               0.000000000               0.001617651               0.016174789              -0.001901286              -0.001415227               0.005863284               0.004448058               0.000000000               0.000000000               0.000000000               0.000000000               0.001224880               0.013259175               0.000140382              -0.001198064               0.004819036               0.003620972               0.000000000               0.000000000               0.000000000               0.000000000               0.000704354               0.011499187               0.000906038              -0.001173263               0.004224112               0.003050849               0.000000000               0.000000000               0.000000000               0.000000000               0.000262891               0.010282841               0.001171871              -0.001186769               0.003823169               0.002636400               0.000000000               0.000000000               0.000000000               0.000000000              -0.000070322               0.009353058               0.001233813              -0.001195500               0.003516155               0.002320654               0.000000000               0.000000000               0.000000000               0.000000000              -0.000308949               0.008593094               0.001214277              -0.001189990               0.003260999               0.002071009               0.000000000               0.000000000               0.000000000               0.000000000              -0.000469613               0.007939514               0.001169427              -0.001168541               0.003035992               0.001867450               0.000000000               0.000000000               0.000000000               0.000000000              -0.000562775               0.007347689               0.001113153              -0.001129499               0.002825705               0.001696206               0.000000000               0.000000000               0.000000000               0.000000000              -0.000601868               0.006793055               0.001041065              -0.001074830               0.002622606               0.001547776               0.000000000               0.000000000               0.000000000               0.000000000              -0.000597377               0.006264630               0.000960919              -0.001007093               0.002423887               0.001416794               0.000000000               0.000000000               0.000000000               0.000000000              -0.000549483               0.005761657               0.000871693              -0.000926261               0.002229287               0.001303025               0.000000000               0.000000000               0.000000000               0.000000000              -0.000465250               0.005282524               0.000763562              -0.000834782               0.002039084               0.001204302               0.000000000               0.000000000               0.000000000               0.000000000              -0.000355722               0.004829631               0.000632566              -0.000737098               0.001855560               0.001118462               0.000000000               0.000000000               0.000000000               0.000000000              -0.000231788               0.004416852               0.000464436              -0.000639025               0.001685278               0.001046252               0.000000000               0.000000000               0.000000000               0.000000000              -0.000111594               0.004061963               0.000249764              -0.000549592               0.001537171               0.000987580               0.000000000               0.000000000               0.000000000               0.000000000              -0.000077069               0.003851138               0.000143373              -0.000510292               0.001453797               0.000943505               0.000000000               0.000000000               0.000000000               0.000000000               0.002659793               0.017439308              -0.004486759              -0.001182491               0.006207207               0.005024716               0.000000000               0.000000000               0.000000000               0.000000000               0.001101726               0.014520483              -0.002147696              -0.001401911               0.005307416               0.003905505               0.000000000               0.000000000               0.000000000               0.000000000               0.000166956               0.012586092               0.000067972              -0.001510649               0.004698872               0.003188223               0.000000000               0.000000000               0.000000000               0.000000000              -0.000446512               0.011255317               0.000841099              -0.001574353               0.004276519               0.002702166               0.000000000               0.000000000               0.000000000               0.000000000              -0.000819842               0.010234743               0.001086504              -0.001586780               0.003940473               0.002353694               0.000000000               0.000000000               0.000000000               0.000000000              -0.001028927               0.009394326               0.001134085              -0.001560135               0.003651455               0.002091321               0.000000000               0.000000000               0.000000000               0.000000000              -0.001123301               0.008673826               0.001111129              -0.001505463               0.003393067               0.001887605               0.000000000               0.000000000               0.000000000               0.000000000              -0.001143391               0.008029103               0.001063894              -0.001432406               0.003153810               0.001721403               0.000000000               0.000000000               0.000000000               0.000000000              -0.001104859               0.007433776               0.001005275              -0.001343541               0.002925747               0.001582206               0.000000000               0.000000000               0.000000000               0.000000000              -0.001018582               0.006872427               0.000932326              -0.001241019               0.002704459               0.001463440               0.000000000               0.000000000               0.000000000               0.000000000              -0.000897469               0.006347172               0.000851128              -0.001129945               0.002492351               0.001362406               0.000000000               0.000000000               0.000000000               0.000000000              -0.000750330               0.005862575               0.000759199              -0.001014193               0.002292236               0.001278043               0.000000000               0.000000000               0.000000000               0.000000000              -0.000587117               0.005424102               0.000645411              -0.000898180               0.002107409               0.001209229               0.000000000               0.000000000               0.000000000               0.000000000              -0.000417746               0.005038581               0.000512180              -0.000786475               0.001941669               0.001155193               0.000000000               0.000000000               0.000000000               0.000000000              -0.000257169               0.004719223               0.000359432              -0.000686340               0.001801838               0.001115499               0.000000000               0.000000000               0.000000000               0.000000000              -0.000121759               0.004487387               0.000185550              -0.000606581               0.001697974               0.001091393               0.000000000               0.000000000               0.000000000               0.000000000              -0.000073578               0.004375651               0.000101616              -0.000574547               0.001650051               0.001075504               0.000000000               0.000000000               0.000000000               0.000000000               0.002351285               0.014527386              -0.004460588              -0.000934193               0.005153810               0.004219617               0.000000000               0.000000000               0.000000000               0.000000000               0.000401768               0.012768324              -0.002217287              -0.001445375               0.004737857               0.003292481               0.000000000               0.000000000               0.000000000               0.000000000              -0.000963085               0.011848933              -0.000121402              -0.001842269               0.004563695               0.002721426               0.000000000               0.000000000               0.000000000               0.000000000              -0.001564332               0.010918829               0.000559496              -0.001951473               0.004290064               0.002338591               0.000000000               0.000000000               0.000000000               0.000000000              -0.001794310               0.010062830               0.000766370              -0.001930715               0.003997815               0.002067099               0.000000000               0.000000000               0.000000000               0.000000000              -0.001833282               0.009293690               0.000810665              -0.001849188               0.003714262               0.001865074               0.000000000               0.000000000               0.000000000               0.000000000              -0.001769423               0.008597213               0.000800817              -0.001738181               0.003445103               0.001706922               0.000000000               0.000000000               0.000000000               0.000000000              -0.001644257               0.007959368               0.000773264              -0.001611514               0.003190267               0.001578754               0.000000000               0.000000000               0.000000000               0.000000000              -0.001474775               0.007366261               0.000729388              -0.001473820               0.002946669               0.001472849               0.000000000               0.000000000               0.000000000               0.000000000              -0.001279056               0.006808277               0.000667930              -0.001330677               0.002712962               0.001382285               0.000000000               0.000000000               0.000000000               0.000000000              -0.001063945               0.006297750               0.000599990              -0.001186195               0.002494627               0.001308432               0.000000000               0.000000000               0.000000000               0.000000000              -0.000839203               0.005844850               0.000523583              -0.001045305               0.002296699               0.001251394               0.000000000               0.000000000               0.000000000               0.000000000              -0.000619185               0.005454408               0.000430042              -0.000913993               0.002122782               0.001208789               0.000000000               0.000000000               0.000000000               0.000000000              -0.000415303               0.005136694               0.000323224              -0.000797823               0.001978155               0.001180332               0.000000000               0.000000000               0.000000000               0.000000000              -0.000241507               0.004897162               0.000212107              -0.000702709               0.001866607               0.001163899               0.000000000               0.000000000               0.000000000               0.000000000              -0.000108786               0.004742779               0.000103425              -0.000633640               0.001792124               0.001158484               0.000000000               0.000000000               0.000000000               0.000000000              -0.000060102               0.004680589               0.000054845              -0.000607610               0.001762717               0.001155107               0.000000000               0.000000000               0.000000000               0.000000000               0.001676298               0.011644232              -0.004032675              -0.000826919               0.004157010               0.003330092               0.000000000               0.000000000               0.000000000               0.000000000              -0.000446929               0.011059323              -0.002169688              -0.001550011               0.004203074               0.002653063               0.000000000               0.000000000               0.000000000               0.000000000              -0.002045974               0.011073328              -0.000431062              -0.002151401               0.004408206               0.002256805               0.000000000               0.000000000               0.000000000               0.000000000              -0.002508412               0.010468274               0.000116182              -0.002249183               0.004239118               0.001989935               0.000000000               0.000000000               0.000000000               0.000000000              -0.002538965               0.009742370               0.000300472              -0.002169903               0.003970725               0.001800822               0.000000000               0.000000000               0.000000000               0.000000000              -0.002392323               0.009031448               0.000364748              -0.002026047               0.003685802               0.001659754               0.000000000               0.000000000               0.000000000               0.000000000              -0.002167109               0.008359011               0.000389007              -0.001857538               0.003405488               0.001547951               0.000000000               0.000000000               0.000000000               0.000000000              -0.001909243               0.007728392               0.000394741              -0.001682011               0.003136775               0.001454764               0.000000000               0.000000000               0.000000000               0.000000000              -0.001631343               0.007141861               0.000378460              -0.001504483               0.002882091               0.001377608               0.000000000               0.000000000               0.000000000               0.000000000              -0.001343593               0.006605263               0.000344621              -0.001329502               0.002644899               0.001315397               0.000000000               0.000000000               0.000000000               0.000000000              -0.001056491               0.006131728               0.000309825              -0.001162647               0.002431438               0.001268791               0.000000000               0.000000000               0.000000000               0.000000000              -0.000780709               0.005731152               0.000269045              -0.001009157               0.002246751               0.001237593               0.000000000               0.000000000               0.000000000               0.000000000              -0.000535693               0.005403481               0.000214438              -0.000876318               0.002093248               0.001216930               0.000000000               0.000000000               0.000000000               0.000000000              -0.000333977               0.005153234               0.000151342              -0.000769394               0.001974192               0.001204798               0.000000000               0.000000000               0.000000000               0.000000000              -0.000179606               0.004982058               0.000087113              -0.000690108               0.001890705               0.001200598               0.000000000               0.000000000               0.000000000               0.000000000              -0.000073608               0.004886302               0.000035550              -0.000638389               0.001841547               0.001203158               0.000000000               0.000000000               0.000000000               0.000000000              -0.000037132               0.004854390               0.000016767              -0.000620722               0.001825021               0.001204299               0.000000000               0.000000000               0.000000000               0.000000000               0.000675551               0.008975948              -0.003308942              -0.000868663               0.003281506               0.002412843               0.000000000               0.000000000               0.000000000               0.000000000              -0.001386697               0.009490275              -0.002053712              -0.001706293               0.003732157               0.002025864               0.000000000               0.000000000               0.000000000               0.000000000              -0.002975706               0.010261570              -0.000842804              -0.002398580               0.004220016               0.001821436               0.000000000               0.000000000               0.000000000               0.000000000              -0.003198314               0.009901794              -0.000413740              -0.002437086               0.004112927               0.001675841               0.000000000               0.000000000               0.000000000               0.000000000              -0.002998743               0.009290048              -0.000217683              -0.002285779               0.003858578               0.001572799               0.000000000               0.000000000               0.000000000               0.000000000              -0.002673061               0.008633726              -0.000110943              -0.002081608               0.003571749               0.001490141               0.000000000               0.000000000               0.000000000               0.000000000              -0.002313158               0.007986117              -0.000043756              -0.001865694               0.003283910               0.001418216               0.000000000               0.000000000               0.000000000               0.000000000              -0.001945262               0.007374952               0.000005159              -0.001651338               0.003008739               0.001357401               0.000000000               0.000000000               0.000000000               0.000000000              -0.001573637               0.006816305               0.000034428              -0.001442148               0.002752795               0.001310647               0.000000000               0.000000000               0.000000000               0.000000000              -0.001211129               0.006320255               0.000046788              -0.001244202               0.002521464               0.001277262               0.000000000               0.000000000               0.000000000               0.000000000              -0.000876854               0.005901260               0.000059558              -0.001066475               0.002322559               0.001256084               0.000000000               0.000000000               0.000000000               0.000000000              -0.000586790               0.005561135               0.000065551              -0.000915186               0.002158755               0.001243569               0.000000000               0.000000000               0.000000000               0.000000000              -0.000356933               0.005298688               0.000053826              -0.000796184               0.002031606               0.001235422               0.000000000               0.000000000               0.000000000               0.000000000              -0.000190534               0.005114508               0.000032896              -0.000710762               0.001941739               0.001230978               0.000000000               0.000000000               0.000000000               0.000000000              -0.000084267               0.005006524               0.000011607              -0.000657414               0.001887963               0.001230548               0.000000000               0.000000000               0.000000000               0.000000000              -0.000027496               0.004961257              -0.000000724              -0.000630466               0.001863891               0.001233425               0.000000000               0.000000000               0.000000000               0.000000000              -0.000012020               0.004951201              -0.000002350              -0.000623406               0.001858186               0.001234780               0.000000000               0.000000000               0.000000000               0.000000000              -0.000528518               0.006718040              -0.002415870              -0.001037948               0.002585306               0.001547358               0.000000000               0.000000000               0.000000000               0.000000000              -0.002307651               0.008080814              -0.001916369              -0.001875467               0.003318733               0.001443266               0.000000000               0.000000000               0.000000000               0.000000000              -0.003696715               0.009443345              -0.001327824              -0.002566680               0.004003310               0.001436630               0.000000000               0.000000000               0.000000000               0.000000000              -0.003661545               0.009345360              -0.000973858              -0.002541243               0.003962170               0.001420927               0.000000000               0.000000000               0.000000000               0.000000000              -0.003274472               0.008872860              -0.000743191              -0.002337029               0.003736600               0.001399571               0.000000000               0.000000000               0.000000000               0.000000000              -0.002808687               0.008291004              -0.000584188              -0.002089628               0.003460183               0.001370555               0.000000000               0.000000000               0.000000000               0.000000000              -0.002340443               0.007697527              -0.000465869              -0.001839852               0.003179101               0.001339248               0.000000000               0.000000000               0.000000000               0.000000000              -0.001886586               0.007133681              -0.000367148              -0.001599176               0.002910929               0.001311752               0.000000000               0.000000000               0.000000000               0.000000000              -0.001442635               0.006613645              -0.000286579              -0.001367690               0.002660423               0.001292733               0.000000000               0.000000000               0.000000000               0.000000000              -0.001024773               0.006158367              -0.000218181              -0.001154083               0.002437463               0.001283380               0.000000000               0.000000000               0.000000000               0.000000000              -0.000661475               0.005784339              -0.000152492              -0.000971093               0.002251791               0.001280698               0.000000000               0.000000000               0.000000000               0.000000000              -0.000376192               0.005481791              -0.000097088              -0.000826294               0.002102677               0.001276383               0.000000000               0.000000000               0.000000000               0.000000000              -0.000176513               0.005249724              -0.000060054              -0.000722406               0.001990692               0.001268286               0.000000000               0.000000000               0.000000000               0.000000000              -0.000050896               0.005097861              -0.000035866              -0.000656317               0.001918042               0.001261726               0.000000000               0.000000000               0.000000000               0.000000000               0.000013678               0.005021253              -0.000018874              -0.000622526               0.001881243               0.001258717               0.000000000               0.000000000               0.000000000               0.000000000               0.000028812               0.004994980              -0.000006871              -0.000613566               0.001869499               0.001255932               0.000000000               0.000000000               0.000000000               0.000000000               0.000024648               0.004992405              -0.000001856              -0.000614806               0.001869054               0.001254248               0.000000000               0.000000000               0.000000000               0.000000000              -0.001934355               0.004615565              -0.001471450              -0.001302326               0.001972614               0.000670288               0.000000000               0.000000000               0.000000000               0.000000000              -0.003079335               0.006446510              -0.001759308              -0.001960560               0.002802335               0.000841775               0.000000000               0.000000000               0.000000000               0.000000000              -0.004118237               0.008234752              -0.001834611              -0.002573677               0.003602782               0.001029105               0.000000000               0.000000000               0.000000000               0.000000000              -0.003942937               0.008528941              -0.001569442              -0.002544713               0.003691189               0.001146476               0.000000000               0.000000000               0.000000000               0.000000000              -0.003482541               0.008321976              -0.001305757              -0.002346194               0.003556029               0.001209835               0.000000000               0.000000000               0.000000000               0.000000000              -0.002966196               0.007936805              -0.001092864              -0.002104419               0.003347048               0.001242629               0.000000000               0.000000000               0.000000000               0.000000000              -0.002459065               0.007489316              -0.000919599              -0.001858309               0.003115850               0.001257541               0.000000000               0.000000000               0.000000000               0.000000000              -0.001977899               0.007038286              -0.000776760              -0.001621494               0.002886570               0.001265076               0.000000000               0.000000000               0.000000000               0.000000000              -0.001516107               0.006615438              -0.000651524              -0.001395467               0.002670280               0.001274813               0.000000000               0.000000000               0.000000000               0.000000000              -0.001079140               0.006230045              -0.000530022              -0.001183430               0.002471138               0.001287707               0.000000000               0.000000000               0.000000000               0.000000000              -0.000691061               0.005890454              -0.000411794              -0.000995452               0.002295282               0.001299830               0.000000000               0.000000000               0.000000000               0.000000000              -0.000376832               0.005604829              -0.000301206              -0.000841913               0.002148896               0.001306982               0.000000000               0.000000000               0.000000000               0.000000000              -0.000150001               0.005370188              -0.000205821              -0.000727522               0.002032552               0.001305030               0.000000000               0.000000000               0.000000000               0.000000000              -0.000006533               0.005195200              -0.000128207              -0.000651848               0.001948999               0.001297150               0.000000000               0.000000000               0.000000000               0.000000000               0.000065930               0.005079238              -0.000065297              -0.000610180               0.001896456               0.001286276               0.000000000               0.000000000               0.000000000               0.000000000               0.000085227               0.005020605              -0.000021170              -0.000595614               0.001872056               0.001276442               0.000000000               0.000000000               0.000000000               0.000000000               0.000080930               0.005007516              -0.000003871              -0.000595589               0.001867685               0.001272096               0.000000000               0.000000000               0.000000000               0.000000000              -0.003723026               0.002714153              -0.000542418              -0.001735400               0.001483174              -0.000252226               0.000000000               0.000000000               0.000000000               0.000000000              -0.003945888               0.004802359              -0.001530289              -0.002079998               0.002294102               0.000214104               0.000000000               0.000000000               0.000000000               0.000000000              -0.004443598               0.006816967              -0.002236801              -0.002518464               0.003111787               0.000593323               0.000000000               0.000000000               0.000000000               0.000000000              -0.004144154               0.007480777              -0.002133210              -0.002489149               0.003323283               0.000834134               0.000000000               0.000000000               0.000000000               0.000000000              -0.003642546               0.007588514              -0.001877291              -0.002314514               0.003300983               0.000986470               0.000000000               0.000000000               0.000000000               0.000000000              -0.003105690               0.007446754              -0.001631476              -0.002095473               0.003180717               0.001085244               0.000000000               0.000000000               0.000000000               0.000000000              -0.002580388               0.007185364              -0.001416886              -0.001865812               0.003017034               0.001151223               0.000000000               0.000000000               0.000000000               0.000000000              -0.002079683               0.006890386              -0.001233625              -0.001641176               0.002843831               0.001202655               0.000000000               0.000000000               0.000000000               0.000000000              -0.001610744               0.006591918              -0.001070143              -0.001428015               0.002673289               0.001245274               0.000000000               0.000000000               0.000000000               0.000000000              -0.001164954               0.006293584              -0.000913720              -0.001223553               0.002505691               0.001282138               0.000000000               0.000000000               0.000000000               0.000000000              -0.000750217               0.006004643              -0.000755720              -0.001031909               0.002345497               0.001313588               0.000000000               0.000000000               0.000000000               0.000000000              -0.000390107               0.005743507              -0.000596439              -0.000864226               0.002202558               0.001338332               0.000000000               0.000000000               0.000000000               0.000000000              -0.000109811               0.005512626              -0.000442579              -0.000730256               0.002080942               0.001350687               0.000000000               0.000000000               0.000000000               0.000000000               0.000082308               0.005314586              -0.000301759              -0.000633456               0.001982663               0.001349207               0.000000000               0.000000000               0.000000000               0.000000000               0.000186184               0.005154026              -0.000175282              -0.000574433               0.001909469               0.001335036               0.000000000               0.000000000               0.000000000               0.000000000               0.000216993               0.005052356              -0.000073152              -0.000550171               0.001867492               0.001317322               0.000000000               0.000000000               0.000000000               0.000000000               0.000206947               0.005013860              -0.000026952              -0.000549126               0.001854312               0.001305186               0.000000000               0.000000000               0.000000000               0.000000000              -0.005781985               0.001169730               0.000284797              -0.002314458               0.001161388              -0.001153070               0.000000000               0.000000000               0.000000000               0.000000000              -0.004960312               0.003254571              -0.001211686              -0.002266934               0.001840489              -0.000426445               0.000000000               0.000000000               0.000000000               0.000000000              -0.004713700               0.005208721              -0.002415518              -0.002418722               0.002542463               0.000123740               0.000000000               0.000000000               0.000000000               0.000000000              -0.004206566               0.006124133              -0.002515260              -0.002342974               0.002822348               0.000479374               0.000000000               0.000000000               0.000000000               0.000000000              -0.003643132               0.006518959              -0.002326243              -0.002181040               0.002899977               0.000718937               0.000000000               0.000000000               0.000000000               0.000000000              -0.003088906               0.006629486              -0.002085634              -0.001987021               0.002872146               0.000885125               0.000000000               0.000000000               0.000000000               0.000000000              -0.002558791               0.006589526              -0.001853889              -0.001783233               0.002790897               0.001007664               0.000000000               0.000000000               0.000000000               0.000000000              -0.002055108               0.006481332              -0.001646785              -0.001580828               0.002687365               0.001106536               0.000000000               0.000000000               0.000000000               0.000000000              -0.001577592               0.006336457              -0.001463114              -0.001383651               0.002573348               0.001189697               0.000000000               0.000000000               0.000000000               0.000000000              -0.001124709               0.006160921              -0.001288729              -0.001191878               0.002450912               0.001259034               0.000000000               0.000000000               0.000000000               0.000000000              -0.000698594               0.005962032              -0.001110762              -0.001007225               0.002323065               0.001315841               0.000000000               0.000000000               0.000000000               0.000000000              -0.000307735               0.005756214              -0.000922955              -0.000834926               0.002197027               0.001362102               0.000000000               0.000000000               0.000000000               0.000000000               0.000024341               0.005552260              -0.000730182              -0.000684903               0.002079036               0.001394133               0.000000000               0.000000000               0.000000000               0.000000000               0.000277215               0.005359800              -0.000537420              -0.000566018               0.001975255               0.001409237               0.000000000               0.000000000               0.000000000               0.000000000               0.000438399               0.005195116              -0.000344522              -0.000484989               0.001893351               0.001408362               0.000000000               0.000000000               0.000000000               0.000000000               0.000501351               0.005077791              -0.000163250              -0.000446716               0.001841485               0.001394769               0.000000000               0.000000000               0.000000000               0.000000000               0.000492868               0.005024442              -0.000073839              -0.000443229               0.001822540               0.001379311               0.000000000               0.000000000               0.000000000               0.000000000              -0.007964614               0.000058464               0.000884507              -0.002994036               0.001017493              -0.001976543               0.000000000               0.000000000               0.000000000               0.000000000              -0.006068448               0.001886786              -0.000850993              -0.002511513               0.001466089              -0.001045423               0.000000000               0.000000000               0.000000000               0.000000000              -0.004956439               0.003549939              -0.002337561              -0.002302403               0.001950767              -0.000351636               0.000000000               0.000000000               0.000000000               0.000000000              -0.004152602               0.004581479              -0.002624214              -0.002129906               0.002237112               0.000107205               0.000000000               0.000000000               0.000000000               0.000000000              -0.003491082               0.005196148              -0.002537671              -0.001958670               0.002384921               0.000426251               0.000000000               0.000000000               0.000000000               0.000000000              -0.002913989               0.005543675              -0.002341923              -0.001785702               0.002443106               0.000657405               0.000000000               0.000000000               0.000000000               0.000000000              -0.002385214               0.005734560              -0.002123959              -0.001611272               0.002448591               0.000837319               0.000000000               0.000000000               0.000000000               0.000000000              -0.001887398               0.005825264              -0.001918194              -0.001435929               0.002420378               0.000984448               0.000000000               0.000000000               0.000000000               0.000000000              -0.001416160               0.005841146              -0.001733875              -0.001261201               0.002367429               0.001106228               0.000000000               0.000000000               0.000000000               0.000000000              -0.000964710               0.005802892              -0.001558214              -0.001087126               0.002296653               0.001209527               0.000000000               0.000000000               0.000000000               0.000000000              -0.000528968               0.005722089              -0.001379739              -0.000913623               0.002211885               0.001298262               0.000000000               0.000000000               0.000000000               0.000000000              -0.000112727               0.005607128              -0.001190377              -0.000743162               0.002116744               0.001373582               0.000000000               0.000000000               0.000000000               0.000000000               0.000272280               0.005471003              -0.000987933              -0.000581769               0.002017572               0.001435803               0.000000000               0.000000000               0.000000000               0.000000000               0.000603477               0.005328186              -0.000770278              -0.000439718               0.001922617               0.001482898               0.000000000               0.000000000               0.000000000               0.000000000               0.000858214               0.005198995              -0.000529565              -0.000328043               0.001842329               0.001514285               0.000000000               0.000000000               0.000000000               0.000000000               0.001009337               0.005092950              -0.000269028              -0.000258117               0.001783672               0.001525555               0.000000000               0.000000000               0.000000000               0.000000000               0.001050206               0.005042247              -0.000135134              -0.000236453               0.001759550               0.001523097               0.000000000               0.000000000               0.000000000               0.000000000              -0.010053819              -0.000641124               0.001151615              -0.003690039               0.001016298              -0.002673741               0.000000000               0.000000000               0.000000000               0.000000000              -0.007172185               0.000779246              -0.000515111              -0.002786972               0.001188731              -0.001598241               0.000000000               0.000000000               0.000000000               0.000000000              -0.005180694               0.002011619              -0.002005485              -0.002194210               0.001401932              -0.000792277               0.000000000               0.000000000               0.000000000               0.000000000              -0.004022826               0.003037246              -0.002399061              -0.001888212               0.001641807              -0.000246405               0.000000000               0.000000000               0.000000000               0.000000000              -0.003231214               0.003793094              -0.002407142              -0.001685839               0.001826297               0.000140458               0.000000000               0.000000000               0.000000000               0.000000000              -0.002615586               0.004333181              -0.002280709              -0.001522490               0.001951875               0.000429385               0.000000000               0.000000000               0.000000000               0.000000000              -0.002081527               0.004715985              -0.002111047              -0.001370068               0.002028668               0.000658600               0.000000000               0.000000000               0.000000000               0.000000000              -0.001594350               0.004979828              -0.001934435              -0.001220358               0.002066711               0.000846354               0.000000000               0.000000000               0.000000000               0.000000000              -0.001140083               0.005153840              -0.001767857              -0.001071759               0.002075182               0.001003423               0.000000000               0.000000000               0.000000000               0.000000000              -0.000699535               0.005262683              -0.001612825              -0.000920159               0.002060929               0.001140770               0.000000000               0.000000000               0.000000000               0.000000000              -0.000257900               0.005317254              -0.001458360              -0.000761368               0.002026189               0.001264821               0.000000000               0.000000000               0.000000000               0.000000000               0.000182772               0.005324122              -0.001292466              -0.000596975               0.001973681               0.001376706               0.000000000               0.000000000               0.000000000               0.000000000               0.000618228               0.005294669              -0.001110301              -0.000429998               0.001908204               0.001478207               0.000000000               0.000000000               0.000000000               0.000000000               0.001036257               0.005238167              -0.000902781              -0.000266174               0.001834763               0.001568588               0.000000000               0.000000000               0.000000000               0.000000000               0.001417278               0.005161596              -0.000652137              -0.000113720               0.001758422               0.001644701               0.000000000               0.000000000               0.000000000               0.000000000               0.001736149               0.005081470              -0.000349401               0.000015871               0.001688516               0.001704387               0.000000000               0.000000000               0.000000000               0.000000000               0.001910602               0.005056662              -0.000192273               0.000084392               0.001657406               0.001741798               0.000000000               0.000000000               0.000000000               0.000000000              -0.011801139              -0.001012271               0.001049561              -0.004298891               0.001095532              -0.003203358               0.000000000               0.000000000               0.000000000               0.000000000              -0.008124552              -0.000020657              -0.000258369              -0.003044122               0.001007815              -0.002036308               0.000000000               0.000000000               0.000000000               0.000000000              -0.005375288               0.000764664              -0.001461098              -0.002111314               0.000958652              -0.001152662               0.000000000               0.000000000               0.000000000               0.000000000              -0.003880240               0.001709307              -0.001832207              -0.001668751               0.001126011              -0.000542740               0.000000000               0.000000000               0.000000000               0.000000000              -0.002944782               0.002532065              -0.001889085              -0.001420799               0.001317611              -0.000103187               0.000000000               0.000000000               0.000000000               0.000000000              -0.002271494               0.003195672              -0.001829077              -0.001251267               0.001482301               0.000231034               0.000000000               0.000000000               0.000000000               0.000000000              -0.001726923               0.003713513              -0.001722194              -0.001111783               0.001608419               0.000496636               0.000000000               0.000000000               0.000000000               0.000000000              -0.001249681               0.004112219              -0.001597052              -0.000982656               0.001698277               0.000715621               0.000000000               0.000000000               0.000000000               0.000000000              -0.000805479               0.004423766              -0.001475088              -0.000855024               0.001759581               0.000904557               0.000000000               0.000000000               0.000000000               0.000000000              -0.000369460               0.004669954              -0.001364931              -0.000722291               0.001797399               0.001075108               0.000000000               0.000000000               0.000000000               0.000000000               0.000072018               0.004851233              -0.001254077              -0.000579397               0.001810194               0.001230797               0.000000000               0.000000000               0.000000000               0.000000000               0.000529187               0.004978749              -0.001131211              -0.000423898               0.001800866               0.001376967               0.000000000               0.000000000               0.000000000               0.000000000               0.001009618               0.005062863              -0.000992801              -0.000254251               0.001772354               0.001518103               0.000000000               0.000000000               0.000000000               0.000000000               0.001512355               0.005099218              -0.000828563              -0.000070270               0.001723145               0.001652876               0.000000000               0.000000000               0.000000000               0.000000000               0.002035662               0.005087167              -0.000620267               0.000127476               0.001653213               0.001780689               0.000000000               0.000000000               0.000000000               0.000000000               0.002576976               0.005048106              -0.000345304               0.000335349               0.001570902               0.001906251               0.000000000               0.000000000               0.000000000               0.000000000               0.002952719               0.005063599              -0.000201884               0.000474315               0.001529745               0.002004059               0.000000000               0.000000000               0.000000000               0.000000000              -0.012971932              -0.001168330               0.000622495              -0.004718430               0.001183359              -0.003535071               0.000000000               0.000000000               0.000000000               0.000000000              -0.008774692              -0.000496934              -0.000096529              -0.003228390               0.000910479              -0.002317911               0.000000000               0.000000000               0.000000000               0.000000000              -0.005515217              -0.000045992              -0.000768478              -0.002062456               0.000672150              -0.001390306               0.000000000               0.000000000               0.000000000               0.000000000              -0.003776337               0.000809512              -0.000991818              -0.001517313               0.000775603              -0.000741711               0.000000000               0.000000000               0.000000000               0.000000000              -0.002720037               0.001647958              -0.001041016              -0.001226007               0.000957981              -0.000268025               0.000000000               0.000000000               0.000000000               0.000000000              -0.001997717               0.002373426              -0.001022182              -0.001045820               0.001139740               0.000093920               0.000000000               0.000000000               0.000000000               0.000000000              -0.001446256               0.002975643              -0.000971935              -0.000914299               0.001296637               0.000382338               0.000000000               0.000000000               0.000000000               0.000000000              -0.000972611               0.003466281              -0.000909462              -0.000798013               0.001421419               0.000623407               0.000000000               0.000000000               0.000000000               0.000000000              -0.000527384               0.003869534              -0.000848704              -0.000681460               0.001516985               0.000835525               0.000000000               0.000000000               0.000000000               0.000000000              -0.000089772               0.004201915              -0.000793943              -0.000558903               0.001586925               0.001028022               0.000000000               0.000000000               0.000000000               0.000000000               0.000352730               0.004466732              -0.000736433              -0.000426067               0.001630918               0.001204851               0.000000000               0.000000000               0.000000000               0.000000000               0.000824122               0.004680476              -0.000670234              -0.000276014               0.001652148               0.001376134               0.000000000               0.000000000               0.000000000               0.000000000               0.001339083               0.004842620              -0.000594680              -0.000103171               0.001648581               0.001545409               0.000000000               0.000000000               0.000000000               0.000000000               0.001909457               0.004948046              -0.000503864               0.000097539               0.001616819               0.001714359               0.000000000               0.000000000               0.000000000               0.000000000               0.002551573               0.005002112              -0.000385763               0.000331572               0.001556830               0.001888402               0.000000000               0.000000000               0.000000000               0.000000000               0.003288168               0.005012254              -0.000219767               0.000606525               0.001468559               0.002075085               0.000000000               0.000000000               0.000000000               0.000000000               0.003854061               0.005068137              -0.000132816               0.000811748               0.001418780               0.002230527               0.000000000               0.000000000               0.000000000               0.000000000              -0.013385794              -0.001208161              -0.000000000              -0.004868650               0.001220155              -0.003648495               0.000000000               0.000000000               0.000000000               0.000000000              -0.009006371              -0.000653369              -0.000000000              -0.003295716               0.000880776              -0.002414940               0.000000000               0.000000000               0.000000000               0.000000000              -0.005567228              -0.000324687               0.000000000              -0.002047123               0.000574141              -0.001472982               0.000000000               0.000000000               0.000000000               0.000000000              -0.003737627               0.000491692               0.000000000              -0.001463070               0.000651583              -0.000811487               0.000000000               0.000000000               0.000000000               0.000000000              -0.002632432               0.001329974              -0.000000000              -0.001153407               0.000827788              -0.000325619               0.000000000               0.000000000               0.000000000               0.000000000              -0.001894823               0.002073642              -0.000000000              -0.000969762               0.001014461               0.000044699               0.000000000               0.000000000               0.000000000               0.000000000              -0.001340678               0.002705620               0.000000000              -0.000840955               0.001182183               0.000341228               0.000000000               0.000000000               0.000000000               0.000000000              -0.000867026               0.003230048              -0.000000000              -0.000728889               0.001319635               0.000590746               0.000000000               0.000000000               0.000000000               0.000000000              -0.000420748               0.003662975              -0.000000000              -0.000615651               0.001426197               0.000810545               0.000000000               0.000000000               0.000000000               0.000000000               0.000017932               0.004022157              -0.000000000              -0.000496044               0.001506053               0.001010009               0.000000000               0.000000000               0.000000000               0.000000000               0.000462939               0.004313642               0.000000000              -0.000365602               0.001559734               0.001194131               0.000000000               0.000000000               0.000000000               0.000000000               0.000941291               0.004554195               0.000000000              -0.000216290               0.001590147               0.001373857               0.000000000               0.000000000               0.000000000               0.000000000               0.001472264               0.004745760              -0.000000000              -0.000041121               0.001595611               0.001554490               0.000000000               0.000000000               0.000000000               0.000000000               0.002070264               0.004883037              -0.000000000               0.000165968               0.001572340               0.001738308               0.000000000               0.000000000               0.000000000               0.000000000               0.002758296               0.004966839              -0.000000000               0.000413502               0.001517763               0.001931265               0.000000000               0.000000000               0.000000000               0.000000000               0.003570572               0.004995804               0.000000000               0.000714482               0.001427091               0.002141573               0.000000000               0.000000000               0.000000000               0.000000000               0.004213786               0.005067047               0.000000000               0.000946779               0.001373406               0.002320185               0.000000000               0.000000000               0.000000000               0.000000000               0.000000000               0.000000000               0.000000000               0.000000000               0.000000000               0.000000000               0.000000000               0.000000000               0.000000000               0.000000000               0.000000000               0.000000000               0.000000000               0.000000000               0.000000000               0.000000000               0.000000000               0.000000000               0.000000000               0.000000000               0.000000000               0.000000000               0.000000000               0.000000000               0.000000000               0.000000000               0.000000000               0.000000000               0.000000000               0.000000000               0.000000000               0.000000000               0.000000000               0.000000000               0.000000000               0.000000000               0.000000000               0.000000000               0.000000000               0.000000000               0.000000000               0.000000000               0.000000000               0.000000000               0.000000000               0.000000000               0.000000000               0.000000000               0.000000000               0.000000000               0.000000000               0.000000000               0.000000000               0.000000000               0.000000000               0.000000000               0.000000000               0.000000000               0.000000000               0.000000000               0.000000000               0.000000000               0.000000000               0.000000000               0.000000000               0.000000000               0.000000000               0.000000000               0.000000000               0.000000000               0.000000000               0.000000000               0.000000000               0.000000000               0.000000000               0.000000000               0.000000000               0.000000000               0.000000000               0.000000000               0.000000000               0.000000000               0.000000000               0.000000000               0.000000000               0.000000000               0.000000000               0.000000000               0.000000000               0.000000000               0.000000000               0.000000000               0.000000000               0.000000000               0.000000000               0.000000000               0.000000000               0.000000000               0.000000000               0.000000000               0.000000000               0.000000000               0.000000000               0.000000000               0.000000000               0.000000000               0.000000000               0.000000000               0.000000000               0.000000000               0.000000000               0.000000000               0.000000000               0.000000000               0.000000000               0.000000000               0.000000000               0.000000000               0.000000000               0.000000000               0.000000000               0.000000000               0.000000000               0.000000000               0.000000000               0.000000000               0.000000000               0.000000000               0.000000000               0.000000000               0.000000000               0.000000000               0.000000000               0.000000000               0.000000000               0.000000000               0.000000000               0.000000000               0.000000000               0.000000000               0.000000000               0.000000000               0.000000000               0.000000000               0.000000000               0.000000000               0.000000000               0.000000000               0.000000000               0.000000000               0.000000000               0.000000000               0.000000000               0.000000000               0.000000000               0.000000000               0.000000000               0.000000000               0.000000000               0.000000000               0.000000000               0.000000000               0.000000000               0.000000000               0.000000000               0.000000000               0.000000000               0.000000000               0.000000000               0.000000000               0.002328636               0.023797613               0.001636112              -0.002101458               0.008632944               0.006531486               0.000000000               0.000000000               0.000000000               0.000000000               0.002130138               0.018485979               0.000778651              -0.001511942               0.006665912               0.005153970               0.000000000               0.000000000               0.000000000               0.000000000               0.002634964               0.014203782              -0.000067754              -0.000787359               0.004997000               0.004209641               0.000000000               0.000000000               0.000000000               0.000000000               0.002405250               0.011765739              -0.000419687              -0.000568747               0.004111456               0.003542709               0.000000000               0.000000000               0.000000000               0.000000000               0.001981891               0.010210114              -0.000558941              -0.000533054               0.003581022               0.003047968               0.000000000               0.000000000               0.000000000               0.000000000               0.001538969               0.009114005              -0.000601649              -0.000562136               0.003225350               0.002663214               0.000000000               0.000000000               0.000000000               0.000000000               0.001133744               0.008275166              -0.000602355              -0.000609240               0.002961441               0.002352201               0.000000000               0.000000000               0.000000000               0.000000000               0.000784672               0.007587632              -0.000585683              -0.000654201               0.002747252               0.002093051               0.000000000               0.000000000               0.000000000               0.000000000               0.000494751               0.006995691              -0.000561507              -0.000688928               0.002561516               0.001872588               0.000000000               0.000000000               0.000000000               0.000000000               0.000255281               0.006452996              -0.000530818              -0.000710892               0.002387941               0.001677049               0.000000000               0.000000000               0.000000000               0.000000000               0.000069687               0.005929910              -0.000497379              -0.000715104               0.002214985               0.001499881               0.000000000               0.000000000               0.000000000               0.000000000              -0.000063192               0.005408228              -0.000460996              -0.000699724               0.002035966               0.001336242               0.000000000               0.000000000               0.000000000               0.000000000              -0.000147522               0.004870672              -0.000416015              -0.000664153               0.001844925               0.001180772               0.000000000               0.000000000               0.000000000               0.000000000              -0.000178111               0.004305582              -0.000358869              -0.000604988               0.001636842               0.001031854               0.000000000               0.000000000               0.000000000               0.000000000              -0.000157516               0.003695638              -0.000275851              -0.000521022               0.001405541               0.000884519               0.000000000               0.000000000               0.000000000               0.000000000              -0.000092770               0.003020253              -0.000155634              -0.000412320               0.001144181               0.000731861               0.000000000               0.000000000               0.000000000               0.000000000              -0.000105435               0.002509833              -0.000097442              -0.000353266               0.000954358               0.000601092               0.000000000               0.000000000               0.000000000               0.000000000               0.002505939               0.022349648               0.003037750              -0.001853975               0.008067800               0.006213824               0.000000000               0.000000000               0.000000000               0.000000000               0.001951117               0.017556328               0.001438942              -0.001462869               0.006339674               0.004876805               0.000000000               0.000000000               0.000000000               0.000000000               0.002078189               0.013821573              -0.000125511              -0.000948373               0.004923269               0.003974896               0.000000000               0.000000000               0.000000000               0.000000000               0.001713547               0.011666716              -0.000749891              -0.000815757               0.004160786               0.003345028               0.000000000               0.000000000               0.000000000               0.000000000               0.001270031               0.010254346              -0.000983310              -0.000805530               0.003686591               0.002881061               0.000000000               0.000000000               0.000000000               0.000000000               0.000862275               0.009232848              -0.001047648              -0.000830751               0.003354502               0.002523751               0.000000000               0.000000000               0.000000000               0.000000000               0.000516223               0.008429307              -0.001039563              -0.000860078               0.003096433               0.002236355               0.000000000               0.000000000               0.000000000               0.000000000               0.000236845               0.007755981              -0.001007296              -0.000880679               0.002878861               0.001998182               0.000000000               0.000000000               0.000000000               0.000000000               0.000025271               0.007166424              -0.000964804              -0.000886325               0.002684225               0.001797901               0.000000000               0.000000000               0.000000000               0.000000000              -0.000127897               0.006620763              -0.000909235              -0.000875555               0.002498750               0.001623196               0.000000000               0.000000000               0.000000000               0.000000000              -0.000227969               0.006096193              -0.000847377              -0.000847511               0.002314547               0.001467037               0.000000000               0.000000000               0.000000000               0.000000000              -0.000283235               0.005580215              -0.000778395              -0.000803738               0.002127966               0.001324228               0.000000000               0.000000000               0.000000000               0.000000000              -0.000294256               0.005065119              -0.000695676              -0.000743484               0.001936184               0.001192700               0.000000000               0.000000000               0.000000000               0.000000000              -0.000260290               0.004548527              -0.000591281              -0.000666173               0.001738218               0.001072045               0.000000000               0.000000000               0.000000000               0.000000000              -0.000191094               0.004028533              -0.000446450              -0.000575226               0.001534573               0.000959347               0.000000000               0.000000000               0.000000000               0.000000000              -0.000100219               0.003505955              -0.000248480              -0.000475825               0.001327248               0.000851423               0.000000000               0.000000000               0.000000000               0.000000000              -0.000090462               0.003142302              -0.000150870              -0.000426710               0.001189660               0.000762950               0.000000000               0.000000000               0.000000000               0.000000000               0.002663867               0.020140633               0.004019302              -0.001518628               0.007219686               0.005701058               0.000000000               0.000000000               0.000000000               0.000000000               0.001617651               0.016174789               0.001901286              -0.001415227               0.005863284               0.004448058               0.000000000               0.000000000               0.000000000               0.000000000               0.001224880               0.013259175              -0.000140382              -0.001198064               0.004819036               0.003620972               0.000000000               0.000000000               0.000000000               0.000000000               0.000704354               0.011499187              -0.000906038              -0.001173263               0.004224112               0.003050849               0.000000000               0.000000000               0.000000000               0.000000000               0.000262891               0.010282841              -0.001171871              -0.001186769               0.003823169               0.002636400               0.000000000               0.000000000               0.000000000               0.000000000              -0.000070322               0.009353058              -0.001233813              -0.001195500               0.003516155               0.002320654               0.000000000               0.000000000               0.000000000               0.000000000              -0.000308949               0.008593094              -0.001214277              -0.001189990               0.003260999               0.002071009               0.000000000               0.000000000               0.000000000               0.000000000              -0.000469613               0.007939514              -0.001169427              -0.001168541               0.003035992               0.001867450               0.000000000               0.000000000               0.000000000               0.000000000              -0.000562775               0.007347689              -0.001113153              -0.001129499               0.002825705               0.001696206               0.000000000               0.000000000               0.000000000               0.000000000              -0.000601868               0.006793055              -0.001041065              -0.001074830               0.002622606               0.001547776               0.000000000               0.000000000               0.000000000               0.000000000              -0.000597377               0.006264630              -0.000960919              -0.001007093               0.002423887               0.001416794               0.000000000               0.000000000               0.000000000               0.000000000              -0.000549483               0.005761657              -0.000871693              -0.000926261               0.002229287               0.001303025               0.000000000               0.000000000               0.000000000               0.000000000              -0.000465250               0.005282524              -0.000763562              -0.000834782               0.002039084               0.001204302               0.000000000               0.000000000               0.000000000               0.000000000              -0.000355722               0.004829631              -0.000632566              -0.000737098               0.001855560               0.001118462               0.000000000               0.000000000               0.000000000               0.000000000              -0.000231788               0.004416852              -0.000464436              -0.000639025               0.001685278               0.001046252               0.000000000               0.000000000               0.000000000               0.000000000              -0.000111594               0.004061963              -0.000249764              -0.000549592               0.001537171               0.000987580               0.000000000               0.000000000               0.000000000               0.000000000              -0.000077069               0.003851138              -0.000143373              -0.000510292               0.001453797               0.000943505               0.000000000               0.000000000               0.000000000               0.000000000               0.002659793               0.017439308               0.004486759              -0.001182491               0.006207207               0.005024716               0.000000000               0.000000000               0.000000000               0.000000000               0.001101726               0.014520483               0.002147696              -0.001401911               0.005307416               0.003905505               0.000000000               0.000000000               0.000000000               0.000000000               0.000166956               0.012586092              -0.000067972              -0.001510649               0.004698872               0.003188223               0.000000000               0.000000000               0.000000000               0.000000000              -0.000446512               0.011255317              -0.000841099              -0.001574353               0.004276519               0.002702166               0.000000000               0.000000000               0.000000000               0.000000000              -0.000819842               0.010234743              -0.001086504              -0.001586780               0.003940473               0.002353694               0.000000000               0.000000000               0.000000000               0.000000000              -0.001028927               0.009394326              -0.001134085              -0.001560135               0.003651455               0.002091321               0.000000000               0.000000000               0.000000000               0.000000000              -0.001123301               0.008673826              -0.001111129              -0.001505463               0.003393067               0.001887605               0.000000000               0.000000000               0.000000000               0.000000000              -0.001143391               0.008029103              -0.001063894              -0.001432406               0.003153810               0.001721403               0.000000000               0.000000000               0.000000000               0.000000000              -0.001104859               0.007433776              -0.001005275              -0.001343541               0.002925747               0.001582206               0.000000000               0.000000000               0.000000000               0.000000000              -0.001018582               0.006872427              -0.000932326              -0.001241019               0.002704459               0.001463440               0.000000000               0.000000000               0.000000000               0.000000000              -0.000897469               0.006347172              -0.000851128              -0.001129945               0.002492351               0.001362406               0.000000000               0.000000000               0.000000000               0.000000000              -0.000750330               0.005862575              -0.000759199              -0.001014193               0.002292236               0.001278043               0.000000000               0.000000000               0.000000000               0.000000000              -0.000587117               0.005424102              -0.000645411              -0.000898180               0.002107409               0.001209229               0.000000000               0.000000000               0.000000000               0.000000000              -0.000417746               0.005038581              -0.000512180              -0.000786475               0.001941669               0.001155193               0.000000000               0.000000000               0.000000000               0.000000000              -0.000257169               0.004719223              -0.000359432              -0.000686340               0.001801838               0.001115499               0.000000000               0.000000000               0.000000000               0.000000000              -0.000121759               0.004487387              -0.000185550              -0.000606581               0.001697974               0.001091393               0.000000000               0.000000000               0.000000000               0.000000000              -0.000073578               0.004375651              -0.000101616              -0.000574547               0.001650051               0.001075504               0.000000000               0.000000000               0.000000000               0.000000000               0.002351285               0.014527386               0.004460588              -0.000934193               0.005153810               0.004219617               0.000000000               0.000000000               0.000000000               0.000000000               0.000401768               0.012768324               0.002217287              -0.001445375               0.004737857               0.003292481               0.000000000               0.000000000               0.000000000               0.000000000              -0.000963085               0.011848933               0.000121402              -0.001842269               0.004563695               0.002721426               0.000000000               0.000000000               0.000000000               0.000000000              -0.001564332               0.010918829              -0.000559496              -0.001951473               0.004290064               0.002338591               0.000000000               0.000000000               0.000000000               0.000000000              -0.001794310               0.010062830              -0.000766370              -0.001930715               0.003997815               0.002067099               0.000000000               0.000000000               0.000000000               0.000000000              -0.001833282               0.009293690              -0.000810665              -0.001849188               0.003714262               0.001865074               0.000000000               0.000000000               0.000000000               0.000000000              -0.001769423               0.008597213              -0.000800817              -0.001738181               0.003445103               0.001706922               0.000000000               0.000000000               0.000000000               0.000000000              -0.001644257               0.007959368              -0.000773264              -0.001611514               0.003190267               0.001578754               0.000000000               0.000000000               0.000000000               0.000000000              -0.001474775               0.007366261              -0.000729388              -0.001473820               0.002946669               0.001472849               0.000000000               0.000000000               0.000000000               0.000000000              -0.001279056               0.006808277              -0.000667930              -0.001330677               0.002712962               0.001382285               0.000000000               0.000000000               0.000000000               0.000000000              -0.001063945               0.006297750              -0.000599990              -0.001186195               0.002494627               0.001308432               0.000000000               0.000000000               0.000000000               0.000000000              -0.000839203               0.005844850              -0.000523583              -0.001045305               0.002296699               0.001251394               0.000000000               0.000000000               0.000000000               0.000000000              -0.000619185               0.005454408              -0.000430042              -0.000913993               0.002122782               0.001208789               0.000000000               0.000000000               0.000000000               0.000000000              -0.000415303               0.005136694              -0.000323224              -0.000797823               0.001978155               0.001180332               0.000000000               0.000000000               0.000000000               0.000000000              -0.000241507               0.004897162              -0.000212107              -0.000702709               0.001866607               0.001163899               0.000000000               0.000000000               0.000000000               0.000000000              -0.000108786               0.004742779              -0.000103425              -0.000633640               0.001792124               0.001158484               0.000000000               0.000000000               0.000000000               0.000000000              -0.000060102               0.004680589              -0.000054845              -0.000607610               0.001762717               0.001155107               0.000000000               0.000000000               0.000000000               0.000000000               0.001676298               0.011644232               0.004032675              -0.000826919               0.004157010               0.003330092               0.000000000               0.000000000               0.000000000               0.000000000              -0.000446929               0.011059323               0.002169688              -0.001550011               0.004203074               0.002653063               0.000000000               0.000000000               0.000000000               0.000000000              -0.002045974               0.011073328               0.000431062              -0.002151401               0.004408206               0.002256805               0.000000000               0.000000000               0.000000000               0.000000000              -0.002508412               0.010468274              -0.000116182              -0.002249183               0.004239118               0.001989935               0.000000000               0.000000000               0.000000000               0.000000000              -0.002538965               0.009742370              -0.000300472              -0.002169903               0.003970725               0.001800822               0.000000000               0.000000000               0.000000000               0.000000000              -0.002392323               0.009031448              -0.000364748              -0.002026047               0.003685802               0.001659754               0.000000000               0.000000000               0.000000000               0.000000000              -0.002167109               0.008359011              -0.000389007              -0.001857538               0.003405488               0.001547951               0.000000000               0.000000000               0.000000000               0.000000000              -0.001909243               0.007728392              -0.000394741              -0.001682011               0.003136775               0.001454764               0.000000000               0.000000000               0.000000000               0.000000000              -0.001631343               0.007141861              -0.000378460              -0.001504483               0.002882091               0.001377608               0.000000000               0.000000000               0.000000000               0.000000000              -0.001343593               0.006605263              -0.000344621              -0.001329502               0.002644899               0.001315397               0.000000000               0.000000000               0.000000000               0.000000000              -0.001056491               0.006131728              -0.000309825              -0.001162647               0.002431438               0.001268791               0.000000000               0.000000000               0.000000000               0.000000000              -0.000780709               0.005731152              -0.000269045              -0.001009157               0.002246751               0.001237593               0.000000000               0.000000000               0.000000000               0.000000000              -0.000535693               0.005403481              -0.000214438              -0.000876318               0.002093248               0.001216930               0.000000000               0.000000000               0.000000000               0.000000000              -0.000333977               0.005153234              -0.000151342              -0.000769394               0.001974192               0.001204798               0.000000000               0.000000000               0.000000000               0.000000000              -0.000179606               0.004982058              -0.000087113              -0.000690108               0.001890705               0.001200598               0.000000000               0.000000000               0.000000000               0.000000000              -0.000073608               0.004886302              -0.000035550              -0.000638389               0.001841547               0.001203158               0.000000000               0.000000000               0.000000000               0.000000000              -0.000037132               0.004854390              -0.000016767              -0.000620722               0.001825021               0.001204299               0.000000000               0.000000000               0.000000000               0.000000000               0.000675551               0.008975948               0.003308942              -0.000868663               0.003281506               0.002412843               0.000000000               0.000000000               0.000000000               0.000000000              -0.001386697               0.009490275               0.002053712              -0.001706293               0.003732157               0.002025864               0.000000000               0.000000000               0.000000000               0.000000000              -0.002975706               0.010261570               0.000842804              -0.002398580               0.004220016               0.001821436               0.000000000               0.000000000               0.000000000               0.000000000              -0.003198314               0.009901794               0.000413740              -0.002437086               0.004112927               0.001675841               0.000000000               0.000000000               0.000000000               0.000000000              -0.002998743               0.009290048               0.000217683              -0.002285779               0.003858578               0.001572799               0.000000000               0.000000000               0.000000000               0.000000000              -0.002673061               0.008633726               0.000110943              -0.002081608               0.003571749               0.001490141               0.000000000               0.000000000               0.000000000               0.000000000              -0.002313158               0.007986117               0.000043756              -0.001865694               0.003283910               0.001418216               0.000000000               0.000000000               0.000000000               0.000000000              -0.001945262               0.007374952              -0.000005159              -0.001651338               0.003008739               0.001357401               0.000000000               0.000000000               0.000000000               0.000000000              -0.001573637               0.006816305              -0.000034428              -0.001442148               0.002752795               0.001310647               0.000000000               0.000000000               0.000000000               0.000000000              -0.001211129               0.006320255              -0.000046788              -0.001244202               0.002521464               0.001277262               0.000000000               0.000000000               0.000000000               0.000000000              -0.000876854               0.005901260              -0.000059558              -0.001066475               0.002322559               0.001256084               0.000000000               0.000000000               0.000000000               0.000000000              -0.000586790               0.005561135              -0.000065551              -0.000915186               0.002158755               0.001243569               0.000000000               0.000000000               0.000000000               0.000000000              -0.000356933               0.005298688              -0.000053826              -0.000796184               0.002031606               0.001235422               0.000000000               0.000000000               0.000000000               0.000000000              -0.000190534               0.005114508              -0.000032896              -0.000710762               0.001941739               0.001230978               0.000000000               0.000000000               0.000000000               0.000000000              -0.000084267               0.005006524              -0.000011607              -0.000657414               0.001887963               0.001230548               0.000000000               0.000000000               0.000000000               0.000000000              -0.000027496               0.004961257               0.000000724              -0.000630466               0.001863891               0.001233425               0.000000000               0.000000000               0.000000000               0.000000000              -0.000012020               0.004951201               0.000002350              -0.000623406               0.001858186               0.001234780               0.000000000               0.000000000               0.000000000               0.000000000              -0.000528518               0.006718040               0.002415870              -0.001037948               0.002585306               0.001547358               0.000000000               0.000000000               0.000000000               0.000000000              -0.002307651               0.008080814               0.001916369              -0.001875467               0.003318733               0.001443266               0.000000000               0.000000000               0.000000000               0.000000000              -0.003696715               0.009443345               0.001327824              -0.002566680               0.004003310               0.001436630               0.000000000               0.000000000               0.000000000               0.000000000              -0.003661545               0.009345360               0.000973858              -0.002541243               0.003962170               0.001420927               0.000000000               0.000000000               0.000000000               0.000000000              -0.003274472               0.008872860               0.000743191              -0.002337029               0.003736600               0.001399571               0.000000000               0.000000000               0.000000000               0.000000000              -0.002808687               0.008291004               0.000584188              -0.002089628               0.003460183               0.001370555               0.000000000               0.000000000               0.000000000               0.000000000              -0.002340443               0.007697527               0.000465869              -0.001839852               0.003179101               0.001339248               0.000000000               0.000000000               0.000000000               0.000000000              -0.001886586               0.007133681               0.000367148              -0.001599176               0.002910929               0.001311752               0.000000000               0.000000000               0.000000000               0.000000000              -0.001442635               0.006613645               0.000286579              -0.001367690               0.002660423               0.001292733               0.000000000               0.000000000               0.000000000               0.000000000              -0.001024773               0.006158367               0.000218181              -0.001154083               0.002437463               0.001283380               0.000000000               0.000000000               0.000000000               0.000000000              -0.000661475               0.005784339               0.000152492              -0.000971093               0.002251791               0.001280698               0.000000000               0.000000000               0.000000000               0.000000000              -0.000376192               0.005481791               0.000097088              -0.000826294               0.002102677               0.001276383               0.000000000               0.000000000               0.000000000               0.000000000              -0.000176513               0.005249724               0.000060054              -0.000722406               0.001990692               0.001268286               0.000000000               0.000000000               0.000000000               0.000000000              -0.000050896               0.005097861               0.000035866              -0.000656317               0.001918042               0.001261726               0.000000000               0.000000000               0.000000000               0.000000000               0.000013678               0.005021253               0.000018874              -0.000622526               0.001881243               0.001258717               0.000000000               0.000000000               0.000000000               0.000000000               0.000028812               0.004994980               0.000006871              -0.000613566               0.001869499               0.001255932               0.000000000               0.000000000               0.000000000               0.000000000               0.000024648               0.004992405               0.000001856              -0.000614806               0.001869054               0.001254248               0.000000000               0.000000000               0.000000000               0.000000000              -0.001934355               0.004615565               0.001471450              -0.001302326               0.001972614               0.000670288               0.000000000               0.000000000               0.000000000               0.000000000              -0.003079335               0.006446510               0.001759308              -0.001960560               0.002802335               0.000841775               0.000000000               0.000000000               0.000000000               0.000000000              -0.004118237               0.008234752               0.001834611              -0.002573677               0.003602782               0.001029105               0.000000000               0.000000000               0.000000000               0.000000000              -0.003942937               0.008528941               0.001569442              -0.002544713               0.003691189               0.001146476               0.000000000               0.000000000               0.000000000               0.000000000              -0.003482541               0.008321976               0.001305757              -0.002346194               0.003556029               0.001209835               0.000000000               0.000000000               0.000000000               0.000000000              -0.002966196               0.007936805               0.001092864              -0.002104419               0.003347048               0.001242629               0.000000000               0.000000000               0.000000000               0.000000000              -0.002459065               0.007489316               0.000919599              -0.001858309               0.003115850               0.001257541               0.000000000               0.000000000               0.000000000               0.000000000              -0.001977899               0.007038286               0.000776760              -0.001621494               0.002886570               0.001265076               0.000000000               0.000000000               0.000000000               0.000000000              -0.001516107               0.006615438               0.000651524              -0.001395467               0.002670280               0.001274813               0.000000000               0.000000000               0.000000000               0.000000000              -0.001079140               0.006230045               0.000530022              -0.001183430               0.002471138               0.001287707               0.000000000               0.000000000               0.000000000               0.000000000              -0.000691061               0.005890454               0.000411794              -0.000995452               0.002295282               0.001299830               0.000000000               0.000000000               0.000000000               0.000000000              -0.000376832               0.005604829               0.000301206              -0.000841913               0.002148896               0.001306982               0.000000000               0.000000000               0.000000000               0.000000000              -0.000150001               0.005370188               0.000205821              -0.000727522               0.002032552               0.001305030               0.000000000               0.000000000               0.000000000               0.000000000              -0.000006533               0.005195200               0.000128207              -0.000651848               0.001948999               0.001297150               0.000000000               0.000000000               0.000000000               0.000000000               0.000065930               0.005079238               0.000065297              -0.000610180               0.001896456               0.001286276               0.000000000               0.000000000               0.000000000               0.000000000               0.000085227               0.005020605               0.000021170              -0.000595614               0.001872056               0.001276442               0.000000000               0.000000000               0.000000000               0.000000000               0.000080930               0.005007516               0.000003871              -0.000595589               0.001867685               0.001272096               0.000000000               0.000000000               0.000000000               0.000000000              -0.003723026               0.002714153               0.000542418              -0.001735400               0.001483174              -0.000252226               0.000000000               0.000000000               0.000000000               0.000000000              -0.003945888               0.004802359               0.001530289              -0.002079998               0.002294102               0.000214104               0.000000000               0.000000000               0.000000000               0.000000000              -0.004443598               0.006816967               0.002236801              -0.002518464               0.003111787               0.000593323               0.000000000               0.000000000               0.000000000               0.000000000              -0.004144154               0.007480777               0.002133210              -0.002489149               0.003323283               0.000834134               0.000000000               0.000000000               0.000000000               0.000000000              -0.003642546               0.007588514               0.001877291              -0.002314514               0.003300983               0.000986470               0.000000000               0.000000000               0.000000000               0.000000000              -0.003105690               0.007446754               0.001631476              -0.002095473               0.003180717               0.001085244               0.000000000               0.000000000               0.000000000               0.000000000              -0.002580388               0.007185364               0.001416886              -0.001865812               0.003017034               0.001151223               0.000000000               0.000000000               0.000000000               0.000000000              -0.002079683               0.006890386               0.001233625              -0.001641176               0.002843831               0.001202655               0.000000000               0.000000000               0.000000000               0.000000000              -0.001610744               0.006591918               0.001070143              -0.001428015               0.002673289               0.001245274               0.000000000               0.000000000               0.000000000               0.000000000              -0.001164954               0.006293584               0.000913720              -0.001223553               0.002505691               0.001282138               0.000000000               0.000000000               0.000000000               0.000000000              -0.000750217               0.006004643               0.000755720              -0.001031909               0.002345497               0.001313588               0.000000000               0.000000000               0.000000000               0.000000000              -0.000390107               0.005743507               0.000596439              -0.000864226               0.002202558               0.001338332               0.000000000               0.000000000               0.000000000               0.000000000              -0.000109811               0.005512626               0.000442579              -0.000730256               0.002080942               0.001350687               0.000000000               0.000000000               0.000000000               0.000000000               0.000082308               0.005314586               0.000301759              -0.000633456               0.001982663               0.001349207               0.000000000               0.000000000               0.000000000               0.000000000               0.000186184               0.005154026               0.000175282              -0.000574433               0.001909469               0.001335036               0.000000000               0.000000000               0.000000000               0.000000000               0.000216993               0.005052356               0.000073152              -0.000550171               0.001867492               0.001317322               0.000000000               0.000000000               0.000000000               0.000000000               0.000206947               0.005013860               0.000026952              -0.000549126               0.001854312               0.001305186               0.000000000               0.000000000               0.000000000               0.000000000              -0.005781985               0.001169730              -0.000284797              -0.002314458               0.001161388              -0.001153070               0.000000000               0.000000000               0.000000000               0.000000000              -0.004960312               0.003254571               0.001211686              -0.002266934               0.001840489              -0.000426445               0.000000000               0.000000000               0.000000000               0.000000000              -0.004713700               0.005208721               0.002415518              -0.002418722               0.002542463               0.000123740               0.000000000               0.000000000               0.000000000               0.000000000              -0.004206566               0.006124133               0.002515260              -0.002342974               0.002822348               0.000479374               0.000000000               0.000000000               0.000000000               0.000000000              -0.003643132               0.006518959               0.002326243              -0.002181040               0.002899977               0.000718937               0.000000000               0.000000000               0.000000000               0.000000000              -0.003088906               0.006629486               0.002085634              -0.001987021               0.002872146               0.000885125               0.000000000               0.000000000               0.000000000               0.000000000              -0.002558791               0.006589526               0.001853889              -0.001783233               0.002790897               0.001007664               0.000000000               0.000000000               0.000000000               0.000000000              -0.002055108               0.006481332               0.001646785              -0.001580828               0.002687365               0.001106536               0.000000000               0.000000000               0.000000000               0.000000000              -0.001577592               0.006336457               0.001463114              -0.001383651               0.002573348               0.001189697               0.000000000               0.000000000               0.000000000               0.000000000              -0.001124709               0.006160921               0.001288729              -0.001191878               0.002450912               0.001259034               0.000000000               0.000000000               0.000000000               0.000000000              -0.000698594               0.005962032               0.001110762              -0.001007225               0.002323065               0.001315841               0.000000000               0.000000000               0.000000000               0.000000000              -0.000307735               0.005756214               0.000922955              -0.000834926               0.002197027               0.001362102               0.000000000               0.000000000               0.000000000               0.000000000               0.000024341               0.005552260               0.000730182              -0.000684903               0.002079036               0.001394133               0.000000000               0.000000000               0.000000000               0.000000000               0.000277215               0.005359800               0.000537420              -0.000566018               0.001975255               0.001409237               0.000000000               0.000000000               0.000000000               0.000000000               0.000438399               0.005195116               0.000344522              -0.000484989               0.001893351               0.001408362               0.000000000               0.000000000               0.000000000               0.000000000               0.000501351               0.005077791               0.000163250              -0.000446716               0.001841485               0.001394769               0.000000000               0.000000000               0.000000000               0.000000000               0.000492868               0.005024442               0.000073839              -0.000443229               0.001822540               0.001379311               0.000000000               0.000000000               0.000000000               0.000000000              -0.007964614               0.000058464              -0.000884507              -0.002994036               0.001017493              -0.001976543               0.000000000               0.000000000               0.000000000               0.000000000              -0.006068448               0.001886786               0.000850993              -0.002511513               0.001466089              -0.001045423               0.000000000               0.000000000               0.000000000               0.000000000              -0.004956439               0.003549939               0.002337561              -0.002302403               0.001950767              -0.000351636               0.000000000               0.000000000               0.000000000               0.000000000              -0.004152602               0.004581479               0.002624214              -0.002129906               0.002237112               0.000107205               0.000000000               0.000000000               0.000000000               0.000000000              -0.003491082               0.005196148               0.002537671              -0.001958670               0.002384921               0.000426251               0.000000000               0.000000000               0.000000000               0.000000000              -0.002913989               0.005543675               0.002341923              -0.001785702               0.002443106               0.000657405               0.000000000               0.000000000               0.000000000               0.000000000              -0.002385214               0.005734560               0.002123959              -0.001611272               0.002448591               0.000837319               0.000000000               0.000000000               0.000000000               0.000000000              -0.001887398               0.005825264               0.001918194              -0.001435929               0.002420378               0.000984448               0.000000000               0.000000000               0.000000000               0.000000000              -0.001416160               0.005841146               0.001733875              -0.001261201               0.002367429               0.001106228               0.000000000               0.000000000               0.000000000               0.000000000              -0.000964710               0.005802892               0.001558214              -0.001087126               0.002296653               0.001209527               0.000000000               0.000000000               0.000000000               0.000000000              -0.000528968               0.005722089               0.001379739              -0.000913623               0.002211885               0.001298262               0.000000000               0.000000000               0.000000000               0.000000000              -0.000112727               0.005607128               0.001190377              -0.000743162               0.002116744               0.001373582               0.000000000               0.000000000               0.000000000               0.000000000               0.000272280               0.005471003               0.000987933              -0.000581769               0.002017572               0.001435803               0.000000000               0.000000000               0.000000000               0.000000000               0.000603477               0.005328186               0.000770278              -0.000439718               0.001922617               0.001482898               0.000000000               0.000000000               0.000000000               0.000000000               0.000858214               0.005198995               0.000529565              -0.000328043               0.001842329               0.001514285               0.000000000               0.000000000               0.000000000               0.000000000               0.001009337               0.005092950               0.000269028              -0.000258117               0.001783672               0.001525555               0.000000000               0.000000000               0.000000000               0.000000000               0.001050206               0.005042247               0.000135134              -0.000236453               0.001759550               0.001523097               0.000000000               0.000000000               0.000000000               0.000000000              -0.010053819              -0.000641124              -0.001151615              -0.003690039               0.001016298              -0.002673741               0.000000000               0.000000000               0.000000000               0.000000000              -0.007172185               0.000779246               0.000515111              -0.002786972               0.001188731              -0.001598241               0.000000000               0.000000000               0.000000000               0.000000000              -0.005180694               0.002011619               0.002005485              -0.002194210               0.001401932              -0.000792277               0.000000000               0.000000000               0.000000000               0.000000000              -0.004022826               0.003037246               0.002399061              -0.001888212               0.001641807              -0.000246405               0.000000000               0.000000000               0.000000000               0.000000000              -0.003231214               0.003793094               0.002407142              -0.001685839               0.001826297               0.000140458               0.000000000               0.000000000               0.000000000               0.000000000              -0.002615586               0.004333181               0.002280709              -0.001522490               0.001951875               0.000429385               0.000000000               0.000000000               0.000000000               0.000000000              -0.002081527               0.004715985               0.002111047              -0.001370068               0.002028668               0.000658600               0.000000000               0.000000000               0.000000000               0.000000000              -0.001594350               0.004979828               0.001934435              -0.001220358               0.002066711               0.000846354               0.000000000               0.000000000               0.000000000               0.000000000              -0.001140083               0.005153840               0.001767857              -0.001071759               0.002075182               0.001003423               0.000000000               0.000000000               0.000000000               0.000000000              -0.000699535               0.005262683               0.001612825              -0.000920159               0.002060929               0.001140770               0.000000000               0.000000000               0.000000000               0.000000000              -0.000257900               0.005317254               0.001458360              -0.000761368               0.002026189               0.001264821               0.000000000               0.000000000               0.000000000               0.000000000               0.000182772               0.005324122               0.001292466              -0.000596975               0.001973681               0.001376706               0.000000000               0.000000000               0.000000000               0.000000000               0.000618228               0.005294669               0.001110301              -0.000429998               0.001908204               0.001478207               0.000000000               0.000000000               0.000000000               0.000000000               0.001036257               0.005238167               0.000902781              -0.000266174               0.001834763               0.001568588               0.000000000               0.000000000               0.000000000               0.000000000               0.001417278               0.005161596               0.000652137              -0.000113720               0.001758422               0.001644701               0.000000000               0.000000000               0.000000000               0.000000000               0.001736149               0.005081470               0.000349401               0.000015871               0.001688516               0.001704387               0.000000000               0.000000000               0.000000000               0.000000000               0.001910602               0.005056662               0.000192273               0.000084392               0.001657406               0.001741798               0.000000000               0.000000000               0.000000000               0.000000000              -0.011801139              -0.001012271              -0.001049561              -0.004298891               0.001095532              -0.003203358               0.000000000               0.000000000               0.000000000               0.000000000              -0.008124552              -0.000020657               0.000258369              -0.003044122               0.001007815              -0.002036308               0.000000000               0.000000000               0.000000000               0.000000000              -0.005375288               0.000764664               0.001461098              -0.002111314               0.000958652              -0.001152662               0.000000000               0.000000000               0.000000000               0.000000000              -0.003880240               0.001709307               0.001832207              -0.001668751               0.001126011              -0.000542740               0.000000000               0.000000000               0.000000000               0.000000000              -0.002944782               0.002532065               0.001889085              -0.001420799               0.001317611              -0.000103187               0.000000000               0.000000000               0.000000000               0.000000000              -0.002271494               0.003195672               0.001829077              -0.001251267               0.001482301               0.000231034               0.000000000               0.000000000               0.000000000               0.000000000              -0.001726923               0.003713513               0.001722194              -0.001111783               0.001608419               0.000496636               0.000000000               0.000000000               0.000000000               0.000000000              -0.001249681               0.004112219               0.001597052              -0.000982656               0.001698277               0.000715621               0.000000000               0.000000000               0.000000000               0.000000000              -0.000805479               0.004423766               0.001475088              -0.000855024               0.001759581               0.000904557               0.000000000               0.000000000               0.000000000               0.000000000              -0.000369460               0.004669954               0.001364931              -0.000722291               0.001797399               0.001075108               0.000000000               0.000000000               0.000000000               0.000000000               0.000072018               0.004851233               0.001254077              -0.000579397               0.001810194               0.001230797               0.000000000               0.000000000               0.000000000               0.000000000               0.000529187               0.004978749               0.001131211              -0.000423898               0.001800866               0.001376967               0.000000000               0.000000000               0.000000000               0.000000000               0.001009618               0.005062863               0.000992801              -0.000254251               0.001772354               0.001518103               0.000000000               0.000000000               0.000000000               0.000000000               0.001512355               0.005099218               0.000828563              -0.000070270               0.001723145               0.001652876               0.000000000               0.000000000               0.000000000               0.000000000               0.002035662               0.005087167               0.000620267               0.000127476               0.001653213               0.001780689               0.000000000               0.000000000               0.000000000               0.000000000               0.002576976               0.005048106               0.000345304               0.000335349               0.001570902               0.001906251               0.000000000               0.000000000               0.000000000               0.000000000               0.002952719               0.005063599               0.000201884               0.000474315               0.001529745               0.002004059               0.000000000               0.000000000               0.000000000               0.000000000              -0.012971932              -0.001168330              -0.000622495              -0.004718430               0.001183359              -0.003535071               0.000000000               0.000000000               0.000000000               0.000000000              -0.008774692              -0.000496934               0.000096529              -0.003228390               0.000910479              -0.002317911               0.000000000               0.000000000               0.000000000               0.000000000              -0.005515217              -0.000045992               0.000768478              -0.002062456               0.000672150              -0.001390306               0.000000000               0.000000000               0.000000000               0.000000000              -0.003776337               0.000809512               0.000991818              -0.001517313               0.000775603              -0.000741711               0.000000000               0.000000000               0.000000000               0.000000000              -0.002720037               0.001647958               0.001041016              -0.001226007               0.000957981              -0.000268025               0.000000000               0.000000000               0.000000000               0.000000000              -0.001997717               0.002373426               0.001022182              -0.001045820               0.001139740               0.000093920               0.000000000               0.000000000               0.000000000               0.000000000              -0.001446256               0.002975643               0.000971935              -0.000914299               0.001296637               0.000382338               0.000000000               0.000000000               0.000000000               0.000000000              -0.000972611               0.003466281               0.000909462              -0.000798013               0.001421419               0.000623407               0.000000000               0.000000000               0.000000000               0.000000000              -0.000527384               0.003869534               0.000848704              -0.000681460               0.001516985               0.000835525               0.000000000               0.000000000               0.000000000               0.000000000              -0.000089772               0.004201915               0.000793943              -0.000558903               0.001586925               0.001028022               0.000000000               0.000000000               0.000000000               0.000000000               0.000352730               0.004466732               0.000736433              -0.000426067               0.001630918               0.001204851               0.000000000               0.000000000               0.000000000               0.000000000               0.000824122               0.004680476               0.000670234              -0.000276014               0.001652148               0.001376134               0.000000000               0.000000000               0.000000000               0.000000000               0.001339083               0.004842620               0.000594680              -0.000103171               0.001648581               0.001545409               0.000000000               0.000000000               0.000000000               0.000000000               0.001909457               0.004948046               0.000503864               0.000097539               0.001616819               0.001714359               0.000000000               0.000000000               0.000000000               0.000000000               0.002551573               0.005002112               0.000385763               0.000331572               0.001556830               0.001888402               0.000000000               0.000000000               0.000000000               0.000000000               0.003288168               0.005012254               0.000219767               0.000606525               0.001468559               0.002075085               0.000000000               0.000000000               0.000000000               0.000000000               0.003854061               0.005068137               0.000132816               0.000811748               0.001418780               0.002230527               0.000000000               0.000000000               0.000000000               0.000000000              -0.013385794              -0.001208161              -0.000000000              -0.004868650               0.001220155              -0.003648495               0.000000000               0.000000000               0.000000000               0.000000000              -0.009006371              -0.000653369              -0.000000000              -0.003295716               0.000880776              -0.002414940               0.000000000               0.000000000               0.000000000               0.000000000              -0.005567228              -0.000324687               0.000000000              -0.002047123               0.000574141              -0.001472982               0.000000000               0.000000000               0.000000000               0.000000000              -0.003737627               0.000491692              -0.000000000              -0.001463070               0.000651583              -0.000811487               0.000000000               0.000000000               0.000000000               0.000000000              -0.002632432               0.001329974              -0.000000000              -0.001153407               0.000827788              -0.000325619               0.000000000               0.000000000               0.000000000               0.000000000              -0.001894823               0.002073642               0.000000000              -0.000969762               0.001014461               0.000044699               0.000000000               0.000000000               0.000000000               0.000000000              -0.001340678               0.002705620              -0.000000000              -0.000840955               0.001182183               0.000341228               0.000000000               0.000000000               0.000000000               0.000000000              -0.000867026               0.003230048              -0.000000000              -0.000728889               0.001319635               0.000590746               0.000000000               0.000000000               0.000000000               0.000000000              -0.000420748               0.003662975              -0.000000000              -0.000615651               0.001426197               0.000810545               0.000000000               0.000000000               0.000000000               0.000000000               0.000017932               0.004022157               0.000000000              -0.000496044               0.001506053               0.001010009               0.000000000               0.000000000               0.000000000               0.000000000               0.000462939               0.004313642               0.000000000              -0.000365602               0.001559734               0.001194131               0.000000000               0.000000000               0.000000000               0.000000000               0.000941291               0.004554195              -0.000000000              -0.000216290               0.001590147               0.001373857               0.000000000               0.000000000               0.000000000               0.000000000               0.001472264               0.004745760               0.000000000              -0.000041121               0.001595611               0.001554490               0.000000000               0.000000000               0.000000000               0.000000000               0.002070264               0.004883037              -0.000000000               0.000165968               0.001572340               0.001738308               0.000000000               0.000000000               0.000000000               0.000000000               0.002758296               0.004966839               0.000000000               0.000413502               0.001517763               0.001931265               0.000000000               0.000000000               0.000000000               0.000000000               0.003570572               0.004995804               0.000000000               0.000714482               0.001427091               0.002141573               0.000000000               0.000000000               0.000000000               0.000000000               0.004213786               0.005067047               0.000000000               0.000946779               0.001373406               0.002320185               0.000000000               0.000000000               0.000000000               0.000000000               0.002252104               0.024301686              -0.000000000              -0.002193166               0.008831537               0.006638370               0.000000000               0.000000000               0.000000000               0.000000000               0.002187265               0.018815846              -0.000000000              -0.001531753               0.006782470               0.005250718               0.000000000               0.000000000               0.000000000               0.000000000               0.002830467               0.014339360               0.000000000              -0.000730993               0.005023403               0.004292410               0.000000000               0.000000000               0.000000000               0.000000000               0.002648497               0.011799407               0.000000000              -0.000481738               0.004093676               0.003611937               0.000000000               0.000000000               0.000000000               0.000000000               0.002234221               0.010191319              -0.000000000              -0.000436081               0.003542433               0.003106352               0.000000000               0.000000000               0.000000000               0.000000000               0.001783124               0.009065855               0.000000000              -0.000464559               0.003176774               0.002712215               0.000000000               0.000000000               0.000000000               0.000000000               0.001362438               0.008211607              -0.000000000              -0.000515535               0.002909020               0.002393485               0.000000000               0.000000000               0.000000000               0.000000000               0.000994416               0.007520520              -0.000000000              -0.000567158               0.002695867               0.002128710               0.000000000               0.000000000               0.000000000               0.000000000               0.000674674               0.006926734               0.000000000              -0.000612838               0.002513168               0.001900330               0.000000000               0.000000000               0.000000000               0.000000000               0.000402511               0.006384740               0.000000000              -0.000647149               0.002343942               0.001696792               0.000000000               0.000000000               0.000000000               0.000000000               0.000187222               0.005862689               0.000000000              -0.000662626               0.002175085               0.001512459               0.000000000               0.000000000               0.000000000               0.000000000               0.000024580               0.005338813              -0.000000000              -0.000658133               0.001998964               0.001340832               0.000000000               0.000000000               0.000000000               0.000000000              -0.000088580               0.004792832              -0.000000000              -0.000632320               0.001808368               0.001176048               0.000000000               0.000000000               0.000000000               0.000000000              -0.000145692               0.004207476              -0.000000000              -0.000580568               0.001596001               0.001015433               0.000000000               0.000000000               0.000000000               0.000000000              -0.000143753               0.003564006               0.000000000              -0.000499407               0.001354459               0.000855052               0.000000000               0.000000000               0.000000000               0.000000000              -0.000086601               0.002827857               0.000000000              -0.000385957               0.001071262               0.000685305               0.000000000               0.000000000               0.000000000               0.000000000              -0.000106901               0.002257040               0.000000000              -0.000322217               0.000859745               0.000537528               0.000000000               0.000000000               0.000000000               0.000000000               0.002328636               0.023797613              -0.001636112              -0.002101458               0.008632944               0.006531486               0.000000000               0.000000000               0.000000000               0.000000000               0.002130138               0.018485979              -0.000778651              -0.001511942               0.006665912               0.005153970               0.000000000               0.000000000               0.000000000               0.000000000               0.002634964               0.014203782               0.000067754              -0.000787359               0.004997000               0.004209641               0.000000000               0.000000000               0.000000000               0.000000000               0.002405250               0.011765739               0.000419687              -0.000568747               0.004111456               0.003542709               0.000000000               0.000000000               0.000000000               0.000000000               0.001981891               0.010210114               0.000558941              -0.000533054               0.003581022               0.003047968               0.000000000               0.000000000               0.000000000               0.000000000               0.001538969               0.009114005               0.000601649              -0.000562136               0.003225350               0.002663214               0.000000000               0.000000000               0.000000000               0.000000000               0.001133744               0.008275166               0.000602355              -0.000609240               0.002961441               0.002352201               0.000000000               0.000000000               0.000000000               0.000000000               0.000784672               0.007587632               0.000585683              -0.000654201               0.002747252               0.002093051               0.000000000               0.000000000               0.000000000               0.000000000               0.000494751               0.006995691               0.000561507              -0.000688928               0.002561516               0.001872588               0.000000000               0.000000000               0.000000000               0.000000000               0.000255281               0.006452996               0.000530818              -0.000710892               0.002387941               0.001677049               0.000000000               0.000000000               0.000000000               0.000000000               0.000069687               0.005929910               0.000497379              -0.000715104               0.002214985               0.001499881               0.000000000               0.000000000               0.000000000               0.000000000              -0.000063192               0.005408228               0.000460996              -0.000699724               0.002035966               0.001336242               0.000000000               0.000000000               0.000000000               0.000000000              -0.000147522               0.004870672               0.000416015              -0.000664153               0.001844925               0.001180772               0.000000000               0.000000000               0.000000000               0.000000000              -0.000178111               0.004305582               0.000358869              -0.000604988               0.001636842               0.001031854               0.000000000               0.000000000               0.000000000               0.000000000              -0.000157516               0.003695638               0.000275851              -0.000521022               0.001405541               0.000884519               0.000000000               0.000000000               0.000000000               0.000000000              -0.000092770               0.003020253               0.000155634              -0.000412320               0.001144181               0.000731861               0.000000000               0.000000000               0.000000000               0.000000000              -0.000105435               0.002509833               0.000097442              -0.000353266               0.000954358               0.000601092               0.000000000               0.000000000               0.000000000               0.000000000               0.002505939               0.022349648              -0.003037750              -0.001853975               0.008067800               0.006213824               0.000000000               0.000000000               0.000000000               0.000000000               0.001951117               0.017556328              -0.001438942              -0.001462869               0.006339674               0.004876805               0.000000000               0.000000000               0.000000000               0.000000000               0.002078189               0.013821573               0.000125511              -0.000948373               0.004923269               0.003974896               0.000000000               0.000000000               0.000000000               0.000000000               0.001713547               0.011666716               0.000749891              -0.000815757               0.004160786               0.003345028               0.000000000               0.000000000               0.000000000               0.000000000               0.001270031               0.010254346               0.000983310              -0.000805530               0.003686591               0.002881061               0.000000000               0.000000000               0.000000000               0.000000000               0.000862275               0.009232848               0.001047648              -0.000830751               0.003354502               0.002523751               0.000000000               0.000000000               0.000000000               0.000000000               0.000516223               0.008429307               0.001039563              -0.000860078               0.003096433               0.002236355               0.000000000               0.000000000               0.000000000               0.000000000               0.000236845               0.007755981               0.001007296              -0.000880679               0.002878861               0.001998182               0.000000000               0.000000000               0.000000000               0.000000000               0.000025271               0.007166424               0.000964804              -0.000886325               0.002684225               0.001797901               0.000000000               0.000000000               0.000000000               0.000000000              -0.000127897               0.006620763               0.000909235              -0.000875555               0.002498750               0.001623196               0.000000000               0.000000000               0.000000000               0.000000000              -0.000227969               0.006096193               0.000847377              -0.000847511               0.002314547               0.001467037               0.000000000               0.000000000               0.000000000               0.000000000              -0.000283235               0.005580215               0.000778395              -0.000803738               0.002127966               0.001324228               0.000000000               0.000000000               0.000000000               0.000000000              -0.000294256               0.005065119               0.000695676              -0.000743484               0.001936184               0.001192700               0.000000000               0.000000000               0.000000000               0.000000000              -0.000260290               0.004548527               0.000591281              -0.000666173               0.001738218               0.001072045               0.000000000               0.000000000               0.000000000               0.000000000              -0.000191094               0.004028533               0.000446450              -0.000575226               0.001534573               0.000959347               0.000000000               0.000000000               0.000000000               0.000000000              -0.000100219               0.003505955               0.000248480              -0.000475825               0.001327248               0.000851423               0.000000000               0.000000000               0.000000000               0.000000000              -0.000090462               0.003142302               0.000150870              -0.000426710               0.001189660               0.000762950               0.000000000               0.000000000               0.000000000               0.000000000               0.002663867               0.020140633              -0.004019302              -0.001518628               0.007219686               0.005701058               0.000000000               0.000000000               0.000000000               0.000000000               0.001617651               0.016174789              -0.001901286              -0.001415227               0.005863284               0.004448058               0.000000000               0.000000000               0.000000000               0.000000000               0.001224880               0.013259175               0.000140382              -0.001198064               0.004819036               0.003620972               0.000000000               0.000000000               0.000000000               0.000000000               0.000704354               0.011499187               0.000906038              -0.001173263               0.004224112               0.003050849               0.000000000               0.000000000               0.000000000               0.000000000               0.000262891               0.010282841               0.001171871              -0.001186769               0.003823169               0.002636400               0.000000000               0.000000000               0.000000000               0.000000000              -0.000070322               0.009353058               0.001233813              -0.001195500               0.003516155               0.002320654               0.000000000               0.000000000               0.000000000               0.000000000              -0.000308949               0.008593094               0.001214277              -0.001189990               0.003260999               0.002071009               0.000000000               0.000000000               0.000000000               0.000000000              -0.000469613               0.007939514               0.001169427              -0.001168541               0.003035992               0.001867450               0.000000000               0.000000000               0.000000000               0.000000000              -0.000562775               0.007347689               0.001113153              -0.001129499               0.002825705               0.001696206               0.000000000               0.000000000               0.000000000               0.000000000              -0.000601868               0.006793055               0.001041065              -0.001074830               0.002622606               0.001547776               0.000000000               0.000000000               0.000000000               0.000000000              -0.000597377               0.006264630               0.000960919              -0.001007093               0.002423887               0.001416794               0.000000000               0.000000000               0.000000000               0.000000000              -0.000549483               0.005761657               0.000871693              -0.000926261               0.002229287               0.001303025               0.000000000               0.000000000               0.000000000               0.000000000              -0.000465250               0.005282524               0.000763562              -0.000834782               0.002039084               0.001204302               0.000000000               0.000000000               0.000000000               0.000000000              -0.000355722               0.004829631               0.000632566              -0.000737098               0.001855560               0.001118462               0.000000000               0.000000000               0.000000000               0.000000000              -0.000231788               0.004416852               0.000464436              -0.000639025               0.001685278               0.001046252               0.000000000               0.000000000               0.000000000               0.000000000              -0.000111594               0.004061963               0.000249764              -0.000549592               0.001537171               0.000987580               0.000000000               0.000000000               0.000000000               0.000000000              -0.000077069               0.003851138               0.000143373              -0.000510292               0.001453797               0.000943505               0.000000000               0.000000000               0.000000000               0.000000000               0.002659793               0.017439308              -0.004486759              -0.001182491               0.006207207               0.005024716               0.000000000               0.000000000               0.000000000               0.000000000               0.001101726               0.014520483              -0.002147696              -0.001401911               0.005307416               0.003905505               0.000000000               0.000000000               0.000000000               0.000000000               0.000166956               0.012586092               0.000067972              -0.001510649               0.004698872               0.003188223               0.000000000               0.000000000               0.000000000               0.000000000              -0.000446512               0.011255317               0.000841099              -0.001574353               0.004276519               0.002702166               0.000000000               0.000000000               0.000000000               0.000000000              -0.000819842               0.010234743               0.001086504              -0.001586780               0.003940473               0.002353694               0.000000000               0.000000000               0.000000000               0.000000000              -0.001028927               0.009394326               0.001134085              -0.001560135               0.003651455               0.002091321               0.000000000               0.000000000               0.000000000               0.000000000              -0.001123301               0.008673826               0.001111129              -0.001505463               0.003393067               0.001887605               0.000000000               0.000000000               0.000000000               0.000000000              -0.001143391               0.008029103               0.001063894              -0.001432406               0.003153810               0.001721403               0.000000000               0.000000000               0.000000000               0.000000000              -0.001104859               0.007433776               0.001005275              -0.001343541               0.002925747               0.001582206               0.000000000               0.000000000               0.000000000               0.000000000              -0.001018582               0.006872427               0.000932326              -0.001241019               0.002704459               0.001463440               0.000000000               0.000000000               0.000000000               0.000000000              -0.000897469               0.006347172               0.000851128              -0.001129945               0.002492351               0.001362406               0.000000000               0.000000000               0.000000000               0.000000000              -0.000750330               0.005862575               0.000759199              -0.001014193               0.002292236               0.001278043               0.000000000               0.000000000               0.000000000               0.000000000              -0.000587117               0.005424102               0.000645411              -0.000898180               0.002107409               0.001209229               0.000000000               0.000000000               0.000000000               0.000000000              -0.000417746               0.005038581               0.000512180              -0.000786475               0.001941669               0.001155193               0.000000000               0.000000000               0.000000000               0.000000000              -0.000257169               0.004719223               0.000359432              -0.000686340               0.001801838               0.001115499               0.000000000               0.000000000               0.000000000               0.000000000              -0.000121759               0.004487387               0.000185550              -0.000606581               0.001697974               0.001091393               0.000000000               0.000000000               0.000000000               0.000000000              -0.000073578               0.004375651               0.000101616              -0.000574547               0.001650051               0.001075504               0.000000000               0.000000000               0.000000000               0.000000000               0.002351285               0.014527386              -0.004460588              -0.000934193               0.005153810               0.004219617               0.000000000               0.000000000               0.000000000               0.000000000               0.000401768               0.012768324              -0.002217287              -0.001445375               0.004737857               0.003292481               0.000000000               0.000000000               0.000000000               0.000000000              -0.000963085               0.011848933              -0.000121402              -0.001842269               0.004563695               0.002721426               0.000000000               0.000000000               0.000000000               0.000000000              -0.001564332               0.010918829               0.000559496              -0.001951473               0.004290064               0.002338591               0.000000000               0.000000000               0.000000000               0.000000000              -0.001794310               0.010062830               0.000766370              -0.001930715               0.003997815               0.002067099               0.000000000               0.000000000               0.000000000               0.000000000              -0.001833282               0.009293690               0.000810665              -0.001849188               0.003714262               0.001865074               0.000000000               0.000000000               0.000000000               0.000000000              -0.001769423               0.008597213               0.000800817              -0.001738181               0.003445103               0.001706922               0.000000000               0.000000000               0.000000000               0.000000000              -0.001644257               0.007959368               0.000773264              -0.001611514               0.003190267               0.001578754               0.000000000               0.000000000               0.000000000               0.000000000              -0.001474775               0.007366261               0.000729388              -0.001473820               0.002946669               0.001472849               0.000000000               0.000000000               0.000000000               0.000000000              -0.001279056               0.006808277               0.000667930              -0.001330677               0.002712962               0.001382285               0.000000000               0.000000000               0.000000000               0.000000000              -0.001063945               0.006297750               0.000599990              -0.001186195               0.002494627               0.001308432               0.000000000               0.000000000               0.000000000               0.000000000              -0.000839203               0.005844850               0.000523583              -0.001045305               0.002296699               0.001251394               0.000000000               0.000000000               0.000000000               0.000000000              -0.000619185               0.005454408               0.000430042              -0.000913993               0.002122782               0.001208789               0.000000000               0.000000000               0.000000000               0.000000000              -0.000415303               0.005136694               0.000323224              -0.000797823               0.001978155               0.001180332               0.000000000               0.000000000               0.000000000               0.000000000              -0.000241507               0.004897162               0.000212107              -0.000702709               0.001866607               0.001163899               0.000000000               0.000000000               0.000000000               0.000000000              -0.000108786               0.004742779               0.000103425              -0.000633640               0.001792124               0.001158484               0.000000000               0.000000000               0.000000000               0.000000000              -0.000060102               0.004680589               0.000054845              -0.000607610               0.001762717               0.001155107               0.000000000               0.000000000               0.000000000               0.000000000               0.001676298               0.011644232              -0.004032675              -0.000826919               0.004157010               0.003330092               0.000000000               0.000000000               0.000000000               0.000000000              -0.000446929               0.011059323              -0.002169688              -0.001550011               0.004203074               0.002653063               0.000000000               0.000000000               0.000000000               0.000000000              -0.002045974               0.011073328              -0.000431062              -0.002151401               0.004408206               0.002256805               0.000000000               0.000000000               0.000000000               0.000000000              -0.002508412               0.010468274               0.000116182              -0.002249183               0.004239118               0.001989935               0.000000000               0.000000000               0.000000000               0.000000000              -0.002538965               0.009742370               0.000300472              -0.002169903               0.003970725               0.001800822               0.000000000               0.000000000               0.000000000               0.000000000              -0.002392323               0.009031448               0.000364748              -0.002026047               0.003685802               0.001659754               0.000000000               0.000000000               0.000000000               0.000000000              -0.002167109               0.008359011               0.000389007              -0.001857538               0.003405488               0.001547951               0.000000000               0.000000000               0.000000000               0.000000000              -0.001909243               0.007728392               0.000394741              -0.001682011               0.003136775               0.001454764               0.000000000               0.000000000               0.000000000               0.000000000              -0.001631343               0.007141861               0.000378460              -0.001504483               0.002882091               0.001377608               0.000000000               0.000000000               0.000000000               0.000000000              -0.001343593               0.006605263               0.000344621              -0.001329502               0.002644899               0.001315397               0.000000000               0.000000000               0.000000000               0.000000000              -0.001056491               0.006131728               0.000309825              -0.001162647               0.002431438               0.001268791               0.000000000               0.000000000               0.000000000               0.000000000              -0.000780709               0.005731152               0.000269045              -0.001009157               0.002246751               0.001237593               0.000000000               0.000000000               0.000000000               0.000000000              -0.000535693               0.005403481               0.000214438              -0.000876318               0.002093248               0.001216930               0.000000000               0.000000000               0.000000000               0.000000000              -0.000333977               0.005153234               0.000151342              -0.000769394               0.001974192               0.001204798               0.000000000               0.000000000               0.000000000               0.000000000              -0.000179606               0.004982058               0.000087113              -0.000690108               0.001890705               0.001200598               0.000000000               0.000000000               0.000000000               0.000000000              -0.000073608               0.004886302               0.000035550              -0.000638389               0.001841547               0.001203158               0.000000000               0.000000000               0.000000000               0.000000000              -0.000037132               0.004854390               0.000016767              -0.000620722               0.001825021               0.001204299               0.000000000               0.000000000               0.000000000               0.000000000               0.000675551               0.008975948              -0.003308942              -0.000868663               0.003281506               0.002412843               0.000000000               0.000000000               0.000000000               0.000000000              -0.001386697               0.009490275              -0.002053712              -0.001706293               0.003732157               0.002025864               0.000000000               0.000000000               0.000000000               0.000000000              -0.002975706               0.010261570              -0.000842804              -0.002398580               0.004220016               0.001821436               0.000000000               0.000000000               0.000000000               0.000000000              -0.003198314               0.009901794              -0.000413740              -0.002437086               0.004112927               0.001675841               0.000000000               0.000000000               0.000000000               0.000000000              -0.002998743               0.009290048              -0.000217683              -0.002285779               0.003858578               0.001572799               0.000000000               0.000000000               0.000000000               0.000000000              -0.002673061               0.008633726              -0.000110943              -0.002081608               0.003571749               0.001490141               0.000000000               0.000000000               0.000000000               0.000000000              -0.002313158               0.007986117              -0.000043756              -0.001865694               0.003283910               0.001418216               0.000000000               0.000000000               0.000000000               0.000000000              -0.001945262               0.007374952               0.000005159              -0.001651338               0.003008739               0.001357401               0.000000000               0.000000000               0.000000000               0.000000000              -0.001573637               0.006816305               0.000034428              -0.001442148               0.002752795               0.001310647               0.000000000               0.000000000               0.000000000               0.000000000              -0.001211129               0.006320255               0.000046788              -0.001244202               0.002521464               0.001277262               0.000000000               0.000000000               0.000000000               0.000000000              -0.000876854               0.005901260               0.000059558              -0.001066475               0.002322559               0.001256084               0.000000000               0.000000000               0.000000000               0.000000000              -0.000586790               0.005561135               0.000065551              -0.000915186               0.002158755               0.001243569               0.000000000               0.000000000               0.000000000               0.000000000              -0.000356933               0.005298688               0.000053826              -0.000796184               0.002031606               0.001235422               0.000000000               0.000000000               0.000000000               0.000000000              -0.000190534               0.005114508               0.000032896              -0.000710762               0.001941739               0.001230978               0.000000000               0.000000000               0.000000000               0.000000000              -0.000084267               0.005006524               0.000011607              -0.000657414               0.001887963               0.001230548               0.000000000               0.000000000               0.000000000               0.000000000              -0.000027496               0.004961257              -0.000000724              -0.000630466               0.001863891               0.001233425               0.000000000               0.000000000               0.000000000               0.000000000              -0.000012020               0.004951201              -0.000002350              -0.000623406               0.001858186               0.001234780               0.000000000               0.000000000               0.000000000               0.000000000              -0.000528518               0.006718040              -0.002415870              -0.001037948               0.002585306               0.001547358               0.000000000               0.000000000               0.000000000               0.000000000              -0.002307651               0.008080814              -0.001916369              -0.001875467               0.003318733               0.001443266               0.000000000               0.000000000               0.000000000               0.000000000              -0.003696715               0.009443345              -0.001327824              -0.002566680               0.004003310               0.001436630               0.000000000               0.000000000               0.000000000               0.000000000              -0.003661545               0.009345360              -0.000973858              -0.002541243               0.003962170               0.001420927               0.000000000               0.000000000               0.000000000               0.000000000              -0.003274472               0.008872860              -0.000743191              -0.002337029               0.003736600               0.001399571               0.000000000               0.000000000               0.000000000               0.000000000              -0.002808687               0.008291004              -0.000584188              -0.002089628               0.003460183               0.001370555               0.000000000               0.000000000               0.000000000               0.000000000              -0.002340443               0.007697527              -0.000465869              -0.001839852               0.003179101               0.001339248               0.000000000               0.000000000               0.000000000               0.000000000              -0.001886586               0.007133681              -0.000367148              -0.001599176               0.002910929               0.001311752               0.000000000               0.000000000               0.000000000               0.000000000              -0.001442635               0.006613645              -0.000286579              -0.001367690               0.002660423               0.001292733               0.000000000               0.000000000               0.000000000               0.000000000              -0.001024773               0.006158367              -0.000218181              -0.001154083               0.002437463               0.001283380               0.000000000               0.000000000               0.000000000               0.000000000              -0.000661475               0.005784339              -0.000152492              -0.000971093               0.002251791               0.001280698               0.000000000               0.000000000               0.000000000               0.000000000              -0.000376192               0.005481791              -0.000097088              -0.000826294               0.002102677               0.001276383               0.000000000               0.000000000               0.000000000               0.000000000              -0.000176513               0.005249724              -0.000060054              -0.000722406               0.001990692               0.001268286               0.000000000               0.000000000               0.000000000               0.000000000              -0.000050896               0.005097861              -0.000035866              -0.000656317               0.001918042               0.001261726               0.000000000               0.000000000               0.000000000               0.000000000               0.000013678               0.005021253              -0.000018874              -0.000622526               0.001881243               0.001258717               0.000000000               0.000000000               0.000000000               0.000000000               0.000028812               0.004994980              -0.000006871              -0.000613566               0.001869499               0.001255932               0.000000000               0.000000000               0.000000000               0.000000000               0.000024648               0.004992405              -0.000001856              -0.000614806               0.001869054               0.001254248               0.000000000               0.000000000               0.000000000               0.000000000              -0.001934355               0.004615565              -0.001471450              -0.001302326               0.001972614               0.000670288               0.000000000               0.000000000               0.000000000               0.000000000              -0.003079335               0.006446510              -0.001759308              -0.001960560               0.002802335               0.000841775               0.000000000               0.000000000               0.000000000               0.000000000              -0.004118237               0.008234752              -0.001834611              -0.002573677               0.003602782               0.001029105               0.000000000               0.000000000               0.000000000               0.000000000              -0.003942937               0.008528941              -0.001569442              -0.002544713               0.003691189               0.001146476               0.000000000               0.000000000               0.000000000               0.000000000              -0.003482541               0.008321976              -0.001305757              -0.002346194               0.003556029               0.001209835               0.000000000               0.000000000               0.000000000               0.000000000              -0.002966196               0.007936805              -0.001092864              -0.002104419               0.003347048               0.001242629               0.000000000               0.000000000               0.000000000               0.000000000              -0.002459065               0.007489316              -0.000919599              -0.001858309               0.003115850               0.001257541               0.000000000               0.000000000               0.000000000               0.000000000              -0.001977899               0.007038286              -0.000776760              -0.001621494               0.002886570               0.001265076               0.000000000               0.000000000               0.000000000               0.000000000              -0.001516107               0.006615438              -0.000651524              -0.001395467               0.002670280               0.001274813               0.000000000               0.000000000               0.000000000               0.000000000              -0.001079140               0.006230045              -0.000530022              -0.001183430               0.002471138               0.001287707               0.000000000               0.000000000               0.000000000               0.000000000              -0.000691061               0.005890454              -0.000411794              -0.000995452               0.002295282               0.001299830               0.000000000               0.000000000               0.000000000               0.000000000              -0.000376832               0.005604829              -0.000301206              -0.000841913               0.002148896               0.001306982               0.000000000               0.000000000               0.000000000               0.000000000              -0.000150001               0.005370188              -0.000205821              -0.000727522               0.002032552               0.001305030               0.000000000               0.000000000               0.000000000               0.000000000              -0.000006533               0.005195200              -0.000128207              -0.000651848               0.001948999               0.001297150               0.000000000               0.000000000               0.000000000               0.000000000               0.000065930               0.005079238              -0.000065297              -0.000610180               0.001896456               0.001286276               0.000000000               0.000000000               0.000000000               0.000000000               0.000085227               0.005020605              -0.000021170              -0.000595614               0.001872056               0.001276442               0.000000000               0.000000000               0.000000000               0.000000000               0.000080930               0.005007516              -0.000003871              -0.000595589               0.001867685               0.001272096               0.000000000               0.000000000               0.000000000               0.000000000              -0.003723026               0.002714153              -0.000542418              -0.001735400               0.001483174              -0.000252226               0.000000000               0.000000000               0.000000000               0.000000000              -0.003945888               0.004802359              -0.001530289              -0.002079998               0.002294102               0.000214104               0.000000000               0.000000000               0.000000000               0.000000000              -0.004443598               0.006816967              -0.002236801              -0.002518464               0.003111787               0.000593323               0.000000000               0.000000000               0.000000000               0.000000000              -0.004144154               0.007480777              -0.002133210              -0.002489149               0.003323283               0.000834134               0.000000000               0.000000000               0.000000000               0.000000000              -0.003642546               0.007588514              -0.001877291              -0.002314514               0.003300983               0.000986470               0.000000000               0.000000000               0.000000000               0.000000000              -0.003105690               0.007446754              -0.001631476              -0.002095473               0.003180717               0.001085244               0.000000000               0.000000000               0.000000000               0.000000000              -0.002580388               0.007185364              -0.001416886              -0.001865812               0.003017034               0.001151223               0.000000000               0.000000000               0.000000000               0.000000000              -0.002079683               0.006890386              -0.001233625              -0.001641176               0.002843831               0.001202655               0.000000000               0.000000000               0.000000000               0.000000000              -0.001610744               0.006591918              -0.001070143              -0.001428015               0.002673289               0.001245274               0.000000000               0.000000000               0.000000000               0.000000000              -0.001164954               0.006293584              -0.000913720              -0.001223553               0.002505691               0.001282138               0.000000000               0.000000000               0.000000000               0.000000000              -0.000750217               0.006004643              -0.000755720              -0.001031909               0.002345497               0.001313588               0.000000000               0.000000000               0.000000000               0.000000000              -0.000390107               0.005743507              -0.000596439              -0.000864226               0.002202558               0.001338332               0.000000000               0.000000000               0.000000000               0.000000000              -0.000109811               0.005512626              -0.000442579              -0.000730256               0.002080942               0.001350687               0.000000000               0.000000000               0.000000000               0.000000000               0.000082308               0.005314586              -0.000301759              -0.000633456               0.001982663               0.001349207               0.000000000               0.000000000               0.000000000               0.000000000               0.000186184               0.005154026              -0.000175282              -0.000574433               0.001909469               0.001335036               0.000000000               0.000000000               0.000000000               0.000000000               0.000216993               0.005052356              -0.000073152              -0.000550171               0.001867492               0.001317322               0.000000000               0.000000000               0.000000000               0.000000000               0.000206947               0.005013860              -0.000026952              -0.000549126               0.001854312               0.001305186               0.000000000               0.000000000               0.000000000               0.000000000              -0.005781985               0.001169730               0.000284797              -0.002314458               0.001161388              -0.001153070               0.000000000               0.000000000               0.000000000               0.000000000              -0.004960312               0.003254571              -0.001211686              -0.002266934               0.001840489              -0.000426445               0.000000000               0.000000000               0.000000000               0.000000000              -0.004713700               0.005208721              -0.002415518              -0.002418722               0.002542463               0.000123740               0.000000000               0.000000000               0.000000000               0.000000000              -0.004206566               0.006124133              -0.002515260              -0.002342974               0.002822348               0.000479374               0.000000000               0.000000000               0.000000000               0.000000000              -0.003643132               0.006518959              -0.002326243              -0.002181040               0.002899977               0.000718937               0.000000000               0.000000000               0.000000000               0.000000000              -0.003088906               0.006629486              -0.002085634              -0.001987021               0.002872146               0.000885125               0.000000000               0.000000000               0.000000000               0.000000000              -0.002558791               0.006589526              -0.001853889              -0.001783233               0.002790897               0.001007664               0.000000000               0.000000000               0.000000000               0.000000000              -0.002055108               0.006481332              -0.001646785              -0.001580828               0.002687365               0.001106536               0.000000000               0.000000000               0.000000000               0.000000000              -0.001577592               0.006336457              -0.001463114              -0.001383651               0.002573348               0.001189697               0.000000000               0.000000000               0.000000000               0.000000000              -0.001124709               0.006160921              -0.001288729              -0.001191878               0.002450912               0.001259034               0.000000000               0.000000000               0.000000000               0.000000000              -0.000698594               0.005962032              -0.001110762              -0.001007225               0.002323065               0.001315841               0.000000000               0.000000000               0.000000000               0.000000000              -0.000307735               0.005756214              -0.000922955              -0.000834926               0.002197027               0.001362102               0.000000000               0.000000000               0.000000000               0.000000000               0.000024341               0.005552260              -0.000730182              -0.000684903               0.002079036               0.001394133               0.000000000               0.000000000               0.000000000               0.000000000               0.000277215               0.005359800              -0.000537420              -0.000566018               0.001975255               0.001409237               0.000000000               0.000000000               0.000000000               0.000000000               0.000438399               0.005195116              -0.000344522              -0.000484989               0.001893351               0.001408362               0.000000000               0.000000000               0.000000000               0.000000000               0.000501351               0.005077791              -0.000163250              -0.000446716               0.001841485               0.001394769               0.000000000               0.000000000               0.000000000               0.000000000               0.000492868               0.005024442              -0.000073839              -0.000443229               0.001822540               0.001379311               0.000000000               0.000000000               0.000000000               0.000000000              -0.007964614               0.000058464               0.000884507              -0.002994036               0.001017493              -0.001976543               0.000000000               0.000000000               0.000000000               0.000000000              -0.006068448               0.001886786              -0.000850993              -0.002511513               0.001466089              -0.001045423               0.000000000               0.000000000               0.000000000               0.000000000              -0.004956439               0.003549939              -0.002337561              -0.002302403               0.001950767              -0.000351636               0.000000000               0.000000000               0.000000000               0.000000000              -0.004152602               0.004581479              -0.002624214              -0.002129906               0.002237112               0.000107205               0.000000000               0.000000000               0.000000000               0.000000000              -0.003491082               0.005196148              -0.002537671              -0.001958670               0.002384921               0.000426251               0.000000000               0.000000000               0.000000000               0.000000000              -0.002913989               0.005543675              -0.002341923              -0.001785702               0.002443106               0.000657405               0.000000000               0.000000000               0.000000000               0.000000000              -0.002385214               0.005734560              -0.002123959              -0.001611272               0.002448591               0.000837319               0.000000000               0.000000000               0.000000000               0.000000000              -0.001887398               0.005825264              -0.001918194              -0.001435929               0.002420378               0.000984448               0.000000000               0.000000000               0.000000000               0.000000000              -0.001416160               0.005841146              -0.001733875              -0.001261201               0.002367429               0.001106228               0.000000000               0.000000000               0.000000000               0.000000000              -0.000964710               0.005802892              -0.001558214              -0.001087126               0.002296653               0.001209527               0.000000000               0.000000000               0.000000000               0.000000000              -0.000528968               0.005722089              -0.001379739              -0.000913623               0.002211885               0.001298262               0.000000000               0.000000000               0.000000000               0.000000000              -0.000112727               0.005607128              -0.001190377              -0.000743162               0.002116744               0.001373582               0.000000000               0.000000000               0.000000000               0.000000000               0.000272280               0.005471003              -0.000987933              -0.000581769               0.002017572               0.001435803               0.000000000               0.000000000               0.000000000               0.000000000               0.000603477               0.005328186              -0.000770278              -0.000439718               0.001922617               0.001482898               0.000000000               0.000000000               0.000000000               0.000000000               0.000858214               0.005198995              -0.000529565              -0.000328043               0.001842329               0.001514285               0.000000000               0.000000000               0.000000000               0.000000000               0.001009337               0.005092950              -0.000269028              -0.000258117               0.001783672               0.001525555               0.000000000               0.000000000               0.000000000               0.000000000               0.001050206               0.005042247              -0.000135134              -0.000236453               0.001759550               0.001523097               0.000000000               0.000000000               0.000000000               0.000000000              -0.010053819              -0.000641124               0.001151615              -0.003690039               0.001016298              -0.002673741               0.000000000               0.000000000               0.000000000               0.000000000              -0.007172185               0.000779246              -0.000515111              -0.002786972               0.001188731              -0.001598241               0.000000000               0.000000000               0.000000000               0.000000000              -0.005180694               0.002011619              -0.002005485              -0.002194210               0.001401932              -0.000792277               0.000000000               0.000000000               0.000000000               0.000000000              -0.004022826               0.003037246              -0.002399061              -0.001888212               0.001641807              -0.000246405               0.000000000               0.000000000               0.000000000               0.000000000              -0.003231214               0.003793094              -0.002407142              -0.001685839               0.001826297               0.000140458               0.000000000               0.000000000               0.000000000               0.000000000              -0.002615586               0.004333181              -0.002280709              -0.001522490               0.001951875               0.000429385               0.000000000               0.000000000               0.000000000               0.000000000              -0.002081527               0.004715985              -0.002111047              -0.001370068               0.002028668               0.000658600               0.000000000               0.000000000               0.000000000               0.000000000              -0.001594350               0.004979828              -0.001934435              -0.001220358               0.002066711               0.000846354               0.000000000               0.000000000               0.000000000               0.000000000              -0.001140083               0.005153840              -0.001767857              -0.001071759               0.002075182               0.001003423               0.000000000               0.000000000               0.000000000               0.000000000              -0.000699535               0.005262683              -0.001612825              -0.000920159               0.002060929               0.001140770               0.000000000               0.000000000               0.000000000               0.000000000              -0.000257900               0.005317254              -0.001458360              -0.000761368               0.002026189               0.001264821               0.000000000               0.000000000               0.000000000               0.000000000               0.000182772               0.005324122              -0.001292466              -0.000596975               0.001973681               0.001376706               0.000000000               0.000000000               0.000000000               0.000000000               0.000618228               0.005294669              -0.001110301              -0.000429998               0.001908204               0.001478207               0.000000000               0.000000000               0.000000000               0.000000000               0.001036257               0.005238167              -0.000902781              -0.000266174               0.001834763               0.001568588               0.000000000               0.000000000               0.000000000               0.000000000               0.001417278               0.005161596              -0.000652137              -0.000113720               0.001758422               0.001644701               0.000000000               0.000000000               0.000000000               0.000000000               0.001736149               0.005081470              -0.000349401               0.000015871               0.001688516               0.001704387               0.000000000               0.000000000               0.000000000               0.000000000               0.001910602               0.005056662              -0.000192273               0.000084392               0.001657406               0.001741798               0.000000000               0.000000000               0.000000000               0.000000000              -0.011801139              -0.001012271               0.001049561              -0.004298891               0.001095532              -0.003203358               0.000000000               0.000000000               0.000000000               0.000000000              -0.008124552              -0.000020657              -0.000258369              -0.003044122               0.001007815              -0.002036308               0.000000000               0.000000000               0.000000000               0.000000000              -0.005375288               0.000764664              -0.001461098              -0.002111314               0.000958652              -0.001152662               0.000000000               0.000000000               0.000000000               0.000000000              -0.003880240               0.001709307              -0.001832207              -0.001668751               0.001126011              -0.000542740               0.000000000               0.000000000               0.000000000               0.000000000              -0.002944782               0.002532065              -0.001889085              -0.001420799               0.001317611              -0.000103187               0.000000000               0.000000000               0.000000000               0.000000000              -0.002271494               0.003195672              -0.001829077              -0.001251267               0.001482301               0.000231034               0.000000000               0.000000000               0.000000000               0.000000000              -0.001726923               0.003713513              -0.001722194              -0.001111783               0.001608419               0.000496636               0.000000000               0.000000000               0.000000000               0.000000000              -0.001249681               0.004112219              -0.001597052              -0.000982656               0.001698277               0.000715621               0.000000000               0.000000000               0.000000000               0.000000000              -0.000805479               0.004423766              -0.001475088              -0.000855024               0.001759581               0.000904557               0.000000000               0.000000000               0.000000000               0.000000000              -0.000369460               0.004669954              -0.001364931              -0.000722291               0.001797399               0.001075108               0.000000000               0.000000000               0.000000000               0.000000000               0.000072018               0.004851233              -0.001254077              -0.000579397               0.001810194               0.001230797               0.000000000               0.000000000               0.000000000               0.000000000               0.000529187               0.004978749              -0.001131211              -0.000423898               0.001800866               0.001376967               0.000000000               0.000000000               0.000000000               0.000000000               0.001009618               0.005062863              -0.000992801              -0.000254251               0.001772354               0.001518103               0.000000000               0.000000000               0.000000000               0.000000000               0.001512355               0.005099218              -0.000828563              -0.000070270               0.001723145               0.001652876               0.000000000               0.000000000               0.000000000               0.000000000               0.002035662               0.005087167              -0.000620267               0.000127476               0.001653213               0.001780689               0.000000000               0.000000000               0.000000000               0.000000000               0.002576976               0.005048106              -0.000345304               0.000335349               0.001570902               0.001906251               0.000000000               0.000000000               0.000000000               0.000000000               0.002952719               0.005063599              -0.000201884               0.000474315               0.001529745               0.002004059               0.000000000               0.000000000               0.000000000               0.000000000              -0.012971932              -0.001168330               0.000622495              -0.004718430               0.001183359              -0.003535071               0.000000000               0.000000000               0.000000000               0.000000000              -0.008774692              -0.000496934              -0.000096529              -0.003228390               0.000910479              -0.002317911               0.000000000               0.000000000               0.000000000               0.000000000              -0.005515217              -0.000045992              -0.000768478              -0.002062456               0.000672150              -0.001390306               0.000000000               0.000000000               0.000000000               0.000000000              -0.003776337               0.000809512              -0.000991818              -0.001517313               0.000775603              -0.000741711               0.000000000               0.000000000               0.000000000               0.000000000              -0.002720037               0.001647958              -0.001041016              -0.001226007               0.000957981              -0.000268025               0.000000000               0.000000000               0.000000000               0.000000000              -0.001997717               0.002373426              -0.001022182              -0.001045820               0.001139740               0.000093920               0.000000000               0.000000000               0.000000000               0.000000000              -0.001446256               0.002975643              -0.000971935              -0.000914299               0.001296637               0.000382338               0.000000000               0.000000000               0.000000000               0.000000000              -0.000972611               0.003466281              -0.000909462              -0.000798013               0.001421419               0.000623407               0.000000000               0.000000000               0.000000000               0.000000000              -0.000527384               0.003869534              -0.000848704              -0.000681460               0.001516985               0.000835525               0.000000000               0.000000000               0.000000000               0.000000000              -0.000089772               0.004201915              -0.000793943              -0.000558903               0.001586925               0.001028022               0.000000000               0.000000000               0.000000000               0.000000000               0.000352730               0.004466732              -0.000736433              -0.000426067               0.001630918               0.001204851               0.000000000               0.000000000               0.000000000               0.000000000               0.000824122               0.004680476              -0.000670234              -0.000276014               0.001652148               0.001376134               0.000000000               0.000000000               0.000000000               0.000000000               0.001339083               0.004842620              -0.000594680              -0.000103171               0.001648581               0.001545409               0.000000000               0.000000000               0.000000000               0.000000000               0.001909457               0.004948046              -0.000503864               0.000097539               0.001616819               0.001714359               0.000000000               0.000000000               0.000000000               0.000000000               0.002551573               0.005002112              -0.000385763               0.000331572               0.001556830               0.001888402               0.000000000               0.000000000               0.000000000               0.000000000               0.003288168               0.005012254              -0.000219767               0.000606525               0.001468559               0.002075085               0.000000000               0.000000000               0.000000000               0.000000000               0.003854061               0.005068137              -0.000132816               0.000811748               0.001418780               0.002230527               0.000000000               0.000000000               0.000000000               0.000000000               0.000000000               0.000000000               0.000000000               0.000000000               0.000000000               0.000000000               0.000000000               0.000000000               0.000000000               0.000000000               0.000000000               0.000000000               0.000000000               0.000000000               0.000000000               0.000000000               0.000000000               0.000000000               0.000000000               0.000000000               0.000000000               0.000000000               0.000000000               0.000000000               0.000000000               0.000000000               0.000000000               0.000000000               0.000000000               0.000000000               0.000000000               0.000000000               0.000000000               0.000000000               0.000000000               0.000000000               0.000000000               0.000000000               0.000000000               0.000000000               0.000000000               0.000000000               0.000000000               0.000000000               0.000000000               0.000000000               0.000000000               0.000000000               0.000000000               0.000000000               0.000000000               0.000000000               0.000000000               0.000000000               0.000000000               0.000000000               0.000000000               0.000000000               0.000000000               0.000000000               0.000000000               0.000000000               0.000000000               0.000000000               0.000000000               0.000000000               0.000000000               0.000000000               0.000000000               0.000000000               0.000000000               0.000000000               0.000000000               0.000000000               0.000000000               0.000000000               0.000000000               0.000000000               0.000000000               0.000000000               0.000000000               0.000000000               0.000000000               0.000000000               0.000000000               0.000000000               0.000000000               0.000000000               0.000000000               0.000000000               0.000000000               0.000000000               0.000000000               0.000000000               0.000000000               0.000000000               0.000000000               0.000000000               0.000000000               0.000000000               0.000000000               0.000000000               0.000000000               0.000000000               0.000000000               0.000000000               0.000000000               0.000000000               0.000000000               0.000000000               0.000000000               0.000000000               0.000000000               0.000000000               0.000000000               0.000000000               0.000000000               0.000000000               0.000000000               0.000000000               0.000000000               0.000000000               0.000000000               0.000000000               0.000000000               0.000000000               0.000000000               0.000000000               0.000000000               0.000000000               0.000000000               0.000000000               0.000000000               0.000000000               0.000000000               0.000000000               0.000000000               0.000000000               0.000000000               0.000000000               0.000000000               0.000000000               0.000000000               0.000000000               0.000000000               0.000000000               0.000000000               0.000000000               0.000000000               0.000000000               0.000000000               0.000000000               0.000000000               0.000000000               0.000000000               0.000000000               0.000000000               0.000000000               0.000000000               0.000000000               0.000000000               0.000000000               0.000000000               0.000000000               0.000000000               0.000000000               0.000000000               0.000000000               0.000000000               0.000000000               0.000000000               0.000000000               0.000000000               0.000000000               0.000000000               0.000000000               0.000000000               0.000000000               0.000000000               0.000000000               0.000000000               0.000000000               0.000000000               0.000000000               0.000000000               0.000000000               0.000000000               0.000000000               0.000000000               0.000000000               0.000000000               0.000000000               0.000000000               0.000000000               0.000000000               0.000000000               0.000000000               0.000000000               0.000000000               0.000000000               0.000000000               0.000000000               0.000000000               0.000000000               0.000000000               0.000000000               0.000000000               0.000000000               0.000000000               0.000000000               0.000000000               0.000000000               0.000000000               0.000000000               0.000000000               0.000000000               0.000000000               0.000000000               0.000000000               0.000000000               0.000000000               0.000000000               0.000000000               0.000000000               0.000000000               0.000000000               0.000000000               0.000000000               0.000000000               0.000000000               0.000000000               0.000000000               0.000000000               0.000000000               0.000000000               0.000000000               0.000000000               0.000000000               0.000000000               0.000000000               0.000000000               0.000000000               0.000000000               0.000000000               0.000000000               0.000000000               0.000000000               0.000000000               0.000000000               0.000000000               0.000000000               0.000000000               0.000000000               0.000000000               0.000000000               0.000000000               0.000000000               0.000000000               0.000000000               0.000000000               0.000000000               0.000000000               0.000000000               0.000000000               0.000000000               0.000000000               0.000000000               0.000000000               0.000000000               0.000000000               0.000000000               0.000000000               0.000000000               0.000000000               0.000000000               0.000000000               0.000000000               0.000000000               0.000000000               0.000000000               0.000000000               0.000000000               0.000000000               0.000000000               0.000000000               0.000000000               0.000000000               0.000000000               0.000000000               0.000000000               0.000000000               0.000000000               0.000000000               0.000000000               0.000000000               0.000000000               0.000000000               0.000000000               0.000000000               0.000000000               0.000000000               0.000000000               0.000000000               0.000000000               0.000000000               0.000000000               0.000000000               0.000000000               0.000000000               0.000000000               0.000000000               0.000000000               0.000000000               0.000000000               0.000000000               0.000000000               0.000000000               0.000000000               0.000000000               0.000000000               0.000000000               0.000000000               0.000000000               0.000000000               0.000000000               0.000000000               0.000000000               0.000000000               0.000000000               0.000000000               0.000000000               0.000000000               0.000000000               0.000000000               0.000000000               0.000000000               0.000000000               0.000000000               0.000000000               0.000000000               0.002328636               0.023797613               0.001636112              -0.002101458               0.008632944               0.006531486               0.000000000               0.000000000               0.000000000               0.000000000               0.002130138               0.018485979               0.000778651              -0.001511942               0.006665912               0.005153970               0.000000000               0.000000000               0.000000000               0.000000000               0.002634964               0.014203782              -0.000067754              -0.000787359               0.004997000               0.004209641               0.000000000               0.000000000               0.000000000               0.000000000               0.002405250               0.011765739              -0.000419687              -0.000568747               0.004111456               0.003542709               0.000000000               0.000000000               0.000000000               0.000000000               0.001981891               0.010210114              -0.000558941              -0.000533054               0.003581022               0.003047968               0.000000000               0.000000000               0.000000000               0.000000000               0.001538969               0.009114005              -0.000601649              -0.000562136               0.003225350               0.002663214               0.000000000               0.000000000               0.000000000               0.000000000               0.001133744               0.008275166              -0.000602355              -0.000609240               0.002961441               0.002352201               0.000000000               0.000000000               0.000000000               0.000000000               0.000784672               0.007587632              -0.000585683              -0.000654201               0.002747252               0.002093051               0.000000000               0.000000000               0.000000000               0.000000000               0.000494751               0.006995691              -0.000561507              -0.000688928               0.002561516               0.001872588               0.000000000               0.000000000               0.000000000               0.000000000               0.000255281               0.006452996              -0.000530818              -0.000710892               0.002387941               0.001677049               0.000000000               0.000000000               0.000000000               0.000000000               0.000069687               0.005929910              -0.000497379              -0.000715104               0.002214985               0.001499881               0.000000000               0.000000000               0.000000000               0.000000000              -0.000063192               0.005408228              -0.000460996              -0.000699724               0.002035966               0.001336242               0.000000000               0.000000000               0.000000000               0.000000000              -0.000147522               0.004870672              -0.000416015              -0.000664153               0.001844925               0.001180772               0.000000000               0.000000000               0.000000000               0.000000000              -0.000178111               0.004305582              -0.000358869              -0.000604988               0.001636842               0.001031854               0.000000000               0.000000000               0.000000000               0.000000000              -0.000157516               0.003695638              -0.000275851              -0.000521022               0.001405541               0.000884519               0.000000000               0.000000000               0.000000000               0.000000000              -0.000092770               0.003020253              -0.000155634              -0.000412320               0.001144181               0.000731861               0.000000000               0.000000000               0.000000000               0.000000000              -0.000105435               0.002509833              -0.000097442              -0.000353266               0.000954358               0.000601092               0.000000000               0.000000000               0.000000000               0.000000000               0.002505939               0.022349648               0.003037750              -0.001853975               0.008067800               0.006213824               0.000000000               0.000000000               0.000000000               0.000000000               0.001951117               0.017556328               0.001438942              -0.001462869               0.006339674               0.004876805               0.000000000               0.000000000               0.000000000               0.000000000               0.002078189               0.013821573              -0.000125511              -0.000948373               0.004923269               0.003974896               0.000000000               0.000000000               0.000000000               0.000000000               0.001713547               0.011666716              -0.000749891              -0.000815757               0.004160786               0.003345028               0.000000000               0.000000000               0.000000000               0.000000000               0.001270031               0.010254346              -0.000983310              -0.000805530               0.003686591               0.002881061               0.000000000               0.000000000               0.000000000               0.000000000               0.000862275               0.009232848              -0.001047648              -0.000830751               0.003354502               0.002523751               0.000000000               0.000000000               0.000000000               0.000000000               0.000516223               0.008429307              -0.001039563              -0.000860078               0.003096433               0.002236355               0.000000000               0.000000000               0.000000000               0.000000000               0.000236845               0.007755981              -0.001007296              -0.000880679               0.002878861               0.001998182               0.000000000               0.000000000               0.000000000               0.000000000               0.000025271               0.007166424              -0.000964804              -0.000886325               0.002684225               0.001797901               0.000000000               0.000000000               0.000000000               0.000000000              -0.000127897               0.006620763              -0.000909235              -0.000875555               0.002498750               0.001623196               0.000000000               0.000000000               0.000000000               0.000000000              -0.000227969               0.006096193              -0.000847377              -0.000847511               0.002314547               0.001467037               0.000000000               0.000000000               0.000000000               0.000000000              -0.000283235               0.005580215              -0.000778395              -0.000803738               0.002127966               0.001324228               0.000000000               0.000000000               0.000000000               0.000000000              -0.000294256               0.005065119              -0.000695676              -0.000743484               0.001936184               0.001192700               0.000000000               0.000000000               0.000000000               0.000000000              -0.000260290               0.004548527              -0.000591281              -0.000666173               0.001738218               0.001072045               0.000000000               0.000000000               0.000000000               0.000000000              -0.000191094               0.004028533              -0.000446450              -0.000575226               0.001534573               0.000959347               0.000000000               0.000000000               0.000000000               0.000000000              -0.000100219               0.003505955              -0.000248480              -0.000475825               0.001327248               0.000851423               0.000000000               0.000000000               0.000000000               0.000000000              -0.000090462               0.003142302              -0.000150870              -0.000426710               0.001189660               0.000762950               0.000000000               0.000000000               0.000000000               0.000000000               0.002663867               0.020140633               0.004019302              -0.001518628               0.007219686               0.005701058               0.000000000               0.000000000               0.000000000               0.000000000               0.001617651               0.016174789               0.001901286              -0.001415227               0.005863284               0.004448058               0.000000000               0.000000000               0.000000000               0.000000000               0.001224880               0.013259175              -0.000140382              -0.001198064               0.004819036               0.003620972               0.000000000               0.000000000               0.000000000               0.000000000               0.000704354               0.011499187              -0.000906038              -0.001173263               0.004224112               0.003050849               0.000000000               0.000000000               0.000000000               0.000000000               0.000262891               0.010282841              -0.001171871              -0.001186769               0.003823169               0.002636400               0.000000000               0.000000000               0.000000000               0.000000000              -0.000070322               0.009353058              -0.001233813              -0.001195500               0.003516155               0.002320654               0.000000000               0.000000000               0.000000000               0.000000000              -0.000308949               0.008593094              -0.001214277              -0.001189990               0.003260999               0.002071009               0.000000000               0.000000000               0.000000000               0.000000000              -0.000469613               0.007939514              -0.001169427              -0.001168541               0.003035992               0.001867450               0.000000000               0.000000000               0.000000000               0.000000000              -0.000562775               0.007347689              -0.001113153              -0.001129499               0.002825705               0.001696206               0.000000000               0.000000000               0.000000000               0.000000000              -0.000601868               0.006793055              -0.001041065              -0.001074830               0.002622606               0.001547776               0.000000000               0.000000000               0.000000000               0.000000000              -0.000597377               0.006264630              -0.000960919              -0.001007093               0.002423887               0.001416794               0.000000000               0.000000000               0.000000000               0.000000000              -0.000549483               0.005761657              -0.000871693              -0.000926261               0.002229287               0.001303025               0.000000000               0.000000000               0.000000000               0.000000000              -0.000465250               0.005282524              -0.000763562              -0.000834782               0.002039084               0.001204302               0.000000000               0.000000000               0.000000000               0.000000000              -0.000355722               0.004829631              -0.000632566              -0.000737098               0.001855560               0.001118462               0.000000000               0.000000000               0.000000000               0.000000000              -0.000231788               0.004416852              -0.000464436              -0.000639025               0.001685278               0.001046252               0.000000000               0.000000000               0.000000000               0.000000000              -0.000111594               0.004061963              -0.000249764              -0.000549592               0.001537171               0.000987580               0.000000000               0.000000000               0.000000000               0.000000000              -0.000077069               0.003851138              -0.000143373              -0.000510292               0.001453797               0.000943505               0.000000000               0.000000000               0.000000000               0.000000000               0.002659793               0.017439308               0.004486759              -0.001182491               0.006207207               0.005024716               0.000000000               0.000000000               0.000000000               0.000000000               0.001101726               0.014520483               0.002147696              -0.001401911               0.005307416               0.003905505               0.000000000               0.000000000               0.000000000               0.000000000               0.000166956               0.012586092              -0.000067972              -0.001510649               0.004698872               0.003188223               0.000000000               0.000000000               0.000000000               0.000000000              -0.000446512               0.011255317              -0.000841099              -0.001574353               0.004276519               0.002702166               0.000000000               0.000000000               0.000000000               0.000000000              -0.000819842               0.010234743              -0.001086504              -0.001586780               0.003940473               0.002353694               0.000000000               0.000000000               0.000000000               0.000000000              -0.001028927               0.009394326              -0.001134085              -0.001560135               0.003651455               0.002091321               0.000000000               0.000000000               0.000000000               0.000000000              -0.001123301               0.008673826              -0.001111129              -0.001505463               0.003393067               0.001887605               0.000000000               0.000000000               0.000000000               0.000000000              -0.001143391               0.008029103              -0.001063894              -0.001432406               0.003153810               0.001721403               0.000000000               0.000000000               0.000000000               0.000000000              -0.001104859               0.007433776              -0.001005275              -0.001343541               0.002925747               0.001582206               0.000000000               0.000000000               0.000000000               0.000000000              -0.001018582               0.006872427              -0.000932326              -0.001241019               0.002704459               0.001463440               0.000000000               0.000000000               0.000000000               0.000000000              -0.000897469               0.006347172              -0.000851128              -0.001129945               0.002492351               0.001362406               0.000000000               0.000000000               0.000000000               0.000000000              -0.000750330               0.005862575              -0.000759199              -0.001014193               0.002292236               0.001278043               0.000000000               0.000000000               0.000000000               0.000000000              -0.000587117               0.005424102              -0.000645411              -0.000898180               0.002107409               0.001209229               0.000000000               0.000000000               0.000000000               0.000000000              -0.000417746               0.005038581              -0.000512180              -0.000786475               0.001941669               0.001155193               0.000000000               0.000000000               0.000000000               0.000000000              -0.000257169               0.004719223              -0.000359432              -0.000686340               0.001801838               0.001115499               0.000000000               0.000000000               0.000000000               0.000000000              -0.000121759               0.004487387              -0.000185550              -0.000606581               0.001697974               0.001091393               0.000000000               0.000000000               0.000000000               0.000000000              -0.000073578               0.004375651              -0.000101616              -0.000574547               0.001650051               0.001075504               0.000000000               0.000000000               0.000000000               0.000000000               0.002351285               0.014527386               0.004460588              -0.000934193               0.005153810               0.004219617               0.000000000               0.000000000               0.000000000               0.000000000               0.000401768               0.012768324               0.002217287              -0.001445375               0.004737857               0.003292481               0.000000000               0.000000000               0.000000000               0.000000000              -0.000963085               0.011848933               0.000121402              -0.001842269               0.004563695               0.002721426               0.000000000               0.000000000               0.000000000               0.000000000              -0.001564332               0.010918829              -0.000559496              -0.001951473               0.004290064               0.002338591               0.000000000               0.000000000               0.000000000               0.000000000              -0.001794310               0.010062830              -0.000766370              -0.001930715               0.003997815               0.002067099               0.000000000               0.000000000               0.000000000               0.000000000              -0.001833282               0.009293690              -0.000810665              -0.001849188               0.003714262               0.001865074               0.000000000               0.000000000               0.000000000               0.000000000              -0.001769423               0.008597213              -0.000800817              -0.001738181               0.003445103               0.001706922               0.000000000               0.000000000               0.000000000               0.000000000              -0.001644257               0.007959368              -0.000773264              -0.001611514               0.003190267               0.001578754               0.000000000               0.000000000               0.000000000               0.000000000              -0.001474775               0.007366261              -0.000729388              -0.001473820               0.002946669               0.001472849               0.000000000               0.000000000               0.000000000               0.000000000              -0.001279056               0.006808277              -0.000667930              -0.001330677               0.002712962               0.001382285               0.000000000               0.000000000               0.000000000               0.000000000              -0.001063945               0.006297750              -0.000599990              -0.001186195               0.002494627               0.001308432               0.000000000               0.000000000               0.000000000               0.000000000              -0.000839203               0.005844850              -0.000523583              -0.001045305               0.002296699               0.001251394               0.000000000               0.000000000               0.000000000               0.000000000              -0.000619185               0.005454408              -0.000430042              -0.000913993               0.002122782               0.001208789               0.000000000               0.000000000               0.000000000               0.000000000              -0.000415303               0.005136694              -0.000323224              -0.000797823               0.001978155               0.001180332               0.000000000               0.000000000               0.000000000               0.000000000              -0.000241507               0.004897162              -0.000212107              -0.000702709               0.001866607               0.001163899               0.000000000               0.000000000               0.000000000               0.000000000              -0.000108786               0.004742779              -0.000103425              -0.000633640               0.001792124               0.001158484               0.000000000               0.000000000               0.000000000               0.000000000              -0.000060102               0.004680589              -0.000054845              -0.000607610               0.001762717               0.001155107               0.000000000               0.000000000               0.000000000               0.000000000               0.001676298               0.011644232               0.004032675              -0.000826919               0.004157010               0.003330092               0.000000000               0.000000000               0.000000000               0.000000000              -0.000446929               0.011059323               0.002169688              -0.001550011               0.004203074               0.002653063               0.000000000               0.000000000               0.000000000               0.000000000              -0.002045974               0.011073328               0.000431062              -0.002151401               0.004408206               0.002256805               0.000000000               0.000000000               0.000000000               0.000000000              -0.002508412               0.010468274              -0.000116182              -0.002249183               0.004239118               0.001989935               0.000000000               0.000000000               0.000000000               0.000000000              -0.002538965               0.009742370              -0.000300472              -0.002169903               0.003970725               0.001800822               0.000000000               0.000000000               0.000000000               0.000000000              -0.002392323               0.009031448              -0.000364748              -0.002026047               0.003685802               0.001659754               0.000000000               0.000000000               0.000000000               0.000000000              -0.002167109               0.008359011              -0.000389007              -0.001857538               0.003405488               0.001547951               0.000000000               0.000000000               0.000000000               0.000000000              -0.001909243               0.007728392              -0.000394741              -0.001682011               0.003136775               0.001454764               0.000000000               0.000000000               0.000000000               0.000000000              -0.001631343               0.007141861              -0.000378460              -0.001504483               0.002882091               0.001377608               0.000000000               0.000000000               0.000000000               0.000000000              -0.001343593               0.006605263              -0.000344621              -0.001329502               0.002644899               0.001315397               0.000000000               0.000000000               0.000000000               0.000000000              -0.001056491               0.006131728              -0.000309825              -0.001162647               0.002431438               0.001268791               0.000000000               0.000000000               0.000000000               0.000000000              -0.000780709               0.005731152              -0.000269045              -0.001009157               0.002246751               0.001237593               0.000000000               0.000000000               0.000000000               0.000000000              -0.000535693               0.005403481              -0.000214438              -0.000876318               0.002093248               0.001216930               0.000000000               0.000000000               0.000000000               0.000000000              -0.000333977               0.005153234              -0.000151342              -0.000769394               0.001974192               0.001204798               0.000000000               0.000000000               0.000000000               0.000000000              -0.000179606               0.004982058              -0.000087113              -0.000690108               0.001890705               0.001200598               0.000000000               0.000000000               0.000000000               0.000000000              -0.000073608               0.004886302              -0.000035550              -0.000638389               0.001841547               0.001203158               0.000000000               0.000000000               0.000000000               0.000000000              -0.000037132               0.004854390              -0.000016767              -0.000620722               0.001825021               0.001204299               0.000000000               0.000000000               0.000000000               0.000000000               0.000675551               0.008975948               0.003308942              -0.000868663               0.003281506               0.002412843               0.000000000               0.000000000               0.000000000               0.000000000              -0.001386697               0.009490275               0.002053712              -0.001706293               0.003732157               0.002025864               0.000000000               0.000000000               0.000000000               0.000000000              -0.002975706               0.010261570               0.000842804              -0.002398580               0.004220016               0.001821436               0.000000000               0.000000000               0.000000000               0.000000000              -0.003198314               0.009901794               0.000413740              -0.002437086               0.004112927               0.001675841               0.000000000               0.000000000               0.000000000               0.000000000              -0.002998743               0.009290048               0.000217683              -0.002285779               0.003858578               0.001572799               0.000000000               0.000000000               0.000000000               0.000000000              -0.002673061               0.008633726               0.000110943              -0.002081608               0.003571749               0.001490141               0.000000000               0.000000000               0.000000000               0.000000000              -0.002313158               0.007986117               0.000043756              -0.001865694               0.003283910               0.001418216               0.000000000               0.000000000               0.000000000               0.000000000              -0.001945262               0.007374952              -0.000005159              -0.001651338               0.003008739               0.001357401               0.000000000               0.000000000               0.000000000               0.000000000              -0.001573637               0.006816305              -0.000034428              -0.001442148               0.002752795               0.001310647               0.000000000               0.000000000               0.000000000               0.000000000              -0.001211129               0.006320255              -0.000046788              -0.001244202               0.002521464               0.001277262               0.000000000               0.000000000               0.000000000               0.000000000              -0.000876854               0.005901260              -0.000059558              -0.001066475               0.002322559               0.001256084               0.000000000               0.000000000               0.000000000               0.000000000              -0.000586790               0.005561135              -0.000065551              -0.000915186               0.002158755               0.001243569               0.000000000               0.000000000               0.000000000               0.000000000              -0.000356933               0.005298688              -0.000053826              -0.000796184               0.002031606               0.001235422               0.000000000               0.000000000               0.000000000               0.000000000              -0.000190534               0.005114508              -0.000032896              -0.000710762               0.001941739               0.001230978               0.000000000               0.000000000               0.000000000               0.000000000              -0.000084267               0.005006524              -0.000011607              -0.000657414               0.001887963               0.001230548               0.000000000               0.000000000               0.000000000               0.000000000              -0.000027496               0.004961257               0.000000724              -0.000630466               0.001863891               0.001233425               0.000000000               0.000000000               0.000000000               0.000000000              -0.000012020               0.004951201               0.000002350              -0.000623406               0.001858186               0.001234780               0.000000000               0.000000000               0.000000000               0.000000000              -0.000528518               0.006718040               0.002415870              -0.001037948               0.002585306               0.001547358               0.000000000               0.000000000               0.000000000               0.000000000              -0.002307651               0.008080814               0.001916369              -0.001875467               0.003318733               0.001443266               0.000000000               0.000000000               0.000000000               0.000000000              -0.003696715               0.009443345               0.001327824              -0.002566680               0.004003310               0.001436630               0.000000000               0.000000000               0.000000000               0.000000000              -0.003661545               0.009345360               0.000973858              -0.002541243               0.003962170               0.001420927               0.000000000               0.000000000               0.000000000               0.000000000              -0.003274472               0.008872860               0.000743191              -0.002337029               0.003736600               0.001399571               0.000000000               0.000000000               0.000000000               0.000000000              -0.002808687               0.008291004               0.000584188              -0.002089628               0.003460183               0.001370555               0.000000000               0.000000000               0.000000000               0.000000000              -0.002340443               0.007697527               0.000465869              -0.001839852               0.003179101               0.001339248               0.000000000               0.000000000               0.000000000               0.000000000              -0.001886586               0.007133681               0.000367148              -0.001599176               0.002910929               0.001311752               0.000000000               0.000000000               0.000000000               0.000000000              -0.001442635               0.006613645               0.000286579              -0.001367690               0.002660423               0.001292733               0.000000000               0.000000000               0.000000000               0.000000000              -0.001024773               0.006158367               0.000218181              -0.001154083               0.002437463               0.001283380               0.000000000               0.000000000               0.000000000               0.000000000              -0.000661475               0.005784339               0.000152492              -0.000971093               0.002251791               0.001280698               0.000000000               0.000000000               0.000000000               0.000000000              -0.000376192               0.005481791               0.000097088              -0.000826294               0.002102677               0.001276383               0.000000000               0.000000000               0.000000000               0.000000000              -0.000176513               0.005249724               0.000060054              -0.000722406               0.001990692               0.001268286               0.000000000               0.000000000               0.000000000               0.000000000              -0.000050896               0.005097861               0.000035866              -0.000656317               0.001918042               0.001261726               0.000000000               0.000000000               0.000000000               0.000000000               0.000013678               0.005021253               0.000018874              -0.000622526               0.001881243               0.001258717               0.000000000               0.000000000               0.000000000               0.000000000               0.000028812               0.004994980               0.000006871              -0.000613566               0.001869499               0.001255932               0.000000000               0.000000000               0.000000000               0.000000000               0.000024648               0.004992405               0.000001856              -0.000614806               0.001869054               0.001254248               0.000000000               0.000000000               0.000000000               0.000000000              -0.001934355               0.004615565               0.001471450              -0.001302326               0.001972614               0.000670288               0.000000000               0.000000000               0.000000000               0.000000000              -0.003079335               0.006446510               0.001759308              -0.001960560               0.002802335               0.000841775               0.000000000               0.000000000               0.000000000               0.000000000              -0.004118237               0.008234752               0.001834611              -0.002573677               0.003602782               0.001029105               0.000000000               0.000000000               0.000000000               0.000000000              -0.003942937               0.008528941               0.001569442              -0.002544713               0.003691189               0.001146476               0.000000000               0.000000000               0.000000000               0.000000000              -0.003482541               0.008321976               0.001305757              -0.002346194               0.003556029               0.001209835               0.000000000               0.000000000               0.000000000               0.000000000              -0.002966196               0.007936805               0.001092864              -0.002104419               0.003347048               0.001242629               0.000000000               0.000000000               0.000000000               0.000000000              -0.002459065               0.007489316               0.000919599              -0.001858309               0.003115850               0.001257541               0.000000000               0.000000000               0.000000000               0.000000000              -0.001977899               0.007038286               0.000776760              -0.001621494               0.002886570               0.001265076               0.000000000               0.000000000               0.000000000               0.000000000              -0.001516107               0.006615438               0.000651524              -0.001395467               0.002670280               0.001274813               0.000000000               0.000000000               0.000000000               0.000000000              -0.001079140               0.006230045               0.000530022              -0.001183430               0.002471138               0.001287707               0.000000000               0.000000000               0.000000000               0.000000000              -0.000691061               0.005890454               0.000411794              -0.000995452               0.002295282               0.001299830               0.000000000               0.000000000               0.000000000               0.000000000              -0.000376832               0.005604829               0.000301206              -0.000841913               0.002148896               0.001306982               0.000000000               0.000000000               0.000000000               0.000000000              -0.000150001               0.005370188               0.000205821              -0.000727522               0.002032552               0.001305030               0.000000000               0.000000000               0.000000000               0.000000000              -0.000006533               0.005195200               0.000128207              -0.000651848               0.001948999               0.001297150               0.000000000               0.000000000               0.000000000               0.000000000               0.000065930               0.005079238               0.000065297              -0.000610180               0.001896456               0.001286276               0.000000000               0.000000000               0.000000000               0.000000000               0.000085227               0.005020605               0.000021170              -0.000595614               0.001872056               0.001276442               0.000000000               0.000000000               0.000000000               0.000000000               0.000080930               0.005007516               0.000003871              -0.000595589               0.001867685               0.001272096               0.000000000               0.000000000               0.000000000               0.000000000              -0.003723026               0.002714153               0.000542418              -0.001735400               0.001483174              -0.000252226               0.000000000               0.000000000               0.000000000               0.000000000              -0.003945888               0.004802359               0.001530289              -0.002079998               0.002294102               0.000214104               0.000000000               0.000000000               0.000000000               0.000000000              -0.004443598               0.006816967               0.002236801              -0.002518464               0.003111787               0.000593323               0.000000000               0.000000000               0.000000000               0.000000000              -0.004144154               0.007480777               0.002133210              -0.002489149               0.003323283               0.000834134               0.000000000               0.000000000               0.000000000               0.000000000              -0.003642546               0.007588514               0.001877291              -0.002314514               0.003300983               0.000986470               0.000000000               0.000000000               0.000000000               0.000000000              -0.003105690               0.007446754               0.001631476              -0.002095473               0.003180717               0.001085244               0.000000000               0.000000000               0.000000000               0.000000000              -0.002580388               0.007185364               0.001416886              -0.001865812               0.003017034               0.001151223               0.000000000               0.000000000               0.000000000               0.000000000              -0.002079683               0.006890386               0.001233625              -0.001641176               0.002843831               0.001202655               0.000000000               0.000000000               0.000000000               0.000000000              -0.001610744               0.006591918               0.001070143              -0.001428015               0.002673289               0.001245274               0.000000000               0.000000000               0.000000000               0.000000000              -0.001164954               0.006293584               0.000913720              -0.001223553               0.002505691               0.001282138               0.000000000               0.000000000               0.000000000               0.000000000              -0.000750217               0.006004643               0.000755720              -0.001031909               0.002345497               0.001313588               0.000000000               0.000000000               0.000000000               0.000000000              -0.000390107               0.005743507               0.000596439              -0.000864226               0.002202558               0.001338332               0.000000000               0.000000000               0.000000000               0.000000000              -0.000109811               0.005512626               0.000442579              -0.000730256               0.002080942               0.001350687               0.000000000               0.000000000               0.000000000               0.000000000               0.000082308               0.005314586               0.000301759              -0.000633456               0.001982663               0.001349207               0.000000000               0.000000000               0.000000000               0.000000000               0.000186184               0.005154026               0.000175282              -0.000574433               0.001909469               0.001335036               0.000000000               0.000000000               0.000000000               0.000000000               0.000216993               0.005052356               0.000073152              -0.000550171               0.001867492               0.001317322               0.000000000               0.000000000               0.000000000               0.000000000               0.000206947               0.005013860               0.000026952              -0.000549126               0.001854312               0.001305186               0.000000000               0.000000000               0.000000000               0.000000000              -0.005781985               0.001169730              -0.000284797              -0.002314458               0.001161388              -0.001153070               0.000000000               0.000000000               0.000000000               0.000000000              -0.004960312               0.003254571               0.001211686              -0.002266934               0.001840489              -0.000426445               0.000000000               0.000000000               0.000000000               0.000000000              -0.004713700               0.005208721               0.002415518              -0.002418722               0.002542463               0.000123740               0.000000000               0.000000000               0.000000000               0.000000000              -0.004206566               0.006124133               0.002515260              -0.002342974               0.002822348               0.000479374               0.000000000               0.000000000               0.000000000               0.000000000              -0.003643132               0.006518959               0.002326243              -0.002181040               0.002899977               0.000718937               0.000000000               0.000000000               0.000000000               0.000000000              -0.003088906               0.006629486               0.002085634              -0.001987021               0.002872146               0.000885125               0.000000000               0.000000000               0.000000000               0.000000000              -0.002558791               0.006589526               0.001853889              -0.001783233               0.002790897               0.001007664               0.000000000               0.000000000               0.000000000               0.000000000              -0.002055108               0.006481332               0.001646785              -0.001580828               0.002687365               0.001106536               0.000000000               0.000000000               0.000000000               0.000000000              -0.001577592               0.006336457               0.001463114              -0.001383651               0.002573348               0.001189697               0.000000000               0.000000000               0.000000000               0.000000000              -0.001124709               0.006160921               0.001288729              -0.001191878               0.002450912               0.001259034               0.000000000               0.000000000               0.000000000               0.000000000              -0.000698594               0.005962032               0.001110762              -0.001007225               0.002323065               0.001315841               0.000000000               0.000000000               0.000000000               0.000000000              -0.000307735               0.005756214               0.000922955              -0.000834926               0.002197027               0.001362102               0.000000000               0.000000000               0.000000000               0.000000000               0.000024341               0.005552260               0.000730182              -0.000684903               0.002079036               0.001394133               0.000000000               0.000000000               0.000000000               0.000000000               0.000277215               0.005359800               0.000537420              -0.000566018               0.001975255               0.001409237               0.000000000               0.000000000               0.000000000               0.000000000               0.000438399               0.005195116               0.000344522              -0.000484989               0.001893351               0.001408362               0.000000000               0.000000000               0.000000000               0.000000000               0.000501351               0.005077791               0.000163250              -0.000446716               0.001841485               0.001394769               0.000000000               0.000000000               0.000000000               0.000000000               0.000492868               0.005024442               0.000073839              -0.000443229               0.001822540               0.001379311               0.000000000               0.000000000               0.000000000               0.000000000              -0.007964614               0.000058464              -0.000884507              -0.002994036               0.001017493              -0.001976543               0.000000000               0.000000000               0.000000000               0.000000000              -0.006068448               0.001886786               0.000850993              -0.002511513               0.001466089              -0.001045423               0.000000000               0.000000000               0.000000000               0.000000000              -0.004956439               0.003549939               0.002337561              -0.002302403               0.001950767              -0.000351636               0.000000000               0.000000000               0.000000000               0.000000000              -0.004152602               0.004581479               0.002624214              -0.002129906               0.002237112               0.000107205               0.000000000               0.000000000               0.000000000               0.000000000              -0.003491082               0.005196148               0.002537671              -0.001958670               0.002384921               0.000426251               0.000000000               0.000000000               0.000000000               0.000000000              -0.002913989               0.005543675               0.002341923              -0.001785702               0.002443106               0.000657405               0.000000000               0.000000000               0.000000000               0.000000000              -0.002385214               0.005734560               0.002123959              -0.001611272               0.002448591               0.000837319               0.000000000               0.000000000               0.000000000               0.000000000              -0.001887398               0.005825264               0.001918194              -0.001435929               0.002420378               0.000984448               0.000000000               0.000000000               0.000000000               0.000000000              -0.001416160               0.005841146               0.001733875              -0.001261201               0.002367429               0.001106228               0.000000000               0.000000000               0.000000000               0.000000000              -0.000964710               0.005802892               0.001558214              -0.001087126               0.002296653               0.001209527               0.000000000               0.000000000               0.000000000               0.000000000              -0.000528968               0.005722089               0.001379739              -0.000913623               0.002211885               0.001298262               0.000000000               0.000000000               0.000000000               0.000000000              -0.000112727               0.005607128               0.001190377              -0.000743162               0.002116744               0.001373582               0.000000000               0.000000000               0.000000000               0.000000000               0.000272280               0.005471003               0.000987933              -0.000581769               0.002017572               0.001435803               0.000000000               0.000000000               0.000000000               0.000000000               0.000603477               0.005328186               0.000770278              -0.000439718               0.001922617               0.001482898               0.000000000               0.000000000               0.000000000               0.000000000               0.000858214               0.005198995               0.000529565              -0.000328043               0.001842329               0.001514285               0.000000000               0.000000000               0.000000000               0.000000000               0.001009337               0.005092950               0.000269028              -0.000258117               0.001783672               0.001525555               0.000000000               0.000000000               0.000000000               0.000000000               0.001050206               0.005042247               0.000135134              -0.000236453               0.001759550               0.001523097               0.000000000               0.000000000               0.000000000               0.000000000              -0.010053819              -0.000641124              -0.001151615              -0.003690039               0.001016298              -0.002673741               0.000000000               0.000000000               0.000000000               0.000000000              -0.007172185               0.000779246               0.000515111              -0.002786972               0.001188731              -0.001598241               0.000000000               0.000000000               0.000000000               0.000000000              -0.005180694               0.002011619               0.002005485              -0.002194210               0.001401932              -0.000792277               0.000000000               0.000000000               0.000000000               0.000000000              -0.004022826               0.003037246               0.002399061              -0.001888212               0.001641807              -0.000246405               0.000000000               0.000000000               0.000000000               0.000000000              -0.003231214               0.003793094               0.002407142              -0.001685839               0.001826297               0.000140458               0.000000000               0.000000000               0.000000000               0.000000000              -0.002615586               0.004333181               0.002280709              -0.001522490               0.001951875               0.000429385               0.000000000               0.000000000               0.000000000               0.000000000              -0.002081527               0.004715985               0.002111047              -0.001370068               0.002028668               0.000658600               0.000000000               0.000000000               0.000000000               0.000000000              -0.001594350               0.004979828               0.001934435              -0.001220358               0.002066711               0.000846354               0.000000000               0.000000000               0.000000000               0.000000000              -0.001140083               0.005153840               0.001767857              -0.001071759               0.002075182               0.001003423               0.000000000               0.000000000               0.000000000               0.000000000              -0.000699535               0.005262683               0.001612825              -0.000920159               0.002060929               0.001140770               0.000000000               0.000000000               0.000000000               0.000000000              -0.000257900               0.005317254               0.001458360              -0.000761368               0.002026189               0.001264821               0.000000000               0.000000000               0.000000000               0.000000000               0.000182772               0.005324122               0.001292466              -0.000596975               0.001973681               0.001376706               0.000000000               0.000000000               0.000000000               0.000000000               0.000618228               0.005294669               0.001110301              -0.000429998               0.001908204               0.001478207               0.000000000               0.000000000               0.000000000               0.000000000               0.001036257               0.005238167               0.000902781              -0.000266174               0.001834763               0.001568588               0.000000000               0.000000000               0.000000000               0.000000000               0.001417278               0.005161596               0.000652137              -0.000113720               0.001758422               0.001644701               0.000000000               0.000000000               0.000000000               0.000000000               0.001736149               0.005081470               0.000349401               0.000015871               0.001688516               0.001704387               0.000000000               0.000000000               0.000000000               0.000000000               0.001910602               0.005056662               0.000192273               0.000084392               0.001657406               0.001741798               0.000000000               0.000000000               0.000000000               0.000000000              -0.011801139              -0.001012271              -0.001049561              -0.004298891               0.001095532              -0.003203358               0.000000000               0.000000000               0.000000000               0.000000000              -0.008124552              -0.000020657               0.000258369              -0.003044122               0.001007815              -0.002036308               0.000000000               0.000000000               0.000000000               0.000000000              -0.005375288               0.000764664               0.001461098              -0.002111314               0.000958652              -0.001152662               0.000000000               0.000000000               0.000000000               0.000000000              -0.003880240               0.001709307               0.001832207              -0.001668751               0.001126011              -0.000542740               0.000000000               0.000000000               0.000000000               0.000000000              -0.002944782               0.002532065               0.001889085              -0.001420799               0.001317611              -0.000103187               0.000000000               0.000000000               0.000000000               0.000000000              -0.002271494               0.003195672               0.001829077              -0.001251267               0.001482301               0.000231034               0.000000000               0.000000000               0.000000000               0.000000000              -0.001726923               0.003713513               0.001722194              -0.001111783               0.001608419               0.000496636               0.000000000               0.000000000               0.000000000               0.000000000              -0.001249681               0.004112219               0.001597052              -0.000982656               0.001698277               0.000715621               0.000000000               0.000000000               0.000000000               0.000000000              -0.000805479               0.004423766               0.001475088              -0.000855024               0.001759581               0.000904557               0.000000000               0.000000000               0.000000000               0.000000000              -0.000369460               0.004669954               0.001364931              -0.000722291               0.001797399               0.001075108               0.000000000               0.000000000               0.000000000               0.000000000               0.000072018               0.004851233               0.001254077              -0.000579397               0.001810194               0.001230797               0.000000000               0.000000000               0.000000000               0.000000000               0.000529187               0.004978749               0.001131211              -0.000423898               0.001800866               0.001376967               0.000000000               0.000000000               0.000000000               0.000000000               0.001009618               0.005062863               0.000992801              -0.000254251               0.001772354               0.001518103               0.000000000               0.000000000               0.000000000               0.000000000               0.001512355               0.005099218               0.000828563              -0.000070270               0.001723145               0.001652876               0.000000000               0.000000000               0.000000000               0.000000000               0.002035662               0.005087167               0.000620267               0.000127476               0.001653213               0.001780689               0.000000000               0.000000000               0.000000000               0.000000000               0.002576976               0.005048106               0.000345304               0.000335349               0.001570902               0.001906251               0.000000000               0.000000000               0.000000000               0.000000000               0.002952719               0.005063599               0.000201884               0.000474315               0.001529745               0.002004059               0.000000000               0.000000000               0.000000000               0.000000000              -0.012971932              -0.001168330              -0.000622495              -0.004718430               0.001183359              -0.003535071               0.000000000               0.000000000               0.000000000               0.000000000              -0.008774692              -0.000496934               0.000096529              -0.003228390               0.000910479              -0.002317911               0.000000000               0.000000000               0.000000000               0.000000000              -0.005515217              -0.000045992               0.000768478              -0.002062456               0.000672150              -0.001390306               0.000000000               0.000000000               0.000000000               0.000000000              -0.003776337               0.000809512               0.000991818              -0.001517313               0.000775603              -0.000741711               0.000000000               0.000000000               0.000000000               0.000000000              -0.002720037               0.001647958               0.001041016              -0.001226007               0.000957981              -0.000268025               0.000000000               0.000000000               0.000000000               0.000000000              -0.001997717               0.002373426               0.001022182              -0.001045820               0.001139740               0.000093920               0.000000000               0.000000000               0.000000000               0.000000000              -0.001446256               0.002975643               0.000971935              -0.000914299               0.001296637               0.000382338               0.000000000               0.000000000               0.000000000               0.000000000              -0.000972611               0.003466281               0.000909462              -0.000798013               0.001421419               0.000623407               0.000000000               0.000000000               0.000000000               0.000000000              -0.000527384               0.003869534               0.000848704              -0.000681460               0.001516985               0.000835525               0.000000000               0.000000000               0.000000000               0.000000000              -0.000089772               0.004201915               0.000793943              -0.000558903               0.001586925               0.001028022               0.000000000               0.000000000               0.000000000               0.000000000               0.000352730               0.004466732               0.000736433              -0.000426067               0.001630918               0.001204851               0.000000000               0.000000000               0.000000000               0.000000000               0.000824122               0.004680476               0.000670234              -0.000276014               0.001652148               0.001376134               0.000000000               0.000000000               0.000000000               0.000000000               0.001339083               0.004842620               0.000594680              -0.000103171               0.001648581               0.001545409               0.000000000               0.000000000               0.000000000               0.000000000               0.001909457               0.004948046               0.000503864               0.000097539               0.001616819               0.001714359               0.000000000               0.000000000               0.000000000               0.000000000               0.002551573               0.005002112               0.000385763               0.000331572               0.001556830               0.001888402               0.000000000               0.000000000               0.000000000               0.000000000               0.003288168               0.005012254               0.000219767               0.000606525               0.001468559               0.002075085               0.000000000               0.000000000               0.000000000               0.000000000               0.003854061               0.005068137               0.000132816               0.000811748               0.001418780               0.002230527               0.000000000               0.000000000               0.000000000               0.000000000               0.000000000               0.000000000               0.000000000               0.000000000               0.000000000               0.000000000               0.000000000               0.000000000               0.000000000               0.000000000               0.000000000               0.000000000               0.000000000               0.000000000               0.000000000               0.000000000               0.000000000               0.000000000               0.000000000               0.000000000               0.000000000               0.000000000               0.000000000               0.000000000               0.000000000               0.000000000               0.000000000               0.000000000               0.000000000               0.000000000               0.000000000               0.000000000               0.000000000               0.000000000               0.000000000               0.000000000               0.000000000               0.000000000               0.000000000               0.000000000               0.000000000               0.000000000               0.000000000               0.000000000               0.000000000               0.000000000               0.000000000               0.000000000               0.000000000               0.000000000               0.000000000               0.000000000               0.000000000               0.000000000               0.000000000               0.000000000               0.000000000               0.000000000               0.000000000               0.000000000               0.000000000               0.000000000               0.000000000               0.000000000               0.000000000               0.000000000               0.000000000               0.000000000               0.000000000               0.000000000               0.000000000               0.000000000               0.000000000               0.000000000               0.000000000               0.000000000               0.000000000               0.000000000               0.000000000               0.000000000               0.000000000               0.000000000               0.000000000               0.000000000               0.000000000               0.000000000               0.000000000               0.000000000               0.000000000               0.000000000               0.000000000               0.000000000               0.000000000               0.000000000               0.000000000               0.000000000               0.000000000               0.000000000               0.000000000               0.000000000               0.000000000               0.000000000               0.000000000               0.000000000               0.000000000               0.000000000               0.000000000               0.000000000               0.000000000               0.000000000               0.000000000               0.000000000               0.000000000               0.000000000               0.000000000               0.000000000               0.000000000               0.000000000               0.000000000               0.000000000               0.000000000               0.000000000               0.000000000               0.000000000               0.000000000               0.000000000               0.000000000               0.000000000               0.000000000               0.000000000               0.000000000               0.000000000               0.000000000               0.000000000               0.000000000               0.000000000               0.000000000               0.000000000               0.000000000               0.000000000               0.000000000               0.000000000               0.000000000               0.000000000               0.000000000               0.000000000               0.000000000               0.000000000               0.000000000               0.000000000               0.000000000               0.000000000               0.000000000               0.000000000               0.000000000               0.000000000               0.000000000               0.000000000               0.000000000               0.000000000               0.000000000               0.000000000               0.000000000               0.000000000               0.000000000               0.000000000               0.000000000               0.000000000               0.000000000               0.000000000 </DataArray>
</PointData>
</Piece>
</UnstructuredGrid> </VTKFile>
