<?xml version="1.0"?>
<VTKFile type="UnstructuredGrid" version="0.1">
<UnstructuredGrid>
<Piece NumberOfPoints="      1156" NumberOfCells="      1024">
<Points>
<DataArray type="Float64"                                    Name="coordinates"                                                      NumberOfComponents=" 3" format="ascii">
              0.133000000               0.000000000               0.000000000               0.155937500               0.000000000               0.000000000               0.178875000               0.000000000               0.000000000               0.201812500               0.000000000               0.000000000               0.224750000               0.000000000               0.000000000               0.247687500               0.000000000               0.000000000               0.270625000               0.000000000               0.000000000               0.293562500               0.000000000               0.000000000               0.316500000               0.000000000               0.000000000               0.339437500               0.000000000               0.000000000               0.362375000               0.000000000               0.000000000               0.385312500               0.000000000               0.000000000               0.408250000               0.000000000               0.000000000               0.431187500               0.000000000               0.000000000               0.454125000               0.000000000               0.000000000               0.477062500               0.000000000               0.000000000               0.500000000               0.000000000               0.000000000               0.132359569               0.013036280               0.000000000               0.155337096               0.016127762               0.000000000               0.178314623               0.019219245               0.000000000               0.201292150               0.022310727               0.000000000               0.224269676               0.025402210               0.000000000               0.247247203               0.028493692               0.000000000               0.270224730               0.031585175               0.000000000               0.293202257               0.034676657               0.000000000               0.316179784               0.037768140               0.000000000               0.339157311               0.040859622               0.000000000               0.362134838               0.043951105               0.000000000               0.385112365               0.047042587               0.000000000               0.408089892               0.050134070               0.000000000               0.431067419               0.053225552               0.000000000               0.454044946               0.056317035               0.000000000               0.477022473               0.059408517               0.000000000               0.500000000               0.062500000               0.000000000               0.130444442               0.025947013               0.000000000               0.153541665               0.032137825               0.000000000               0.176638887               0.038328636               0.000000000               0.199736109               0.044519448               0.000000000               0.222833332               0.050710260               0.000000000               0.245930554               0.056901071               0.000000000               0.269027776               0.063091883               0.000000000               0.292124999               0.069282695               0.000000000               0.315222221               0.075473506               0.000000000               0.338319444               0.081664318               0.000000000               0.361416666               0.087855130               0.000000000               0.384513888               0.094045942               0.000000000               0.407611111               0.100236753               0.000000000               0.430708333               0.106427565               0.000000000               0.453805555               0.112618377               0.000000000               0.476902778               0.118809188               0.000000000               0.500000000               0.125000000               0.000000000               0.127273065               0.038607862               0.000000000               0.150568498               0.047913621               0.000000000               0.173863932               0.057219379               0.000000000               0.197159365               0.066525138               0.000000000               0.220454798               0.075830897               0.000000000               0.243750232               0.085136655               0.000000000               0.267045665               0.094442414               0.000000000               0.290341099               0.103748172               0.000000000               0.313636532               0.113053931               0.000000000               0.336931966               0.122359690               0.000000000               0.360227399               0.131665448               0.000000000               0.383522833               0.140971207               0.000000000               0.406818266               0.150276966               0.000000000               0.430113700               0.159582724               0.000000000               0.453409133               0.168888483               0.000000000               0.476704567               0.178194241               0.000000000               0.500000000               0.187500000               0.000000000               0.122875978               0.050896897               0.000000000               0.146446229               0.063340840               0.000000000               0.170016481               0.075784784               0.000000000               0.193586732               0.088228728               0.000000000               0.217156983               0.100672672               0.000000000               0.240727235               0.113116616               0.000000000               0.264297486               0.125560560               0.000000000               0.287867738               0.138004504               0.000000000               0.311437989               0.150448448               0.000000000               0.335008240               0.162892392               0.000000000               0.358578492               0.175336336               0.000000000               0.382148743               0.187780280               0.000000000               0.405718994               0.200224224               0.000000000               0.429289246               0.212668168               0.000000000               0.452859497               0.225112112               0.000000000               0.476429749               0.237556056               0.000000000               0.500000000               0.250000000               0.000000000               0.117295528               0.062695766               0.000000000               0.141214558               0.078308531               0.000000000               0.165133587               0.093921295               0.000000000               0.189052617               0.109534060               0.000000000               0.212971646               0.125146824               0.000000000               0.236890676               0.140759589               0.000000000               0.260809705               0.156372354               0.000000000               0.284728735               0.171985118               0.000000000               0.308647764               0.187597883               0.000000000               0.332566794               0.203210648               0.000000000               0.356485823               0.218823412               0.000000000               0.380404853               0.234436177               0.000000000               0.404323882               0.250048941               0.000000000               0.428242912               0.265661706               0.000000000               0.452161941               0.281274471               0.000000000               0.476080971               0.296887235               0.000000000               0.500000000               0.312500000               0.000000000               0.110585458               0.073890841               0.000000000               0.134923867               0.092710163               0.000000000               0.159262276               0.111529486               0.000000000               0.183600685               0.130348808               0.000000000               0.207939094               0.149168131               0.000000000               0.232277503               0.167987453               0.000000000               0.256615912               0.186806776               0.000000000               0.280954320               0.205626098               0.000000000               0.305292729               0.224445420               0.000000000               0.329631138               0.243264743               0.000000000               0.353969547               0.262084065               0.000000000               0.378307956               0.280903388               0.000000000               0.402646365               0.299722710               0.000000000               0.426984773               0.318542033               0.000000000               0.451323182               0.337361355               0.000000000               0.475661591               0.356180678               0.000000000               0.500000000               0.375000000               0.000000000               0.102810390               0.084374307               0.000000000               0.127634741               0.106444663               0.000000000               0.152459092               0.128515018               0.000000000               0.177283442               0.150585374               0.000000000               0.202107793               0.172655730               0.000000000               0.226932143               0.194726086               0.000000000               0.251756494               0.216796442               0.000000000               0.276580845               0.238866798               0.000000000               0.301405195               0.260937153               0.000000000               0.326229546               0.283007509               0.000000000               0.351053896               0.305077865               0.000000000               0.375878247               0.327148221               0.000000000               0.400702598               0.349218577               0.000000000               0.425526948               0.371288933               0.000000000               0.450351299               0.393359288               0.000000000               0.475175649               0.415429644               0.000000000               0.500000000               0.437500000               0.000000000               0.094045202               0.094045202               0.000000000               0.119417377               0.119417377               0.000000000               0.144789552               0.144789552               0.000000000               0.170161727               0.170161727               0.000000000               0.195533901               0.195533901               0.000000000               0.220906076               0.220906076               0.000000000               0.246278251               0.246278251               0.000000000               0.271650426               0.271650426               0.000000000               0.297022601               0.297022601               0.000000000               0.322394776               0.322394776               0.000000000               0.347766951               0.347766951               0.000000000               0.373139126               0.373139126               0.000000000               0.398511300               0.398511300               0.000000000               0.423883475               0.423883475               0.000000000               0.449255650               0.449255650               0.000000000               0.474627825               0.474627825               0.000000000               0.500000000               0.500000000               0.000000000               0.084374307               0.102810390               0.000000000               0.106444663               0.127634741               0.000000000               0.128515018               0.152459092               0.000000000               0.150585374               0.177283442               0.000000000               0.172655730               0.202107793               0.000000000               0.194726086               0.226932143               0.000000000               0.216796442               0.251756494               0.000000000               0.238866798               0.276580845               0.000000000               0.260937153               0.301405195               0.000000000               0.283007509               0.326229546               0.000000000               0.305077865               0.351053896               0.000000000               0.327148221               0.375878247               0.000000000               0.349218577               0.400702598               0.000000000               0.371288933               0.425526948               0.000000000               0.393359288               0.450351299               0.000000000               0.415429644               0.475175649               0.000000000               0.437500000               0.500000000               0.000000000               0.073890841               0.110585458               0.000000000               0.092710163               0.134923867               0.000000000               0.111529486               0.159262276               0.000000000               0.130348808               0.183600685               0.000000000               0.149168131               0.207939094               0.000000000               0.167987453               0.232277503               0.000000000               0.186806776               0.256615912               0.000000000               0.205626098               0.280954320               0.000000000               0.224445420               0.305292729               0.000000000               0.243264743               0.329631138               0.000000000               0.262084065               0.353969547               0.000000000               0.280903388               0.378307956               0.000000000               0.299722710               0.402646365               0.000000000               0.318542033               0.426984773               0.000000000               0.337361355               0.451323182               0.000000000               0.356180678               0.475661591               0.000000000               0.375000000               0.500000000               0.000000000               0.062695766               0.117295528               0.000000000               0.078308531               0.141214558               0.000000000               0.093921295               0.165133587               0.000000000               0.109534060               0.189052617               0.000000000               0.125146824               0.212971646               0.000000000               0.140759589               0.236890676               0.000000000               0.156372354               0.260809705               0.000000000               0.171985118               0.284728735               0.000000000               0.187597883               0.308647764               0.000000000               0.203210648               0.332566794               0.000000000               0.218823412               0.356485823               0.000000000               0.234436177               0.380404853               0.000000000               0.250048941               0.404323882               0.000000000               0.265661706               0.428242912               0.000000000               0.281274471               0.452161941               0.000000000               0.296887235               0.476080971               0.000000000               0.312500000               0.500000000               0.000000000               0.050896897               0.122875978               0.000000000               0.063340840               0.146446229               0.000000000               0.075784784               0.170016481               0.000000000               0.088228728               0.193586732               0.000000000               0.100672672               0.217156983               0.000000000               0.113116616               0.240727235               0.000000000               0.125560560               0.264297486               0.000000000               0.138004504               0.287867738               0.000000000               0.150448448               0.311437989               0.000000000               0.162892392               0.335008240               0.000000000               0.175336336               0.358578492               0.000000000               0.187780280               0.382148743               0.000000000               0.200224224               0.405718994               0.000000000               0.212668168               0.429289246               0.000000000               0.225112112               0.452859497               0.000000000               0.237556056               0.476429749               0.000000000               0.250000000               0.500000000               0.000000000               0.038607862               0.127273065               0.000000000               0.047913621               0.150568498               0.000000000               0.057219379               0.173863932               0.000000000               0.066525138               0.197159365               0.000000000               0.075830897               0.220454798               0.000000000               0.085136655               0.243750232               0.000000000               0.094442414               0.267045665               0.000000000               0.103748172               0.290341099               0.000000000               0.113053931               0.313636532               0.000000000               0.122359690               0.336931966               0.000000000               0.131665448               0.360227399               0.000000000               0.140971207               0.383522833               0.000000000               0.150276966               0.406818266               0.000000000               0.159582724               0.430113700               0.000000000               0.168888483               0.453409133               0.000000000               0.178194241               0.476704567               0.000000000               0.187500000               0.500000000               0.000000000               0.025947013               0.130444442               0.000000000               0.032137825               0.153541665               0.000000000               0.038328636               0.176638887               0.000000000               0.044519448               0.199736109               0.000000000               0.050710260               0.222833332               0.000000000               0.056901071               0.245930554               0.000000000               0.063091883               0.269027776               0.000000000               0.069282695               0.292124999               0.000000000               0.075473506               0.315222221               0.000000000               0.081664318               0.338319444               0.000000000               0.087855130               0.361416666               0.000000000               0.094045942               0.384513888               0.000000000               0.100236753               0.407611111               0.000000000               0.106427565               0.430708333               0.000000000               0.112618377               0.453805555               0.000000000               0.118809188               0.476902778               0.000000000               0.125000000               0.500000000               0.000000000               0.013036280               0.132359569               0.000000000               0.016127762               0.155337096               0.000000000               0.019219245               0.178314623               0.000000000               0.022310727               0.201292150               0.000000000               0.025402210               0.224269676               0.000000000               0.028493692               0.247247203               0.000000000               0.031585175               0.270224730               0.000000000               0.034676657               0.293202257               0.000000000               0.037768140               0.316179784               0.000000000               0.040859622               0.339157311               0.000000000               0.043951105               0.362134838               0.000000000               0.047042587               0.385112365               0.000000000               0.050134070               0.408089892               0.000000000               0.053225552               0.431067419               0.000000000               0.056317035               0.454044946               0.000000000               0.059408517               0.477022473               0.000000000               0.062500000               0.500000000               0.000000000               0.000000000               0.133000000               0.000000000               0.000000000               0.155937500               0.000000000               0.000000000               0.178875000               0.000000000               0.000000000               0.201812500               0.000000000               0.000000000               0.224750000               0.000000000               0.000000000               0.247687500               0.000000000               0.000000000               0.270625000               0.000000000               0.000000000               0.293562500               0.000000000               0.000000000               0.316500000               0.000000000               0.000000000               0.339437500               0.000000000               0.000000000               0.362375000               0.000000000               0.000000000               0.385312500               0.000000000               0.000000000               0.408250000               0.000000000               0.000000000               0.431187500               0.000000000               0.000000000               0.454125000               0.000000000               0.000000000               0.477062500               0.000000000               0.000000000               0.500000000               0.000000000               0.133000000               0.000000000               0.000000000               0.155937500               0.000000000               0.000000000               0.178875000               0.000000000               0.000000000               0.201812500               0.000000000               0.000000000               0.224750000               0.000000000               0.000000000               0.247687500               0.000000000               0.000000000               0.270625000               0.000000000               0.000000000               0.293562500               0.000000000               0.000000000               0.316500000               0.000000000               0.000000000               0.339437500               0.000000000               0.000000000               0.362375000               0.000000000               0.000000000               0.385312500               0.000000000               0.000000000               0.408250000               0.000000000               0.000000000               0.431187500               0.000000000               0.000000000               0.454125000               0.000000000               0.000000000               0.477062500               0.000000000               0.000000000               0.500000000               0.000000000               0.000000000               0.132359569              -0.013036280               0.000000000               0.155337096              -0.016127762               0.000000000               0.178314623              -0.019219245               0.000000000               0.201292150              -0.022310727               0.000000000               0.224269676              -0.025402210               0.000000000               0.247247203              -0.028493692               0.000000000               0.270224730              -0.031585175               0.000000000               0.293202257              -0.034676657               0.000000000               0.316179784              -0.037768140               0.000000000               0.339157311              -0.040859622               0.000000000               0.362134838              -0.043951105               0.000000000               0.385112365              -0.047042587               0.000000000               0.408089892              -0.050134070               0.000000000               0.431067419              -0.053225552               0.000000000               0.454044946              -0.056317035               0.000000000               0.477022473              -0.059408517               0.000000000               0.500000000              -0.062500000               0.000000000               0.130444442              -0.025947013               0.000000000               0.153541665              -0.032137825               0.000000000               0.176638887              -0.038328636               0.000000000               0.199736109              -0.044519448               0.000000000               0.222833332              -0.050710260               0.000000000               0.245930554              -0.056901071               0.000000000               0.269027776              -0.063091883               0.000000000               0.292124999              -0.069282695               0.000000000               0.315222221              -0.075473506               0.000000000               0.338319444              -0.081664318               0.000000000               0.361416666              -0.087855130               0.000000000               0.384513888              -0.094045942               0.000000000               0.407611111              -0.100236753               0.000000000               0.430708333              -0.106427565               0.000000000               0.453805555              -0.112618377               0.000000000               0.476902778              -0.118809188               0.000000000               0.500000000              -0.125000000               0.000000000               0.127273065              -0.038607862               0.000000000               0.150568498              -0.047913621               0.000000000               0.173863932              -0.057219379               0.000000000               0.197159365              -0.066525138               0.000000000               0.220454798              -0.075830897               0.000000000               0.243750232              -0.085136655               0.000000000               0.267045665              -0.094442414               0.000000000               0.290341099              -0.103748172               0.000000000               0.313636532              -0.113053931               0.000000000               0.336931966              -0.122359690               0.000000000               0.360227399              -0.131665448               0.000000000               0.383522833              -0.140971207               0.000000000               0.406818266              -0.150276966               0.000000000               0.430113700              -0.159582724               0.000000000               0.453409133              -0.168888483               0.000000000               0.476704567              -0.178194241               0.000000000               0.500000000              -0.187500000               0.000000000               0.122875978              -0.050896897               0.000000000               0.146446229              -0.063340840               0.000000000               0.170016481              -0.075784784               0.000000000               0.193586732              -0.088228728               0.000000000               0.217156983              -0.100672672               0.000000000               0.240727235              -0.113116616               0.000000000               0.264297486              -0.125560560               0.000000000               0.287867738              -0.138004504               0.000000000               0.311437989              -0.150448448               0.000000000               0.335008240              -0.162892392               0.000000000               0.358578492              -0.175336336               0.000000000               0.382148743              -0.187780280               0.000000000               0.405718994              -0.200224224               0.000000000               0.429289246              -0.212668168               0.000000000               0.452859497              -0.225112112               0.000000000               0.476429749              -0.237556056               0.000000000               0.500000000              -0.250000000               0.000000000               0.117295528              -0.062695766               0.000000000               0.141214558              -0.078308531               0.000000000               0.165133587              -0.093921295               0.000000000               0.189052617              -0.109534060               0.000000000               0.212971646              -0.125146824               0.000000000               0.236890676              -0.140759589               0.000000000               0.260809705              -0.156372354               0.000000000               0.284728735              -0.171985118               0.000000000               0.308647764              -0.187597883               0.000000000               0.332566794              -0.203210648               0.000000000               0.356485823              -0.218823412               0.000000000               0.380404853              -0.234436177               0.000000000               0.404323882              -0.250048941               0.000000000               0.428242912              -0.265661706               0.000000000               0.452161941              -0.281274471               0.000000000               0.476080971              -0.296887235               0.000000000               0.500000000              -0.312500000               0.000000000               0.110585458              -0.073890841               0.000000000               0.134923867              -0.092710163               0.000000000               0.159262276              -0.111529486               0.000000000               0.183600685              -0.130348808               0.000000000               0.207939094              -0.149168131               0.000000000               0.232277503              -0.167987453               0.000000000               0.256615912              -0.186806776               0.000000000               0.280954320              -0.205626098               0.000000000               0.305292729              -0.224445420               0.000000000               0.329631138              -0.243264743               0.000000000               0.353969547              -0.262084065               0.000000000               0.378307956              -0.280903388               0.000000000               0.402646365              -0.299722710               0.000000000               0.426984773              -0.318542033               0.000000000               0.451323182              -0.337361355               0.000000000               0.475661591              -0.356180678               0.000000000               0.500000000              -0.375000000               0.000000000               0.102810390              -0.084374307               0.000000000               0.127634741              -0.106444663               0.000000000               0.152459092              -0.128515018               0.000000000               0.177283442              -0.150585374               0.000000000               0.202107793              -0.172655730               0.000000000               0.226932143              -0.194726086               0.000000000               0.251756494              -0.216796442               0.000000000               0.276580845              -0.238866798               0.000000000               0.301405195              -0.260937153               0.000000000               0.326229546              -0.283007509               0.000000000               0.351053896              -0.305077865               0.000000000               0.375878247              -0.327148221               0.000000000               0.400702598              -0.349218577               0.000000000               0.425526948              -0.371288933               0.000000000               0.450351299              -0.393359288               0.000000000               0.475175649              -0.415429644               0.000000000               0.500000000              -0.437500000               0.000000000               0.094045202              -0.094045202               0.000000000               0.119417377              -0.119417377               0.000000000               0.144789552              -0.144789552               0.000000000               0.170161727              -0.170161727               0.000000000               0.195533901              -0.195533901               0.000000000               0.220906076              -0.220906076               0.000000000               0.246278251              -0.246278251               0.000000000               0.271650426              -0.271650426               0.000000000               0.297022601              -0.297022601               0.000000000               0.322394776              -0.322394776               0.000000000               0.347766951              -0.347766951               0.000000000               0.373139126              -0.373139126               0.000000000               0.398511300              -0.398511300               0.000000000               0.423883475              -0.423883475               0.000000000               0.449255650              -0.449255650               0.000000000               0.474627825              -0.474627825               0.000000000               0.500000000              -0.500000000               0.000000000               0.084374307              -0.102810390               0.000000000               0.106444663              -0.127634741               0.000000000               0.128515018              -0.152459092               0.000000000               0.150585374              -0.177283442               0.000000000               0.172655730              -0.202107793               0.000000000               0.194726086              -0.226932143               0.000000000               0.216796442              -0.251756494               0.000000000               0.238866798              -0.276580845               0.000000000               0.260937153              -0.301405195               0.000000000               0.283007509              -0.326229546               0.000000000               0.305077865              -0.351053896               0.000000000               0.327148221              -0.375878247               0.000000000               0.349218577              -0.400702598               0.000000000               0.371288933              -0.425526948               0.000000000               0.393359288              -0.450351299               0.000000000               0.415429644              -0.475175649               0.000000000               0.437500000              -0.500000000               0.000000000               0.073890841              -0.110585458               0.000000000               0.092710163              -0.134923867               0.000000000               0.111529486              -0.159262276               0.000000000               0.130348808              -0.183600685               0.000000000               0.149168131              -0.207939094               0.000000000               0.167987453              -0.232277503               0.000000000               0.186806776              -0.256615912               0.000000000               0.205626098              -0.280954320               0.000000000               0.224445420              -0.305292729               0.000000000               0.243264743              -0.329631138               0.000000000               0.262084065              -0.353969547               0.000000000               0.280903388              -0.378307956               0.000000000               0.299722710              -0.402646365               0.000000000               0.318542033              -0.426984773               0.000000000               0.337361355              -0.451323182               0.000000000               0.356180678              -0.475661591               0.000000000               0.375000000              -0.500000000               0.000000000               0.062695766              -0.117295528               0.000000000               0.078308531              -0.141214558               0.000000000               0.093921295              -0.165133587               0.000000000               0.109534060              -0.189052617               0.000000000               0.125146824              -0.212971646               0.000000000               0.140759589              -0.236890676               0.000000000               0.156372354              -0.260809705               0.000000000               0.171985118              -0.284728735               0.000000000               0.187597883              -0.308647764               0.000000000               0.203210648              -0.332566794               0.000000000               0.218823412              -0.356485823               0.000000000               0.234436177              -0.380404853               0.000000000               0.250048941              -0.404323882               0.000000000               0.265661706              -0.428242912               0.000000000               0.281274471              -0.452161941               0.000000000               0.296887235              -0.476080971               0.000000000               0.312500000              -0.500000000               0.000000000               0.050896897              -0.122875978               0.000000000               0.063340840              -0.146446229               0.000000000               0.075784784              -0.170016481               0.000000000               0.088228728              -0.193586732               0.000000000               0.100672672              -0.217156983               0.000000000               0.113116616              -0.240727235               0.000000000               0.125560560              -0.264297486               0.000000000               0.138004504              -0.287867738               0.000000000               0.150448448              -0.311437989               0.000000000               0.162892392              -0.335008240               0.000000000               0.175336336              -0.358578492               0.000000000               0.187780280              -0.382148743               0.000000000               0.200224224              -0.405718994               0.000000000               0.212668168              -0.429289246               0.000000000               0.225112112              -0.452859497               0.000000000               0.237556056              -0.476429749               0.000000000               0.250000000              -0.500000000               0.000000000               0.038607862              -0.127273065               0.000000000               0.047913621              -0.150568498               0.000000000               0.057219379              -0.173863932               0.000000000               0.066525138              -0.197159365               0.000000000               0.075830897              -0.220454798               0.000000000               0.085136655              -0.243750232               0.000000000               0.094442414              -0.267045665               0.000000000               0.103748172              -0.290341099               0.000000000               0.113053931              -0.313636532               0.000000000               0.122359690              -0.336931966               0.000000000               0.131665448              -0.360227399               0.000000000               0.140971207              -0.383522833               0.000000000               0.150276966              -0.406818266               0.000000000               0.159582724              -0.430113700               0.000000000               0.168888483              -0.453409133               0.000000000               0.178194241              -0.476704567               0.000000000               0.187500000              -0.500000000               0.000000000               0.025947013              -0.130444442               0.000000000               0.032137825              -0.153541665               0.000000000               0.038328636              -0.176638887               0.000000000               0.044519448              -0.199736109               0.000000000               0.050710260              -0.222833332               0.000000000               0.056901071              -0.245930554               0.000000000               0.063091883              -0.269027776               0.000000000               0.069282695              -0.292124999               0.000000000               0.075473506              -0.315222221               0.000000000               0.081664318              -0.338319444               0.000000000               0.087855130              -0.361416666               0.000000000               0.094045942              -0.384513888               0.000000000               0.100236753              -0.407611111               0.000000000               0.106427565              -0.430708333               0.000000000               0.112618377              -0.453805555               0.000000000               0.118809188              -0.476902778               0.000000000               0.125000000              -0.500000000               0.000000000               0.013036280              -0.132359569               0.000000000               0.016127762              -0.155337096               0.000000000               0.019219245              -0.178314623               0.000000000               0.022310727              -0.201292150               0.000000000               0.025402210              -0.224269676               0.000000000               0.028493692              -0.247247203               0.000000000               0.031585175              -0.270224730               0.000000000               0.034676657              -0.293202257               0.000000000               0.037768140              -0.316179784               0.000000000               0.040859622              -0.339157311               0.000000000               0.043951105              -0.362134838               0.000000000               0.047042587              -0.385112365               0.000000000               0.050134070              -0.408089892               0.000000000               0.053225552              -0.431067419               0.000000000               0.056317035              -0.454044946               0.000000000               0.059408517              -0.477022473               0.000000000               0.062500000              -0.500000000               0.000000000               0.000000000              -0.133000000               0.000000000               0.000000000              -0.155937500               0.000000000               0.000000000              -0.178875000               0.000000000               0.000000000              -0.201812500               0.000000000               0.000000000              -0.224750000               0.000000000               0.000000000              -0.247687500               0.000000000               0.000000000              -0.270625000               0.000000000               0.000000000              -0.293562500               0.000000000               0.000000000              -0.316500000               0.000000000               0.000000000              -0.339437500               0.000000000               0.000000000              -0.362375000               0.000000000               0.000000000              -0.385312500               0.000000000               0.000000000              -0.408250000               0.000000000               0.000000000              -0.431187500               0.000000000               0.000000000              -0.454125000               0.000000000               0.000000000              -0.477062500               0.000000000               0.000000000              -0.500000000               0.000000000              -0.133000000               0.000000000               0.000000000              -0.155937500               0.000000000               0.000000000              -0.178875000               0.000000000               0.000000000              -0.201812500               0.000000000               0.000000000              -0.224750000               0.000000000               0.000000000              -0.247687500               0.000000000               0.000000000              -0.270625000               0.000000000               0.000000000              -0.293562500               0.000000000               0.000000000              -0.316500000               0.000000000               0.000000000              -0.339437500               0.000000000               0.000000000              -0.362375000               0.000000000               0.000000000              -0.385312500               0.000000000               0.000000000              -0.408250000               0.000000000               0.000000000              -0.431187500               0.000000000               0.000000000              -0.454125000               0.000000000               0.000000000              -0.477062500               0.000000000               0.000000000              -0.500000000               0.000000000               0.000000000              -0.132359569              -0.013036280               0.000000000              -0.155337096              -0.016127762               0.000000000              -0.178314623              -0.019219245               0.000000000              -0.201292150              -0.022310727               0.000000000              -0.224269676              -0.025402210               0.000000000              -0.247247203              -0.028493692               0.000000000              -0.270224730              -0.031585175               0.000000000              -0.293202257              -0.034676657               0.000000000              -0.316179784              -0.037768140               0.000000000              -0.339157311              -0.040859622               0.000000000              -0.362134838              -0.043951105               0.000000000              -0.385112365              -0.047042587               0.000000000              -0.408089892              -0.050134070               0.000000000              -0.431067419              -0.053225552               0.000000000              -0.454044946              -0.056317035               0.000000000              -0.477022473              -0.059408517               0.000000000              -0.500000000              -0.062500000               0.000000000              -0.130444442              -0.025947013               0.000000000              -0.153541665              -0.032137825               0.000000000              -0.176638887              -0.038328636               0.000000000              -0.199736109              -0.044519448               0.000000000              -0.222833332              -0.050710260               0.000000000              -0.245930554              -0.056901071               0.000000000              -0.269027776              -0.063091883               0.000000000              -0.292124999              -0.069282695               0.000000000              -0.315222221              -0.075473506               0.000000000              -0.338319444              -0.081664318               0.000000000              -0.361416666              -0.087855130               0.000000000              -0.384513888              -0.094045942               0.000000000              -0.407611111              -0.100236753               0.000000000              -0.430708333              -0.106427565               0.000000000              -0.453805555              -0.112618377               0.000000000              -0.476902778              -0.118809188               0.000000000              -0.500000000              -0.125000000               0.000000000              -0.127273065              -0.038607862               0.000000000              -0.150568498              -0.047913621               0.000000000              -0.173863932              -0.057219379               0.000000000              -0.197159365              -0.066525138               0.000000000              -0.220454798              -0.075830897               0.000000000              -0.243750232              -0.085136655               0.000000000              -0.267045665              -0.094442414               0.000000000              -0.290341099              -0.103748172               0.000000000              -0.313636532              -0.113053931               0.000000000              -0.336931966              -0.122359690               0.000000000              -0.360227399              -0.131665448               0.000000000              -0.383522833              -0.140971207               0.000000000              -0.406818266              -0.150276966               0.000000000              -0.430113700              -0.159582724               0.000000000              -0.453409133              -0.168888483               0.000000000              -0.476704567              -0.178194241               0.000000000              -0.500000000              -0.187500000               0.000000000              -0.122875978              -0.050896897               0.000000000              -0.146446229              -0.063340840               0.000000000              -0.170016481              -0.075784784               0.000000000              -0.193586732              -0.088228728               0.000000000              -0.217156983              -0.100672672               0.000000000              -0.240727235              -0.113116616               0.000000000              -0.264297486              -0.125560560               0.000000000              -0.287867738              -0.138004504               0.000000000              -0.311437989              -0.150448448               0.000000000              -0.335008240              -0.162892392               0.000000000              -0.358578492              -0.175336336               0.000000000              -0.382148743              -0.187780280               0.000000000              -0.405718994              -0.200224224               0.000000000              -0.429289246              -0.212668168               0.000000000              -0.452859497              -0.225112112               0.000000000              -0.476429749              -0.237556056               0.000000000              -0.500000000              -0.250000000               0.000000000              -0.117295528              -0.062695766               0.000000000              -0.141214558              -0.078308531               0.000000000              -0.165133587              -0.093921295               0.000000000              -0.189052617              -0.109534060               0.000000000              -0.212971646              -0.125146824               0.000000000              -0.236890676              -0.140759589               0.000000000              -0.260809705              -0.156372354               0.000000000              -0.284728735              -0.171985118               0.000000000              -0.308647764              -0.187597883               0.000000000              -0.332566794              -0.203210648               0.000000000              -0.356485823              -0.218823412               0.000000000              -0.380404853              -0.234436177               0.000000000              -0.404323882              -0.250048941               0.000000000              -0.428242912              -0.265661706               0.000000000              -0.452161941              -0.281274471               0.000000000              -0.476080971              -0.296887235               0.000000000              -0.500000000              -0.312500000               0.000000000              -0.110585458              -0.073890841               0.000000000              -0.134923867              -0.092710163               0.000000000              -0.159262276              -0.111529486               0.000000000              -0.183600685              -0.130348808               0.000000000              -0.207939094              -0.149168131               0.000000000              -0.232277503              -0.167987453               0.000000000              -0.256615912              -0.186806776               0.000000000              -0.280954320              -0.205626098               0.000000000              -0.305292729              -0.224445420               0.000000000              -0.329631138              -0.243264743               0.000000000              -0.353969547              -0.262084065               0.000000000              -0.378307956              -0.280903388               0.000000000              -0.402646365              -0.299722710               0.000000000              -0.426984773              -0.318542033               0.000000000              -0.451323182              -0.337361355               0.000000000              -0.475661591              -0.356180678               0.000000000              -0.500000000              -0.375000000               0.000000000              -0.102810390              -0.084374307               0.000000000              -0.127634741              -0.106444663               0.000000000              -0.152459092              -0.128515018               0.000000000              -0.177283442              -0.150585374               0.000000000              -0.202107793              -0.172655730               0.000000000              -0.226932143              -0.194726086               0.000000000              -0.251756494              -0.216796442               0.000000000              -0.276580845              -0.238866798               0.000000000              -0.301405195              -0.260937153               0.000000000              -0.326229546              -0.283007509               0.000000000              -0.351053896              -0.305077865               0.000000000              -0.375878247              -0.327148221               0.000000000              -0.400702598              -0.349218577               0.000000000              -0.425526948              -0.371288933               0.000000000              -0.450351299              -0.393359288               0.000000000              -0.475175649              -0.415429644               0.000000000              -0.500000000              -0.437500000               0.000000000              -0.094045202              -0.094045202               0.000000000              -0.119417377              -0.119417377               0.000000000              -0.144789552              -0.144789552               0.000000000              -0.170161727              -0.170161727               0.000000000              -0.195533901              -0.195533901               0.000000000              -0.220906076              -0.220906076               0.000000000              -0.246278251              -0.246278251               0.000000000              -0.271650426              -0.271650426               0.000000000              -0.297022601              -0.297022601               0.000000000              -0.322394776              -0.322394776               0.000000000              -0.347766951              -0.347766951               0.000000000              -0.373139126              -0.373139126               0.000000000              -0.398511300              -0.398511300               0.000000000              -0.423883475              -0.423883475               0.000000000              -0.449255650              -0.449255650               0.000000000              -0.474627825              -0.474627825               0.000000000              -0.500000000              -0.500000000               0.000000000              -0.084374307              -0.102810390               0.000000000              -0.106444663              -0.127634741               0.000000000              -0.128515018              -0.152459092               0.000000000              -0.150585374              -0.177283442               0.000000000              -0.172655730              -0.202107793               0.000000000              -0.194726086              -0.226932143               0.000000000              -0.216796442              -0.251756494               0.000000000              -0.238866798              -0.276580845               0.000000000              -0.260937153              -0.301405195               0.000000000              -0.283007509              -0.326229546               0.000000000              -0.305077865              -0.351053896               0.000000000              -0.327148221              -0.375878247               0.000000000              -0.349218577              -0.400702598               0.000000000              -0.371288933              -0.425526948               0.000000000              -0.393359288              -0.450351299               0.000000000              -0.415429644              -0.475175649               0.000000000              -0.437500000              -0.500000000               0.000000000              -0.073890841              -0.110585458               0.000000000              -0.092710163              -0.134923867               0.000000000              -0.111529486              -0.159262276               0.000000000              -0.130348808              -0.183600685               0.000000000              -0.149168131              -0.207939094               0.000000000              -0.167987453              -0.232277503               0.000000000              -0.186806776              -0.256615912               0.000000000              -0.205626098              -0.280954320               0.000000000              -0.224445420              -0.305292729               0.000000000              -0.243264743              -0.329631138               0.000000000              -0.262084065              -0.353969547               0.000000000              -0.280903388              -0.378307956               0.000000000              -0.299722710              -0.402646365               0.000000000              -0.318542033              -0.426984773               0.000000000              -0.337361355              -0.451323182               0.000000000              -0.356180678              -0.475661591               0.000000000              -0.375000000              -0.500000000               0.000000000              -0.062695766              -0.117295528               0.000000000              -0.078308531              -0.141214558               0.000000000              -0.093921295              -0.165133587               0.000000000              -0.109534060              -0.189052617               0.000000000              -0.125146824              -0.212971646               0.000000000              -0.140759589              -0.236890676               0.000000000              -0.156372354              -0.260809705               0.000000000              -0.171985118              -0.284728735               0.000000000              -0.187597883              -0.308647764               0.000000000              -0.203210648              -0.332566794               0.000000000              -0.218823412              -0.356485823               0.000000000              -0.234436177              -0.380404853               0.000000000              -0.250048941              -0.404323882               0.000000000              -0.265661706              -0.428242912               0.000000000              -0.281274471              -0.452161941               0.000000000              -0.296887235              -0.476080971               0.000000000              -0.312500000              -0.500000000               0.000000000              -0.050896897              -0.122875978               0.000000000              -0.063340840              -0.146446229               0.000000000              -0.075784784              -0.170016481               0.000000000              -0.088228728              -0.193586732               0.000000000              -0.100672672              -0.217156983               0.000000000              -0.113116616              -0.240727235               0.000000000              -0.125560560              -0.264297486               0.000000000              -0.138004504              -0.287867738               0.000000000              -0.150448448              -0.311437989               0.000000000              -0.162892392              -0.335008240               0.000000000              -0.175336336              -0.358578492               0.000000000              -0.187780280              -0.382148743               0.000000000              -0.200224224              -0.405718994               0.000000000              -0.212668168              -0.429289246               0.000000000              -0.225112112              -0.452859497               0.000000000              -0.237556056              -0.476429749               0.000000000              -0.250000000              -0.500000000               0.000000000              -0.038607862              -0.127273065               0.000000000              -0.047913621              -0.150568498               0.000000000              -0.057219379              -0.173863932               0.000000000              -0.066525138              -0.197159365               0.000000000              -0.075830897              -0.220454798               0.000000000              -0.085136655              -0.243750232               0.000000000              -0.094442414              -0.267045665               0.000000000              -0.103748172              -0.290341099               0.000000000              -0.113053931              -0.313636532               0.000000000              -0.122359690              -0.336931966               0.000000000              -0.131665448              -0.360227399               0.000000000              -0.140971207              -0.383522833               0.000000000              -0.150276966              -0.406818266               0.000000000              -0.159582724              -0.430113700               0.000000000              -0.168888483              -0.453409133               0.000000000              -0.178194241              -0.476704567               0.000000000              -0.187500000              -0.500000000               0.000000000              -0.025947013              -0.130444442               0.000000000              -0.032137825              -0.153541665               0.000000000              -0.038328636              -0.176638887               0.000000000              -0.044519448              -0.199736109               0.000000000              -0.050710260              -0.222833332               0.000000000              -0.056901071              -0.245930554               0.000000000              -0.063091883              -0.269027776               0.000000000              -0.069282695              -0.292124999               0.000000000              -0.075473506              -0.315222221               0.000000000              -0.081664318              -0.338319444               0.000000000              -0.087855130              -0.361416666               0.000000000              -0.094045942              -0.384513888               0.000000000              -0.100236753              -0.407611111               0.000000000              -0.106427565              -0.430708333               0.000000000              -0.112618377              -0.453805555               0.000000000              -0.118809188              -0.476902778               0.000000000              -0.125000000              -0.500000000               0.000000000              -0.013036280              -0.132359569               0.000000000              -0.016127762              -0.155337096               0.000000000              -0.019219245              -0.178314623               0.000000000              -0.022310727              -0.201292150               0.000000000              -0.025402210              -0.224269676               0.000000000              -0.028493692              -0.247247203               0.000000000              -0.031585175              -0.270224730               0.000000000              -0.034676657              -0.293202257               0.000000000              -0.037768140              -0.316179784               0.000000000              -0.040859622              -0.339157311               0.000000000              -0.043951105              -0.362134838               0.000000000              -0.047042587              -0.385112365               0.000000000              -0.050134070              -0.408089892               0.000000000              -0.053225552              -0.431067419               0.000000000              -0.056317035              -0.454044946               0.000000000              -0.059408517              -0.477022473               0.000000000              -0.062500000              -0.500000000               0.000000000               0.000000000              -0.133000000               0.000000000               0.000000000              -0.155937500               0.000000000               0.000000000              -0.178875000               0.000000000               0.000000000              -0.201812500               0.000000000               0.000000000              -0.224750000               0.000000000               0.000000000              -0.247687500               0.000000000               0.000000000              -0.270625000               0.000000000               0.000000000              -0.293562500               0.000000000               0.000000000              -0.316500000               0.000000000               0.000000000              -0.339437500               0.000000000               0.000000000              -0.362375000               0.000000000               0.000000000              -0.385312500               0.000000000               0.000000000              -0.408250000               0.000000000               0.000000000              -0.431187500               0.000000000               0.000000000              -0.454125000               0.000000000               0.000000000              -0.477062500               0.000000000               0.000000000              -0.500000000               0.000000000              -0.133000000               0.000000000               0.000000000              -0.155937500               0.000000000               0.000000000              -0.178875000               0.000000000               0.000000000              -0.201812500               0.000000000               0.000000000              -0.224750000               0.000000000               0.000000000              -0.247687500               0.000000000               0.000000000              -0.270625000               0.000000000               0.000000000              -0.293562500               0.000000000               0.000000000              -0.316500000               0.000000000               0.000000000              -0.339437500               0.000000000               0.000000000              -0.362375000               0.000000000               0.000000000              -0.385312500               0.000000000               0.000000000              -0.408250000               0.000000000               0.000000000              -0.431187500               0.000000000               0.000000000              -0.454125000               0.000000000               0.000000000              -0.477062500               0.000000000               0.000000000              -0.500000000               0.000000000               0.000000000              -0.132359569               0.013036280               0.000000000              -0.155337096               0.016127762               0.000000000              -0.178314623               0.019219245               0.000000000              -0.201292150               0.022310727               0.000000000              -0.224269676               0.025402210               0.000000000              -0.247247203               0.028493692               0.000000000              -0.270224730               0.031585175               0.000000000              -0.293202257               0.034676657               0.000000000              -0.316179784               0.037768140               0.000000000              -0.339157311               0.040859622               0.000000000              -0.362134838               0.043951105               0.000000000              -0.385112365               0.047042587               0.000000000              -0.408089892               0.050134070               0.000000000              -0.431067419               0.053225552               0.000000000              -0.454044946               0.056317035               0.000000000              -0.477022473               0.059408517               0.000000000              -0.500000000               0.062500000               0.000000000              -0.130444442               0.025947013               0.000000000              -0.153541665               0.032137825               0.000000000              -0.176638887               0.038328636               0.000000000              -0.199736109               0.044519448               0.000000000              -0.222833332               0.050710260               0.000000000              -0.245930554               0.056901071               0.000000000              -0.269027776               0.063091883               0.000000000              -0.292124999               0.069282695               0.000000000              -0.315222221               0.075473506               0.000000000              -0.338319444               0.081664318               0.000000000              -0.361416666               0.087855130               0.000000000              -0.384513888               0.094045942               0.000000000              -0.407611111               0.100236753               0.000000000              -0.430708333               0.106427565               0.000000000              -0.453805555               0.112618377               0.000000000              -0.476902778               0.118809188               0.000000000              -0.500000000               0.125000000               0.000000000              -0.127273065               0.038607862               0.000000000              -0.150568498               0.047913621               0.000000000              -0.173863932               0.057219379               0.000000000              -0.197159365               0.066525138               0.000000000              -0.220454798               0.075830897               0.000000000              -0.243750232               0.085136655               0.000000000              -0.267045665               0.094442414               0.000000000              -0.290341099               0.103748172               0.000000000              -0.313636532               0.113053931               0.000000000              -0.336931966               0.122359690               0.000000000              -0.360227399               0.131665448               0.000000000              -0.383522833               0.140971207               0.000000000              -0.406818266               0.150276966               0.000000000              -0.430113700               0.159582724               0.000000000              -0.453409133               0.168888483               0.000000000              -0.476704567               0.178194241               0.000000000              -0.500000000               0.187500000               0.000000000              -0.122875978               0.050896897               0.000000000              -0.146446229               0.063340840               0.000000000              -0.170016481               0.075784784               0.000000000              -0.193586732               0.088228728               0.000000000              -0.217156983               0.100672672               0.000000000              -0.240727235               0.113116616               0.000000000              -0.264297486               0.125560560               0.000000000              -0.287867738               0.138004504               0.000000000              -0.311437989               0.150448448               0.000000000              -0.335008240               0.162892392               0.000000000              -0.358578492               0.175336336               0.000000000              -0.382148743               0.187780280               0.000000000              -0.405718994               0.200224224               0.000000000              -0.429289246               0.212668168               0.000000000              -0.452859497               0.225112112               0.000000000              -0.476429749               0.237556056               0.000000000              -0.500000000               0.250000000               0.000000000              -0.117295528               0.062695766               0.000000000              -0.141214558               0.078308531               0.000000000              -0.165133587               0.093921295               0.000000000              -0.189052617               0.109534060               0.000000000              -0.212971646               0.125146824               0.000000000              -0.236890676               0.140759589               0.000000000              -0.260809705               0.156372354               0.000000000              -0.284728735               0.171985118               0.000000000              -0.308647764               0.187597883               0.000000000              -0.332566794               0.203210648               0.000000000              -0.356485823               0.218823412               0.000000000              -0.380404853               0.234436177               0.000000000              -0.404323882               0.250048941               0.000000000              -0.428242912               0.265661706               0.000000000              -0.452161941               0.281274471               0.000000000              -0.476080971               0.296887235               0.000000000              -0.500000000               0.312500000               0.000000000              -0.110585458               0.073890841               0.000000000              -0.134923867               0.092710163               0.000000000              -0.159262276               0.111529486               0.000000000              -0.183600685               0.130348808               0.000000000              -0.207939094               0.149168131               0.000000000              -0.232277503               0.167987453               0.000000000              -0.256615912               0.186806776               0.000000000              -0.280954320               0.205626098               0.000000000              -0.305292729               0.224445420               0.000000000              -0.329631138               0.243264743               0.000000000              -0.353969547               0.262084065               0.000000000              -0.378307956               0.280903388               0.000000000              -0.402646365               0.299722710               0.000000000              -0.426984773               0.318542033               0.000000000              -0.451323182               0.337361355               0.000000000              -0.475661591               0.356180678               0.000000000              -0.500000000               0.375000000               0.000000000              -0.102810390               0.084374307               0.000000000              -0.127634741               0.106444663               0.000000000              -0.152459092               0.128515018               0.000000000              -0.177283442               0.150585374               0.000000000              -0.202107793               0.172655730               0.000000000              -0.226932143               0.194726086               0.000000000              -0.251756494               0.216796442               0.000000000              -0.276580845               0.238866798               0.000000000              -0.301405195               0.260937153               0.000000000              -0.326229546               0.283007509               0.000000000              -0.351053896               0.305077865               0.000000000              -0.375878247               0.327148221               0.000000000              -0.400702598               0.349218577               0.000000000              -0.425526948               0.371288933               0.000000000              -0.450351299               0.393359288               0.000000000              -0.475175649               0.415429644               0.000000000              -0.500000000               0.437500000               0.000000000              -0.094045202               0.094045202               0.000000000              -0.119417377               0.119417377               0.000000000              -0.144789552               0.144789552               0.000000000              -0.170161727               0.170161727               0.000000000              -0.195533901               0.195533901               0.000000000              -0.220906076               0.220906076               0.000000000              -0.246278251               0.246278251               0.000000000              -0.271650426               0.271650426               0.000000000              -0.297022601               0.297022601               0.000000000              -0.322394776               0.322394776               0.000000000              -0.347766951               0.347766951               0.000000000              -0.373139126               0.373139126               0.000000000              -0.398511300               0.398511300               0.000000000              -0.423883475               0.423883475               0.000000000              -0.449255650               0.449255650               0.000000000              -0.474627825               0.474627825               0.000000000              -0.500000000               0.500000000               0.000000000              -0.084374307               0.102810390               0.000000000              -0.106444663               0.127634741               0.000000000              -0.128515018               0.152459092               0.000000000              -0.150585374               0.177283442               0.000000000              -0.172655730               0.202107793               0.000000000              -0.194726086               0.226932143               0.000000000              -0.216796442               0.251756494               0.000000000              -0.238866798               0.276580845               0.000000000              -0.260937153               0.301405195               0.000000000              -0.283007509               0.326229546               0.000000000              -0.305077865               0.351053896               0.000000000              -0.327148221               0.375878247               0.000000000              -0.349218577               0.400702598               0.000000000              -0.371288933               0.425526948               0.000000000              -0.393359288               0.450351299               0.000000000              -0.415429644               0.475175649               0.000000000              -0.437500000               0.500000000               0.000000000              -0.073890841               0.110585458               0.000000000              -0.092710163               0.134923867               0.000000000              -0.111529486               0.159262276               0.000000000              -0.130348808               0.183600685               0.000000000              -0.149168131               0.207939094               0.000000000              -0.167987453               0.232277503               0.000000000              -0.186806776               0.256615912               0.000000000              -0.205626098               0.280954320               0.000000000              -0.224445420               0.305292729               0.000000000              -0.243264743               0.329631138               0.000000000              -0.262084065               0.353969547               0.000000000              -0.280903388               0.378307956               0.000000000              -0.299722710               0.402646365               0.000000000              -0.318542033               0.426984773               0.000000000              -0.337361355               0.451323182               0.000000000              -0.356180678               0.475661591               0.000000000              -0.375000000               0.500000000               0.000000000              -0.062695766               0.117295528               0.000000000              -0.078308531               0.141214558               0.000000000              -0.093921295               0.165133587               0.000000000              -0.109534060               0.189052617               0.000000000              -0.125146824               0.212971646               0.000000000              -0.140759589               0.236890676               0.000000000              -0.156372354               0.260809705               0.000000000              -0.171985118               0.284728735               0.000000000              -0.187597883               0.308647764               0.000000000              -0.203210648               0.332566794               0.000000000              -0.218823412               0.356485823               0.000000000              -0.234436177               0.380404853               0.000000000              -0.250048941               0.404323882               0.000000000              -0.265661706               0.428242912               0.000000000              -0.281274471               0.452161941               0.000000000              -0.296887235               0.476080971               0.000000000              -0.312500000               0.500000000               0.000000000              -0.050896897               0.122875978               0.000000000              -0.063340840               0.146446229               0.000000000              -0.075784784               0.170016481               0.000000000              -0.088228728               0.193586732               0.000000000              -0.100672672               0.217156983               0.000000000              -0.113116616               0.240727235               0.000000000              -0.125560560               0.264297486               0.000000000              -0.138004504               0.287867738               0.000000000              -0.150448448               0.311437989               0.000000000              -0.162892392               0.335008240               0.000000000              -0.175336336               0.358578492               0.000000000              -0.187780280               0.382148743               0.000000000              -0.200224224               0.405718994               0.000000000              -0.212668168               0.429289246               0.000000000              -0.225112112               0.452859497               0.000000000              -0.237556056               0.476429749               0.000000000              -0.250000000               0.500000000               0.000000000              -0.038607862               0.127273065               0.000000000              -0.047913621               0.150568498               0.000000000              -0.057219379               0.173863932               0.000000000              -0.066525138               0.197159365               0.000000000              -0.075830897               0.220454798               0.000000000              -0.085136655               0.243750232               0.000000000              -0.094442414               0.267045665               0.000000000              -0.103748172               0.290341099               0.000000000              -0.113053931               0.313636532               0.000000000              -0.122359690               0.336931966               0.000000000              -0.131665448               0.360227399               0.000000000              -0.140971207               0.383522833               0.000000000              -0.150276966               0.406818266               0.000000000              -0.159582724               0.430113700               0.000000000              -0.168888483               0.453409133               0.000000000              -0.178194241               0.476704567               0.000000000              -0.187500000               0.500000000               0.000000000              -0.025947013               0.130444442               0.000000000              -0.032137825               0.153541665               0.000000000              -0.038328636               0.176638887               0.000000000              -0.044519448               0.199736109               0.000000000              -0.050710260               0.222833332               0.000000000              -0.056901071               0.245930554               0.000000000              -0.063091883               0.269027776               0.000000000              -0.069282695               0.292124999               0.000000000              -0.075473506               0.315222221               0.000000000              -0.081664318               0.338319444               0.000000000              -0.087855130               0.361416666               0.000000000              -0.094045942               0.384513888               0.000000000              -0.100236753               0.407611111               0.000000000              -0.106427565               0.430708333               0.000000000              -0.112618377               0.453805555               0.000000000              -0.118809188               0.476902778               0.000000000              -0.125000000               0.500000000               0.000000000              -0.013036280               0.132359569               0.000000000              -0.016127762               0.155337096               0.000000000              -0.019219245               0.178314623               0.000000000              -0.022310727               0.201292150               0.000000000              -0.025402210               0.224269676               0.000000000              -0.028493692               0.247247203               0.000000000              -0.031585175               0.270224730               0.000000000              -0.034676657               0.293202257               0.000000000              -0.037768140               0.316179784               0.000000000              -0.040859622               0.339157311               0.000000000              -0.043951105               0.362134838               0.000000000              -0.047042587               0.385112365               0.000000000              -0.050134070               0.408089892               0.000000000              -0.053225552               0.431067419               0.000000000              -0.056317035               0.454044946               0.000000000              -0.059408517               0.477022473               0.000000000              -0.062500000               0.500000000               0.000000000               0.000000000               0.133000000               0.000000000               0.000000000               0.155937500               0.000000000               0.000000000               0.178875000               0.000000000               0.000000000               0.201812500               0.000000000               0.000000000               0.224750000               0.000000000               0.000000000               0.247687500               0.000000000               0.000000000               0.270625000               0.000000000               0.000000000               0.293562500               0.000000000               0.000000000               0.316500000               0.000000000               0.000000000               0.339437500               0.000000000               0.000000000               0.362375000               0.000000000               0.000000000               0.385312500               0.000000000               0.000000000               0.408250000               0.000000000               0.000000000               0.431187500               0.000000000               0.000000000               0.454125000               0.000000000               0.000000000               0.477062500               0.000000000               0.000000000               0.500000000               0.000000000 </DataArray>
</Points>
<Cells>
<DataArray type="Int32"                                    Name="connectivity"                                                      NumberOfComponents=" 1" format="ascii">
         0          1         18         17          1          2         19         18          2          3         20         19          3          4         21         20          4          5         22         21          5          6         23         22          6          7         24         23          7          8         25         24          8          9         26         25          9         10         27         26         10         11         28         27         11         12         29         28         12         13         30         29         13         14         31         30         14         15         32         31         15         16         33         32         17         18         35         34         18         19         36         35         19         20         37         36         20         21         38         37         21         22         39         38         22         23         40         39         23         24         41         40         24         25         42         41         25         26         43         42         26         27         44         43         27         28         45         44         28         29         46         45         29         30         47         46         30         31         48         47         31         32         49         48         32         33         50         49         34         35         52         51         35         36         53         52         36         37         54         53         37         38         55         54         38         39         56         55         39         40         57         56         40         41         58         57         41         42         59         58         42         43         60         59         43         44         61         60         44         45         62         61         45         46         63         62         46         47         64         63         47         48         65         64         48         49         66         65         49         50         67         66         51         52         69         68         52         53         70         69         53         54         71         70         54         55         72         71         55         56         73         72         56         57         74         73         57         58         75         74         58         59         76         75         59         60         77         76         60         61         78         77         61         62         79         78         62         63         80         79         63         64         81         80         64         65         82         81         65         66         83         82         66         67         84         83         68         69         86         85         69         70         87         86         70         71         88         87         71         72         89         88         72         73         90         89         73         74         91         90         74         75         92         91         75         76         93         92         76         77         94         93         77         78         95         94         78         79         96         95         79         80         97         96         80         81         98         97         81         82         99         98         82         83        100         99         83         84        101        100         85         86        103        102         86         87        104        103         87         88        105        104         88         89        106        105         89         90        107        106         90         91        108        107         91         92        109        108         92         93        110        109         93         94        111        110         94         95        112        111         95         96        113        112         96         97        114        113         97         98        115        114         98         99        116        115         99        100        117        116        100        101        118        117        102        103        120        119        103        104        121        120        104        105        122        121        105        106        123        122        106        107        124        123        107        108        125        124        108        109        126        125        109        110        127        126        110        111        128        127        111        112        129        128        112        113        130        129        113        114        131        130        114        115        132        131        115        116        133        132        116        117        134        133        117        118        135        134        119        120        137        136        120        121        138        137        121        122        139        138        122        123        140        139        123        124        141        140        124        125        142        141        125        126        143        142        126        127        144        143        127        128        145        144        128        129        146        145        129        130        147        146        130        131        148        147        131        132        149        148        132        133        150        149        133        134        151        150        134        135        152        151        136        137        154        153        137        138        155        154        138        139        156        155        139        140        157        156        140        141        158        157        141        142        159        158        142        143        160        159        143        144        161        160        144        145        162        161        145        146        163        162        146        147        164        163        147        148        165        164        148        149        166        165        149        150        167        166        150        151        168        167        151        152        169        168        153        154        171        170        154        155        172        171        155        156        173        172        156        157        174        173        157        158        175        174        158        159        176        175        159        160        177        176        160        161        178        177        161        162        179        178        162        163        180        179        163        164        181        180        164        165        182        181        165        166        183        182        166        167        184        183        167        168        185        184        168        169        186        185        170        171        188        187        171        172        189        188        172        173        190        189        173        174        191        190        174        175        192        191        175        176        193        192        176        177        194        193        177        178        195        194        178        179        196        195        179        180        197        196        180        181        198        197        181        182        199        198        182        183        200        199        183        184        201        200        184        185        202        201        185        186        203        202        187        188        205        204        188        189        206        205        189        190        207        206        190        191        208        207        191        192        209        208        192        193        210        209        193        194        211        210        194        195        212        211        195        196        213        212        196        197        214        213        197        198        215        214        198        199        216        215        199        200        217        216        200        201        218        217        201        202        219        218        202        203        220        219        204        205        222        221        205        206        223        222        206        207        224        223        207        208        225        224        208        209        226        225        209        210        227        226        210        211        228        227        211        212        229        228        212        213        230        229        213        214        231        230        214        215        232        231        215        216        233        232        216        217        234        233        217        218        235        234        218        219        236        235        219        220        237        236        221        222        239        238        222        223        240        239        223        224        241        240        224        225        242        241        225        226        243        242        226        227        244        243        227        228        245        244        228        229        246        245        229        230        247        246        230        231        248        247        231        232        249        248        232        233        250        249        233        234        251        250        234        235        252        251        235        236        253        252        236        237        254        253        238        239        256        255        239        240        257        256        240        241        258        257        241        242        259        258        242        243        260        259        243        244        261        260        244        245        262        261        245        246        263        262        246        247        264        263        247        248        265        264        248        249        266        265        249        250        267        266        250        251        268        267        251        252        269        268        252        253        270        269        253        254        271        270        255        256        273        272        256        257        274        273        257        258        275        274        258        259        276        275        259        260        277        276        260        261        278        277        261        262        279        278        262        263        280        279        263        264        281        280        264        265        282        281        265        266        283        282        266        267        284        283        267        268        285        284        268        269        286        285        269        270        287        286        270        271        288        287        306        307          1          0        307        308          2          1        308        309          3          2        309        310          4          3        310        311          5          4        311        312          6          5        312        313          7          6        313        314          8          7        314        315          9          8        315        316         10          9        316        317         11         10        317        318         12         11        318        319         13         12        319        320         14         13        320        321         15         14        321        322         16         15        323        324        307        306        324        325        308        307        325        326        309        308        326        327        310        309        327        328        311        310        328        329        312        311        329        330        313        312        330        331        314        313        331        332        315        314        332        333        316        315        333        334        317        316        334        335        318        317        335        336        319        318        336        337        320        319        337        338        321        320        338        339        322        321        340        341        324        323        341        342        325        324        342        343        326        325        343        344        327        326        344        345        328        327        345        346        329        328        346        347        330        329        347        348        331        330        348        349        332        331        349        350        333        332        350        351        334        333        351        352        335        334        352        353        336        335        353        354        337        336        354        355        338        337        355        356        339        338        357        358        341        340        358        359        342        341        359        360        343        342        360        361        344        343        361        362        345        344        362        363        346        345        363        364        347        346        364        365        348        347        365        366        349        348        366        367        350        349        367        368        351        350        368        369        352        351        369        370        353        352        370        371        354        353        371        372        355        354        372        373        356        355        374        375        358        357        375        376        359        358        376        377        360        359        377        378        361        360        378        379        362        361        379        380        363        362        380        381        364        363        381        382        365        364        382        383        366        365        383        384        367        366        384        385        368        367        385        386        369        368        386        387        370        369        387        388        371        370        388        389        372        371        389        390        373        372        391        392        375        374        392        393        376        375        393        394        377        376        394        395        378        377        395        396        379        378        396        397        380        379        397        398        381        380        398        399        382        381        399        400        383        382        400        401        384        383        401        402        385        384        402        403        386        385        403        404        387        386        404        405        388        387        405        406        389        388        406        407        390        389        408        409        392        391        409        410        393        392        410        411        394        393        411        412        395        394        412        413        396        395        413        414        397        396        414        415        398        397        415        416        399        398        416        417        400        399        417        418        401        400        418        419        402        401        419        420        403        402        420        421        404        403        421        422        405        404        422        423        406        405        423        424        407        406        425        426        409        408        426        427        410        409        427        428        411        410        428        429        412        411        429        430        413        412        430        431        414        413        431        432        415        414        432        433        416        415        433        434        417        416        434        435        418        417        435        436        419        418        436        437        420        419        437        438        421        420        438        439        422        421        439        440        423        422        440        441        424        423        442        443        426        425        443        444        427        426        444        445        428        427        445        446        429        428        446        447        430        429        447        448        431        430        448        449        432        431        449        450        433        432        450        451        434        433        451        452        435        434        452        453        436        435        453        454        437        436        454        455        438        437        455        456        439        438        456        457        440        439        457        458        441        440        459        460        443        442        460        461        444        443        461        462        445        444        462        463        446        445        463        464        447        446        464        465        448        447        465        466        449        448        466        467        450        449        467        468        451        450        468        469        452        451        469        470        453        452        470        471        454        453        471        472        455        454        472        473        456        455        473        474        457        456        474        475        458        457        476        477        460        459        477        478        461        460        478        479        462        461        479        480        463        462        480        481        464        463        481        482        465        464        482        483        466        465        483        484        467        466        484        485        468        467        485        486        469        468        486        487        470        469        487        488        471        470        488        489        472        471        489        490        473        472        490        491        474        473        491        492        475        474        493        494        477        476        494        495        478        477        495        496        479        478        496        497        480        479        497        498        481        480        498        499        482        481        499        500        483        482        500        501        484        483        501        502        485        484        502        503        486        485        503        504        487        486        504        505        488        487        505        506        489        488        506        507        490        489        507        508        491        490        508        509        492        491        510        511        494        493        511        512        495        494        512        513        496        495        513        514        497        496        514        515        498        497        515        516        499        498        516        517        500        499        517        518        501        500        518        519        502        501        519        520        503        502        520        521        504        503        521        522        505        504        522        523        506        505        523        524        507        506        524        525        508        507        525        526        509        508        527        528        511        510        528        529        512        511        529        530        513        512        530        531        514        513        531        532        515        514        532        533        516        515        533        534        517        516        534        535        518        517        535        536        519        518        536        537        520        519        537        538        521        520        538        539        522        521        539        540        523        522        540        541        524        523        541        542        525        524        542        543        526        525        544        545        528        527        545        546        529        528        546        547        530        529        547        548        531        530        548        549        532        531        549        550        533        532        550        551        534        533        551        552        535        534        552        553        536        535        553        554        537        536        554        555        538        537        555        556        539        538        556        557        540        539        557        558        541        540        558        559        542        541        559        560        543        542        561        562        545        544        562        563        546        545        563        564        547        546        564        565        548        547        565        566        549        548        566        567        550        549        567        568        551        550        568        569        552        551        569        570        553        552        570        571        554        553        571        572        555        554        572        573        556        555        573        574        557        556        574        575        558        557        575        576        559        558        576        577        560        559        578        579        596        595        579        580        597        596        580        581        598        597        581        582        599        598        582        583        600        599        583        584        601        600        584        585        602        601        585        586        603        602        586        587        604        603        587        588        605        604        588        589        606        605        589        590        607        606        590        591        608        607        591        592        609        608        592        593        610        609        593        594        611        610        595        596        613        612        596        597        614        613        597        598        615        614        598        599        616        615        599        600        617        616        600        601        618        617        601        602        619        618        602        603        620        619        603        604        621        620        604        605        622        621        605        606        623        622        606        607        624        623        607        608        625        624        608        609        626        625        609        610        627        626        610        611        628        627        612        613        630        629        613        614        631        630        614        615        632        631        615        616        633        632        616        617        634        633        617        618        635        634        618        619        636        635        619        620        637        636        620        621        638        637        621        622        639        638        622        623        640        639        623        624        641        640        624        625        642        641        625        626        643        642        626        627        644        643        627        628        645        644        629        630        647        646        630        631        648        647        631        632        649        648        632        633        650        649        633        634        651        650        634        635        652        651        635        636        653        652        636        637        654        653        637        638        655        654        638        639        656        655        639        640        657        656        640        641        658        657        641        642        659        658        642        643        660        659        643        644        661        660        644        645        662        661        646        647        664        663        647        648        665        664        648        649        666        665        649        650        667        666        650        651        668        667        651        652        669        668        652        653        670        669        653        654        671        670        654        655        672        671        655        656        673        672        656        657        674        673        657        658        675        674        658        659        676        675        659        660        677        676        660        661        678        677        661        662        679        678        663        664        681        680        664        665        682        681        665        666        683        682        666        667        684        683        667        668        685        684        668        669        686        685        669        670        687        686        670        671        688        687        671        672        689        688        672        673        690        689        673        674        691        690        674        675        692        691        675        676        693        692        676        677        694        693        677        678        695        694        678        679        696        695        680        681        698        697        681        682        699        698        682        683        700        699        683        684        701        700        684        685        702        701        685        686        703        702        686        687        704        703        687        688        705        704        688        689        706        705        689        690        707        706        690        691        708        707        691        692        709        708        692        693        710        709        693        694        711        710        694        695        712        711        695        696        713        712        697        698        715        714        698        699        716        715        699        700        717        716        700        701        718        717        701        702        719        718        702        703        720        719        703        704        721        720        704        705        722        721        705        706        723        722        706        707        724        723        707        708        725        724        708        709        726        725        709        710        727        726        710        711        728        727        711        712        729        728        712        713        730        729        714        715        732        731        715        716        733        732        716        717        734        733        717        718        735        734        718        719        736        735        719        720        737        736        720        721        738        737        721        722        739        738        722        723        740        739        723        724        741        740        724        725        742        741        725        726        743        742        726        727        744        743        727        728        745        744        728        729        746        745        729        730        747        746        731        732        749        748        732        733        750        749        733        734        751        750        734        735        752        751        735        736        753        752        736        737        754        753        737        738        755        754        738        739        756        755        739        740        757        756        740        741        758        757        741        742        759        758        742        743        760        759        743        744        761        760        744        745        762        761        745        746        763        762        746        747        764        763        748        749        766        765        749        750        767        766        750        751        768        767        751        752        769        768        752        753        770        769        753        754        771        770        754        755        772        771        755        756        773        772        756        757        774        773        757        758        775        774        758        759        776        775        759        760        777        776        760        761        778        777        761        762        779        778        762        763        780        779        763        764        781        780        765        766        783        782        766        767        784        783        767        768        785        784        768        769        786        785        769        770        787        786        770        771        788        787        771        772        789        788        772        773        790        789        773        774        791        790        774        775        792        791        775        776        793        792        776        777        794        793        777        778        795        794        778        779        796        795        779        780        797        796        780        781        798        797        782        783        800        799        783        784        801        800        784        785        802        801        785        786        803        802        786        787        804        803        787        788        805        804        788        789        806        805        789        790        807        806        790        791        808        807        791        792        809        808        792        793        810        809        793        794        811        810        794        795        812        811        795        796        813        812        796        797        814        813        797        798        815        814        799        800        817        816        800        801        818        817        801        802        819        818        802        803        820        819        803        804        821        820        804        805        822        821        805        806        823        822        806        807        824        823        807        808        825        824        808        809        826        825        809        810        827        826        810        811        828        827        811        812        829        828        812        813        830        829        813        814        831        830        814        815        832        831        816        817        834        833        817        818        835        834        818        819        836        835        819        820        837        836        820        821        838        837        821        822        839        838        822        823        840        839        823        824        841        840        824        825        842        841        825        826        843        842        826        827        844        843        827        828        845        844        828        829        846        845        829        830        847        846        830        831        848        847        831        832        849        848        833        834        562        561        834        835        563        562        835        836        564        563        836        837        565        564        837        838        566        565        838        839        567        566        839        840        568        567        840        841        569        568        841        842        570        569        842        843        571        570        843        844        572        571        844        845        573        572        845        846        574        573        846        847        575        574        847        848        576        575        848        849        577        576        884        885        579        578        885        886        580        579        886        887        581        580        887        888        582        581        888        889        583        582        889        890        584        583        890        891        585        584        891        892        586        585        892        893        587        586        893        894        588        587        894        895        589        588        895        896        590        589        896        897        591        590        897        898        592        591        898        899        593        592        899        900        594        593        901        902        885        884        902        903        886        885        903        904        887        886        904        905        888        887        905        906        889        888        906        907        890        889        907        908        891        890        908        909        892        891        909        910        893        892        910        911        894        893        911        912        895        894        912        913        896        895        913        914        897        896        914        915        898        897        915        916        899        898        916        917        900        899        918        919        902        901        919        920        903        902        920        921        904        903        921        922        905        904        922        923        906        905        923        924        907        906        924        925        908        907        925        926        909        908        926        927        910        909        927        928        911        910        928        929        912        911        929        930        913        912        930        931        914        913        931        932        915        914        932        933        916        915        933        934        917        916        935        936        919        918        936        937        920        919        937        938        921        920        938        939        922        921        939        940        923        922        940        941        924        923        941        942        925        924        942        943        926        925        943        944        927        926        944        945        928        927        945        946        929        928        946        947        930        929        947        948        931        930        948        949        932        931        949        950        933        932        950        951        934        933        952        953        936        935        953        954        937        936        954        955        938        937        955        956        939        938        956        957        940        939        957        958        941        940        958        959        942        941        959        960        943        942        960        961        944        943        961        962        945        944        962        963        946        945        963        964        947        946        964        965        948        947        965        966        949        948        966        967        950        949        967        968        951        950        969        970        953        952        970        971        954        953        971        972        955        954        972        973        956        955        973        974        957        956        974        975        958        957        975        976        959        958        976        977        960        959        977        978        961        960        978        979        962        961        979        980        963        962        980        981        964        963        981        982        965        964        982        983        966        965        983        984        967        966        984        985        968        967        986        987        970        969        987        988        971        970        988        989        972        971        989        990        973        972        990        991        974        973        991        992        975        974        992        993        976        975        993        994        977        976        994        995        978        977        995        996        979        978        996        997        980        979        997        998        981        980        998        999        982        981        999       1000        983        982       1000       1001        984        983       1001       1002        985        984       1003       1004        987        986       1004       1005        988        987       1005       1006        989        988       1006       1007        990        989       1007       1008        991        990       1008       1009        992        991       1009       1010        993        992       1010       1011        994        993       1011       1012        995        994       1012       1013        996        995       1013       1014        997        996       1014       1015        998        997       1015       1016        999        998       1016       1017       1000        999       1017       1018       1001       1000       1018       1019       1002       1001       1020       1021       1004       1003       1021       1022       1005       1004       1022       1023       1006       1005       1023       1024       1007       1006       1024       1025       1008       1007       1025       1026       1009       1008       1026       1027       1010       1009       1027       1028       1011       1010       1028       1029       1012       1011       1029       1030       1013       1012       1030       1031       1014       1013       1031       1032       1015       1014       1032       1033       1016       1015       1033       1034       1017       1016       1034       1035       1018       1017       1035       1036       1019       1018       1037       1038       1021       1020       1038       1039       1022       1021       1039       1040       1023       1022       1040       1041       1024       1023       1041       1042       1025       1024       1042       1043       1026       1025       1043       1044       1027       1026       1044       1045       1028       1027       1045       1046       1029       1028       1046       1047       1030       1029       1047       1048       1031       1030       1048       1049       1032       1031       1049       1050       1033       1032       1050       1051       1034       1033       1051       1052       1035       1034       1052       1053       1036       1035       1054       1055       1038       1037       1055       1056       1039       1038       1056       1057       1040       1039       1057       1058       1041       1040       1058       1059       1042       1041       1059       1060       1043       1042       1060       1061       1044       1043       1061       1062       1045       1044       1062       1063       1046       1045       1063       1064       1047       1046       1064       1065       1048       1047       1065       1066       1049       1048       1066       1067       1050       1049       1067       1068       1051       1050       1068       1069       1052       1051       1069       1070       1053       1052       1071       1072       1055       1054       1072       1073       1056       1055       1073       1074       1057       1056       1074       1075       1058       1057       1075       1076       1059       1058       1076       1077       1060       1059       1077       1078       1061       1060       1078       1079       1062       1061       1079       1080       1063       1062       1080       1081       1064       1063       1081       1082       1065       1064       1082       1083       1066       1065       1083       1084       1067       1066       1084       1085       1068       1067       1085       1086       1069       1068       1086       1087       1070       1069       1088       1089       1072       1071       1089       1090       1073       1072       1090       1091       1074       1073       1091       1092       1075       1074       1092       1093       1076       1075       1093       1094       1077       1076       1094       1095       1078       1077       1095       1096       1079       1078       1096       1097       1080       1079       1097       1098       1081       1080       1098       1099       1082       1081       1099       1100       1083       1082       1100       1101       1084       1083       1101       1102       1085       1084       1102       1103       1086       1085       1103       1104       1087       1086       1105       1106       1089       1088       1106       1107       1090       1089       1107       1108       1091       1090       1108       1109       1092       1091       1109       1110       1093       1092       1110       1111       1094       1093       1111       1112       1095       1094       1112       1113       1096       1095       1113       1114       1097       1096       1114       1115       1098       1097       1115       1116       1099       1098       1116       1117       1100       1099       1117       1118       1101       1100       1118       1119       1102       1101       1119       1120       1103       1102       1120       1121       1104       1103       1122       1123       1106       1105       1123       1124       1107       1106       1124       1125       1108       1107       1125       1126       1109       1108       1126       1127       1110       1109       1127       1128       1111       1110       1128       1129       1112       1111       1129       1130       1113       1112       1130       1131       1114       1113       1131       1132       1115       1114       1132       1133       1116       1115       1133       1134       1117       1116       1134       1135       1118       1117       1135       1136       1119       1118       1136       1137       1120       1119       1137       1138       1121       1120        272        273       1123       1122        273        274       1124       1123        274        275       1125       1124        275        276       1126       1125        276        277       1127       1126        277        278       1128       1127        278        279       1129       1128        279        280       1130       1129        280        281       1131       1130        281        282       1132       1131        282        283       1133       1132        283        284       1134       1133        284        285       1135       1134        285        286       1136       1135        286        287       1137       1136        287        288       1138       1137 </DataArray>
<DataArray type="Int32"                                    Name="offsets"                                                      NumberOfComponents=" 1" format="ascii">
         4          8         12         16         20         24         28         32         36         40         44         48         52         56         60         64         68         72         76         80         84         88         92         96        100        104        108        112        116        120        124        128        132        136        140        144        148        152        156        160        164        168        172        176        180        184        188        192        196        200        204        208        212        216        220        224        228        232        236        240        244        248        252        256        260        264        268        272        276        280        284        288        292        296        300        304        308        312        316        320        324        328        332        336        340        344        348        352        356        360        364        368        372        376        380        384        388        392        396        400        404        408        412        416        420        424        428        432        436        440        444        448        452        456        460        464        468        472        476        480        484        488        492        496        500        504        508        512        516        520        524        528        532        536        540        544        548        552        556        560        564        568        572        576        580        584        588        592        596        600        604        608        612        616        620        624        628        632        636        640        644        648        652        656        660        664        668        672        676        680        684        688        692        696        700        704        708        712        716        720        724        728        732        736        740        744        748        752        756        760        764        768        772        776        780        784        788        792        796        800        804        808        812        816        820        824        828        832        836        840        844        848        852        856        860        864        868        872        876        880        884        888        892        896        900        904        908        912        916        920        924        928        932        936        940        944        948        952        956        960        964        968        972        976        980        984        988        992        996       1000       1004       1008       1012       1016       1020       1024       1028       1032       1036       1040       1044       1048       1052       1056       1060       1064       1068       1072       1076       1080       1084       1088       1092       1096       1100       1104       1108       1112       1116       1120       1124       1128       1132       1136       1140       1144       1148       1152       1156       1160       1164       1168       1172       1176       1180       1184       1188       1192       1196       1200       1204       1208       1212       1216       1220       1224       1228       1232       1236       1240       1244       1248       1252       1256       1260       1264       1268       1272       1276       1280       1284       1288       1292       1296       1300       1304       1308       1312       1316       1320       1324       1328       1332       1336       1340       1344       1348       1352       1356       1360       1364       1368       1372       1376       1380       1384       1388       1392       1396       1400       1404       1408       1412       1416       1420       1424       1428       1432       1436       1440       1444       1448       1452       1456       1460       1464       1468       1472       1476       1480       1484       1488       1492       1496       1500       1504       1508       1512       1516       1520       1524       1528       1532       1536       1540       1544       1548       1552       1556       1560       1564       1568       1572       1576       1580       1584       1588       1592       1596       1600       1604       1608       1612       1616       1620       1624       1628       1632       1636       1640       1644       1648       1652       1656       1660       1664       1668       1672       1676       1680       1684       1688       1692       1696       1700       1704       1708       1712       1716       1720       1724       1728       1732       1736       1740       1744       1748       1752       1756       1760       1764       1768       1772       1776       1780       1784       1788       1792       1796       1800       1804       1808       1812       1816       1820       1824       1828       1832       1836       1840       1844       1848       1852       1856       1860       1864       1868       1872       1876       1880       1884       1888       1892       1896       1900       1904       1908       1912       1916       1920       1924       1928       1932       1936       1940       1944       1948       1952       1956       1960       1964       1968       1972       1976       1980       1984       1988       1992       1996       2000       2004       2008       2012       2016       2020       2024       2028       2032       2036       2040       2044       2048       2052       2056       2060       2064       2068       2072       2076       2080       2084       2088       2092       2096       2100       2104       2108       2112       2116       2120       2124       2128       2132       2136       2140       2144       2148       2152       2156       2160       2164       2168       2172       2176       2180       2184       2188       2192       2196       2200       2204       2208       2212       2216       2220       2224       2228       2232       2236       2240       2244       2248       2252       2256       2260       2264       2268       2272       2276       2280       2284       2288       2292       2296       2300       2304       2308       2312       2316       2320       2324       2328       2332       2336       2340       2344       2348       2352       2356       2360       2364       2368       2372       2376       2380       2384       2388       2392       2396       2400       2404       2408       2412       2416       2420       2424       2428       2432       2436       2440       2444       2448       2452       2456       2460       2464       2468       2472       2476       2480       2484       2488       2492       2496       2500       2504       2508       2512       2516       2520       2524       2528       2532       2536       2540       2544       2548       2552       2556       2560       2564       2568       2572       2576       2580       2584       2588       2592       2596       2600       2604       2608       2612       2616       2620       2624       2628       2632       2636       2640       2644       2648       2652       2656       2660       2664       2668       2672       2676       2680       2684       2688       2692       2696       2700       2704       2708       2712       2716       2720       2724       2728       2732       2736       2740       2744       2748       2752       2756       2760       2764       2768       2772       2776       2780       2784       2788       2792       2796       2800       2804       2808       2812       2816       2820       2824       2828       2832       2836       2840       2844       2848       2852       2856       2860       2864       2868       2872       2876       2880       2884       2888       2892       2896       2900       2904       2908       2912       2916       2920       2924       2928       2932       2936       2940       2944       2948       2952       2956       2960       2964       2968       2972       2976       2980       2984       2988       2992       2996       3000       3004       3008       3012       3016       3020       3024       3028       3032       3036       3040       3044       3048       3052       3056       3060       3064       3068       3072       3076       3080       3084       3088       3092       3096       3100       3104       3108       3112       3116       3120       3124       3128       3132       3136       3140       3144       3148       3152       3156       3160       3164       3168       3172       3176       3180       3184       3188       3192       3196       3200       3204       3208       3212       3216       3220       3224       3228       3232       3236       3240       3244       3248       3252       3256       3260       3264       3268       3272       3276       3280       3284       3288       3292       3296       3300       3304       3308       3312       3316       3320       3324       3328       3332       3336       3340       3344       3348       3352       3356       3360       3364       3368       3372       3376       3380       3384       3388       3392       3396       3400       3404       3408       3412       3416       3420       3424       3428       3432       3436       3440       3444       3448       3452       3456       3460       3464       3468       3472       3476       3480       3484       3488       3492       3496       3500       3504       3508       3512       3516       3520       3524       3528       3532       3536       3540       3544       3548       3552       3556       3560       3564       3568       3572       3576       3580       3584       3588       3592       3596       3600       3604       3608       3612       3616       3620       3624       3628       3632       3636       3640       3644       3648       3652       3656       3660       3664       3668       3672       3676       3680       3684       3688       3692       3696       3700       3704       3708       3712       3716       3720       3724       3728       3732       3736       3740       3744       3748       3752       3756       3760       3764       3768       3772       3776       3780       3784       3788       3792       3796       3800       3804       3808       3812       3816       3820       3824       3828       3832       3836       3840       3844       3848       3852       3856       3860       3864       3868       3872       3876       3880       3884       3888       3892       3896       3900       3904       3908       3912       3916       3920       3924       3928       3932       3936       3940       3944       3948       3952       3956       3960       3964       3968       3972       3976       3980       3984       3988       3992       3996       4000       4004       4008       4012       4016       4020       4024       4028       4032       4036       4040       4044       4048       4052       4056       4060       4064       4068       4072       4076       4080       4084       4088       4092       4096 </DataArray>
<DataArray type="UInt8"                                    Name="types"                                                      NumberOfComponents=" 1" format="ascii">
         9          9          9          9          9          9          9          9          9          9          9          9          9          9          9          9          9          9          9          9          9          9          9          9          9          9          9          9          9          9          9          9          9          9          9          9          9          9          9          9          9          9          9          9          9          9          9          9          9          9          9          9          9          9          9          9          9          9          9          9          9          9          9          9          9          9          9          9          9          9          9          9          9          9          9          9          9          9          9          9          9          9          9          9          9          9          9          9          9          9          9          9          9          9          9          9          9          9          9          9          9          9          9          9          9          9          9          9          9          9          9          9          9          9          9          9          9          9          9          9          9          9          9          9          9          9          9          9          9          9          9          9          9          9          9          9          9          9          9          9          9          9          9          9          9          9          9          9          9          9          9          9          9          9          9          9          9          9          9          9          9          9          9          9          9          9          9          9          9          9          9          9          9          9          9          9          9          9          9          9          9          9          9          9          9          9          9          9          9          9          9          9          9          9          9          9          9          9          9          9          9          9          9          9          9          9          9          9          9          9          9          9          9          9          9          9          9          9          9          9          9          9          9          9          9          9          9          9          9          9          9          9          9          9          9          9          9          9          9          9          9          9          9          9          9          9          9          9          9          9          9          9          9          9          9          9          9          9          9          9          9          9          9          9          9          9          9          9          9          9          9          9          9          9          9          9          9          9          9          9          9          9          9          9          9          9          9          9          9          9          9          9          9          9          9          9          9          9          9          9          9          9          9          9          9          9          9          9          9          9          9          9          9          9          9          9          9          9          9          9          9          9          9          9          9          9          9          9          9          9          9          9          9          9          9          9          9          9          9          9          9          9          9          9          9          9          9          9          9          9          9          9          9          9          9          9          9          9          9          9          9          9          9          9          9          9          9          9          9          9          9          9          9          9          9          9          9          9          9          9          9          9          9          9          9          9          9          9          9          9          9          9          9          9          9          9          9          9          9          9          9          9          9          9          9          9          9          9          9          9          9          9          9          9          9          9          9          9          9          9          9          9          9          9          9          9          9          9          9          9          9          9          9          9          9          9          9          9          9          9          9          9          9          9          9          9          9          9          9          9          9          9          9          9          9          9          9          9          9          9          9          9          9          9          9          9          9          9          9          9          9          9          9          9          9          9          9          9          9          9          9          9          9          9          9          9          9          9          9          9          9          9          9          9          9          9          9          9          9          9          9          9          9          9          9          9          9          9          9          9          9          9          9          9          9          9          9          9          9          9          9          9          9          9          9          9          9          9          9          9          9          9          9          9          9          9          9          9          9          9          9          9          9          9          9          9          9          9          9          9          9          9          9          9          9          9          9          9          9          9          9          9          9          9          9          9          9          9          9          9          9          9          9          9          9          9          9          9          9          9          9          9          9          9          9          9          9          9          9          9          9          9          9          9          9          9          9          9          9          9          9          9          9          9          9          9          9          9          9          9          9          9          9          9          9          9          9          9          9          9          9          9          9          9          9          9          9          9          9          9          9          9          9          9          9          9          9          9          9          9          9          9          9          9          9          9          9          9          9          9          9          9          9          9          9          9          9          9          9          9          9          9          9          9          9          9          9          9          9          9          9          9          9          9          9          9          9          9          9          9          9          9          9          9          9          9          9          9          9          9          9          9          9          9          9          9          9          9          9          9          9          9          9          9          9          9          9          9          9          9          9          9          9          9          9          9          9          9          9          9          9          9          9          9          9          9          9          9          9          9          9          9          9          9          9          9          9          9          9          9          9          9          9          9          9          9          9          9          9          9          9          9          9          9          9          9          9          9          9          9          9          9          9          9          9          9          9          9          9          9          9          9          9          9          9          9          9          9          9          9          9          9          9          9          9          9          9          9          9          9          9          9          9          9          9          9          9          9          9          9          9          9          9          9          9          9          9          9          9          9          9          9          9          9          9          9          9          9          9          9          9          9          9          9          9          9          9          9          9          9          9          9          9          9          9          9          9          9          9          9          9          9          9          9          9          9          9          9          9          9          9          9          9          9          9          9          9          9          9          9          9          9          9          9          9          9          9          9          9          9          9          9          9          9          9          9          9          9          9          9          9          9          9          9          9          9          9          9          9          9          9          9          9          9          9          9          9          9          9          9          9          9          9          9          9          9          9          9          9          9          9          9          9          9          9          9          9          9          9          9          9          9          9          9          9          9          9          9          9          9          9          9          9          9          9          9          9          9          9          9          9          9          9          9          9          9          9          9          9          9          9          9          9          9          9          9          9          9          9          9          9          9          9          9          9          9          9          9          9          9          9          9          9          9          9          9          9          9          9          9          9          9          9          9          9          9          9          9          9          9          9          9          9          9          9          9          9          9          9          9          9          9          9          9          9          9          9          9          9          9          9          9          9          9          9          9          9          9          9          9          9          9          9          9 </DataArray>
</Cells>
<CellData>
<DataArray type="Int32"                                    Name="material"                                                      NumberOfComponents=" 1" format="ascii">
         1          1          1          1          1          1          1          1          1          1          1          1          1          1          1          1          1          1          1          1          1          1          1          1          1          1          1          1          1          1          1          1          1          1          1          1          1          1          1          1          1          1          1          1          1          1          1          1          1          1          1          1          1          1          1          1          1          1          1          1          1          1          1          1          1          1          1          1          1          1          1          1          1          1          1          1          1          1          1          1          1          1          1          1          1          1          1          1          1          1          1          1          1          1          1          1          1          1          1          1          1          1          1          1          1          1          1          1          1          1          1          1          1          1          1          1          1          1          1          1          1          1          1          1          1          1          1          1          1          1          1          1          1          1          1          1          1          1          1          1          1          1          1          1          1          1          1          1          1          1          1          1          1          1          1          1          1          1          1          1          1          1          1          1          1          1          1          1          1          1          1          1          1          1          1          1          1          1          1          1          1          1          1          1          1          1          1          1          1          1          1          1          1          1          1          1          1          1          1          1          1          1          1          1          1          1          1          1          1          1          1          1          1          1          1          1          1          1          1          1          1          1          1          1          1          1          1          1          1          1          1          1          1          1          1          1          1          1          1          1          1          1          1          1          1          1          1          1          1          1          1          1          1          1          1          1          1          1          1          1          1          1          1          1          1          1          1          1          1          1          1          1          1          1          1          1          1          1          1          1          1          1          1          1          1          1          1          1          1          1          1          1          1          1          1          1          1          1          1          1          1          1          1          1          1          1          1          1          1          1          1          1          1          1          1          1          1          1          1          1          1          1          1          1          1          1          1          1          1          1          1          1          1          1          1          1          1          1          1          1          1          1          1          1          1          1          1          1          1          1          1          1          1          1          1          1          1          1          1          1          1          1          1          1          1          1          1          1          1          1          1          1          1          1          1          1          1          1          1          1          1          1          1          1          1          1          1          1          1          1          1          1          1          1          1          1          1          1          1          1          1          1          1          1          1          1          1          1          1          1          1          1          1          1          1          1          1          1          1          1          1          1          1          1          1          1          1          1          1          1          1          1          1          1          1          1          1          1          1          1          1          1          1          1          1          1          1          1          1          1          1          1          1          1          1          1          1          1          1          1          1          1          1          1          1          1          1          1          1          1          1          1          1          1          1          1          1          1          1          1          1          1          1          1          1          1          1          1          1          1          1          1          1          1          1          1          1          1          1          1          1          1          1          1          1          1          1          1          1          1          1          1          1          1          1          1          1          1          1          1          1          1          1          1          1          1          1          1          1          1          1          1          1          1          1          1          1          1          1          1          1          1          1          1          1          1          1          1          1          1          1          1          1          1          1          1          1          1          1          1          1          1          1          1          1          1          1          1          1          1          1          1          1          1          1          1          1          1          1          1          1          1          1          1          1          1          1          1          1          1          1          1          1          1          1          1          1          1          1          1          1          1          1          1          1          1          1          1          1          1          1          1          1          1          1          1          1          1          1          1          1          1          1          1          1          1          1          1          1          1          1          1          1          1          1          1          1          1          1          1          1          1          1          1          1          1          1          1          1          1          1          1          1          1          1          1          1          1          1          1          1          1          1          1          1          1          1          1          1          1          1          1          1          1          1          1          1          1          1          1          1          1          1          1          1          1          1          1          1          1          1          1          1          1          1          1          1          1          1          1          1          1          1          1          1          1          1          1          1          1          1          1          1          1          1          1          1          1          1          1          1          1          1          1          1          1          1          1          1          1          1          1          1          1          1          1          1          1          1          1          1          1          1          1          1          1          1          1          1          1          1          1          1          1          1          1          1          1          1          1          1          1          1          1          1          1          1          1          1          1          1          1          1          1          1          1          1          1          1          1          1          1          1          1          1          1          1          1          1          1          1          1          1          1          1          1          1          1          1          1          1          1          1          1          1          1          1          1          1          1          1          1          1          1          1          1          1          1          1          1          1          1          1          1          1          1          1          1          1          1          1          1          1          1          1          1          1          1          1          1          1          1          1          1          1          1          1          1          1          1          1          1          1          1          1          1          1          1          1          1          1          1          1          1          1          1          1          1          1          1          1          1          1          1          1          1          1          1          1          1          1          1          1          1          1          1          1          1          1          1          1          1          1          1          1          1          1          1          1          1          1          1          1          1          1          1          1          1          1          1          1          1          1          1          1          1          1          1          1          1          1          1          1          1          1          1          1          1          1          1          1          1          1          1          1          1          1          1          1          1          1          1          1          1          1          1          1          1          1          1          1          1          1          1          1          1          1          1          1          1          1          1          1          1          1          1          1          1          1          1          1          1          1          1          1          1          1          1          1          1          1          1          1          1          1          1          1          1          1          1          1          1          1          1          1          1          1          1          1          1          1          1          1          1          1          1          1          1          1          1          1          1          1          1          1          1          1          1          1          1          1          1          1          1 </DataArray>
</CellData>
<PointData>
<DataArray type="Float64"                                    Name="u"                                                      NumberOfComponents=" 3" format="ascii">
             -0.000103614               0.000000000               0.999999993              -0.000127384              -0.000000000               0.999999993              -0.000138572               0.000000000               0.999999993              -0.000145001               0.000000000               0.999999993              -0.000149822               0.000000000               0.999999993              -0.000154438               0.000000000               0.999999993              -0.000159535              -0.000000000               0.999999993              -0.000165367               0.000000000               0.999999993              -0.000172051               0.000000000               0.999999993              -0.000179614               0.000000000               0.999999993              -0.000188110              -0.000000000               0.999999993              -0.000197449               0.000000000               0.999999993              -0.000207597               0.000000000               0.999999993              -0.000218585               0.000000000               0.999999993              -0.000230359               0.000000000               0.999999993              -0.000242793               0.000000000               0.999999993              -0.000255777               0.000000000               0.999999993              -0.000103016               0.000059594               0.999999993              -0.000125609               0.000051861               0.999999993              -0.000136068               0.000049469               0.999999993              -0.000142067               0.000049995               0.999999993              -0.000146665               0.000052126               0.999999993              -0.000151196               0.000055468               0.999999993              -0.000156311               0.000059614               0.999999993              -0.000162259               0.000064296               0.999999993              -0.000169036               0.000069223               0.999999993              -0.000176623               0.000074361               0.999999993              -0.000185088               0.000079644               0.999999993              -0.000194406               0.000084954               0.999999993              -0.000204559               0.000090232               0.999999993              -0.000215534               0.000095425               0.999999993              -0.000227264               0.000100430               0.999999993              -0.000239686               0.000105056               0.999999993              -0.000252697               0.000108857               0.999999993              -0.000101241               0.000118587               0.999999993              -0.000120367               0.000103170               0.999999993              -0.000128833               0.000098721               0.999999993              -0.000133797               0.000100072               0.999999993              -0.000137964               0.000104719               0.999999993              -0.000142468               0.000111622               0.999999993              -0.000147732               0.000120020               0.999999993              -0.000153889               0.000129270               0.999999993              -0.000160893               0.000139056               0.999999993              -0.000168687               0.000149272               0.999999993              -0.000177285               0.000159808               0.999999993              -0.000186665               0.000170510               0.999999993              -0.000196841               0.000181253               0.999999993              -0.000207861               0.000191967               0.999999993              -0.000219629               0.000202493               0.999999993              -0.000232038               0.000212428               0.999999993              -0.000245034               0.000221345               0.999999993              -0.000098262               0.000176358               0.999999993              -0.000111872               0.000153476               0.999999993              -0.000117543               0.000147628               0.999999993              -0.000121282               0.000150363               0.999999993              -0.000125147               0.000157955               0.999999993              -0.000129882               0.000168618               0.999999993              -0.000135633               0.000181248               0.999999993              -0.000142344               0.000195059               0.999999993              -0.000149932               0.000209684               0.999999993              -0.000158300               0.000224866               0.999999993              -0.000167479               0.000240634               0.999999993              -0.000177410               0.000256721               0.999999993              -0.000188068               0.000273036               0.999999993              -0.000199481               0.000289537               0.999999993              -0.000211516               0.000305840               0.999999993              -0.000224052               0.000321581               0.999999993              -0.000237022               0.000336433               0.999999993              -0.000094036               0.000232291               0.999999993              -0.000100531               0.000202522               0.999999993              -0.000103164               0.000196088               0.999999993              -0.000105932               0.000200790               0.999999993              -0.000109948               0.000211561               0.999999993              -0.000115367               0.000226081               0.999999993              -0.000122049               0.000243002               0.999999993              -0.000129770               0.000261367               0.999999993              -0.000138394               0.000280695               0.999999993              -0.000147755               0.000300801               0.999999993              -0.000157846               0.000321674               0.999999993              -0.000168602               0.000343056               0.999999993              -0.000179978               0.000364886               0.999999993              -0.000191877               0.000387030               0.999999993              -0.000204236               0.000408994               0.999999993              -0.000216918               0.000430529               0.999999993              -0.000229819               0.000451270               0.999999993              -0.000088667               0.000285753               0.999999993              -0.000087115               0.000250127               0.999999993              -0.000087158               0.000243833               0.999999993              -0.000089695               0.000250832               0.999999993              -0.000094469               0.000264994               0.999999993              -0.000101067               0.000283431               0.999999993              -0.000108974               0.000304618               0.999999993              -0.000117997               0.000327473               0.999999993              -0.000127899               0.000351390               0.999999993              -0.000138436               0.000376296               0.999999993              -0.000149605               0.000402063               0.999999993              -0.000161292               0.000428510               0.999999993              -0.000173461               0.000455612               0.999999993              -0.000186023               0.000482988               0.999999993              -0.000198791               0.000510263               0.999999993              -0.000211713               0.000537047               0.999999993              -0.000224721               0.000563350               0.999999993              -0.000082496               0.000336102               0.999999993              -0.000072660               0.000295999               0.999999993              -0.000070889               0.000290531               0.999999993              -0.000073987               0.000300079               0.999999993              -0.000080023               0.000317649               0.999999993              -0.000088104               0.000339967               0.999999993              -0.000097656               0.000365325               0.999999993              -0.000108231               0.000392543               0.999999993              -0.000119463               0.000421008               0.999999993              -0.000131224               0.000450425               0.999999993              -0.000143470               0.000480829               0.999999993              -0.000156183               0.000512031               0.999999993              -0.000169262               0.000543854               0.999999993              -0.000182561               0.000575982               0.999999993              -0.000195907               0.000607843               0.999999993              -0.000209178               0.000639259               0.999999993              -0.000222246               0.000670188               0.999999993              -0.000075638               0.000382890               0.999999993              -0.000057951               0.000339983               0.999999993              -0.000055341               0.000335806               0.999999993              -0.000059643               0.000348039               0.999999993              -0.000067414               0.000368918               0.999999993              -0.000077407               0.000395048               0.999999993              -0.000088746               0.000424333               0.999999993              -0.000100786               0.000455731               0.999999993              -0.000113335               0.000488460               0.999999993              -0.000126255               0.000522214               0.999999993              -0.000139651               0.000557023               0.999999993              -0.000153414               0.000592588               0.999999993              -0.000167389               0.000628751               0.999999993              -0.000181297               0.000665059               0.999999993              -0.000194970               0.000700938               0.999999993              -0.000208270               0.000736300               0.999999993              -0.000221080               0.000770920               0.999999993              -0.000068485               0.000425335               0.999999993              -0.000043477               0.000382068               0.999999993              -0.000041372               0.000379225               0.999999993              -0.000047394               0.000394034               0.999999993              -0.000057227               0.000418173               0.999999993              -0.000069236               0.000447923               0.999999993              -0.000082124               0.000481009               0.999999993              -0.000095469               0.000516379               0.999999993              -0.000109123               0.000553236               0.999999993              -0.000123183               0.000591238               0.999999993              -0.000137560               0.000630290               0.999999993              -0.000152151               0.000670047               0.999999993              -0.000166657               0.000710084               0.999999993              -0.000180796               0.000749959               0.999999993              -0.000194440               0.000789285               0.999999993              -0.000207672               0.000827988               0.999999993              -0.000220600               0.000866068               0.999999993              -0.000061701               0.000464896               0.999999993              -0.000032439               0.000426309               0.999999993              -0.000028297               0.000419861               0.999999993              -0.000033109               0.000430465               0.999999993              -0.000041758               0.000450502               0.999999993              -0.000052643               0.000476447               0.999999993              -0.000064442               0.000506011               0.999999993              -0.000076600               0.000538016               0.999999993              -0.000088884               0.000571736               0.999999993              -0.000101276               0.000606783               0.999999993              -0.000113821               0.000642874               0.999999993              -0.000126620               0.000679749               0.999999993              -0.000139447               0.000717169               0.999999993              -0.000152032               0.000754744               0.999999993              -0.000164229               0.000792243               0.999999993              -0.000176031               0.000829323               0.999999993              -0.000187760               0.000865960               0.999999993              -0.000054061               0.000500440               0.999999993              -0.000023357               0.000468352               0.999999993              -0.000017212               0.000460667               0.999999993              -0.000020281               0.000467990               0.999999993              -0.000027420               0.000484553               0.999999993              -0.000036912               0.000507110               0.999999993              -0.000047539               0.000533493               0.999999993              -0.000058385               0.000562437               0.999999993              -0.000069250               0.000593206               0.999999993              -0.000079997               0.000625420               0.999999993              -0.000090686               0.000658780               0.999999993              -0.000101456               0.000693012               0.999999993              -0.000112264               0.000727850               0.999999993              -0.000122958               0.000762995               0.999999993              -0.000133152               0.000798276               0.999999993              -0.000142775               0.000833522               0.999999993              -0.000152048               0.000868646               0.999999993              -0.000045915               0.000531187               0.999999993              -0.000016172               0.000507050               0.999999993              -0.000008498               0.000500075               0.999999993              -0.000009713               0.000505337               0.999999993              -0.000015101               0.000519169               0.999999993              -0.000022956               0.000538925               0.999999993              -0.000032187               0.000562617               0.999999993              -0.000041614               0.000588980               0.999999993              -0.000050948               0.000617271               0.999999993              -0.000060023               0.000647062               0.999999993              -0.000068799               0.000678050               0.999999993              -0.000077455               0.000709966               0.999999993              -0.000086149               0.000742500               0.999999993              -0.000094637               0.000775421               0.999999993              -0.000102505               0.000808578               0.999999993              -0.000109424               0.000841885               0.999999993              -0.000115453               0.000875277               0.999999993              -0.000037369               0.000556752               0.999999993              -0.000010752               0.000540966               0.999999993              -0.000002454               0.000536140               0.999999993              -0.000002068               0.000540772               0.999999993              -0.000005696               0.000552719               0.999999993              -0.000011804               0.000570250               0.999999993              -0.000019278               0.000591806               0.999999993              -0.000027093               0.000616200               0.999999993              -0.000034795               0.000642598               0.999999993              -0.000042142               0.000670564               0.999999993              -0.000049130               0.000699740               0.999999993              -0.000055906               0.000729763               0.999999993              -0.000062409               0.000760461               0.999999993              -0.000068519               0.000791662               0.999999993              -0.000073815               0.000823213               0.999999993              -0.000077799               0.000854999               0.999999993              -0.000080125               0.000887014               0.999999993              -0.000028439               0.000576928               0.999999993              -0.000006766               0.000568906               0.999999993               0.000000976               0.000566899               0.999999993               0.000002333               0.000571892               0.999999993               0.000000266               0.000582919               0.999999993              -0.000004059               0.000598965               0.999999993              -0.000009669               0.000618864               0.999999993              -0.000015675               0.000641678               0.999999993              -0.000021625               0.000666660               0.999999993              -0.000027300               0.000693331               0.999999993              -0.000032630               0.000721259               0.999999993              -0.000037638               0.000750099               0.999999993              -0.000042185               0.000779651               0.999999993              -0.000046044               0.000809769               0.999999993              -0.000048834               0.000840416               0.999999993              -0.000050186               0.000871410               0.999999993              -0.000049374               0.000902616               0.999999993              -0.000019177               0.000591502               0.999999993              -0.000003881               0.000589743               0.999999993               0.000002114               0.000590539               0.999999993               0.000003640               0.000596340               0.999999993               0.000002640               0.000607119               0.999999993              -0.000000022               0.000622264               0.999999993              -0.000003728               0.000641021               0.999999993              -0.000007720               0.000662726               0.999999993              -0.000011728               0.000686682               0.999999993              -0.000015636               0.000712474               0.999999993              -0.000019289               0.000739726               0.999999993              -0.000022638               0.000768116               0.999999993              -0.000025583               0.000797262               0.999999993              -0.000027770               0.000827001               0.999999993              -0.000028824               0.000857231               0.999999993              -0.000028364               0.000887817               0.999999993              -0.000025836               0.000918673               0.999999993              -0.000009665               0.000600349               0.999999993              -0.000001744               0.000602619               0.999999993               0.000001526               0.000605463               0.999999993               0.000002498               0.000612030               0.999999993               0.000002135               0.000622806               0.999999993               0.000000908               0.000637515               0.999999993              -0.000000929               0.000655688               0.999999993              -0.000002890               0.000676710               0.999999993              -0.000004918               0.000700032               0.999999993              -0.000006859               0.000725369               0.999999993              -0.000008747               0.000752263               0.999999993              -0.000010486               0.000780481               0.999999993              -0.000011972               0.000809740               0.999999993              -0.000013032               0.000839753               0.999999993              -0.000013302               0.000870310               0.999999993              -0.000012419               0.000901206               0.999999993              -0.000009994               0.000932179               0.999999993              -0.000000000               0.000603354               0.999999993               0.000000000               0.000607015               0.999999993              -0.000000000               0.000610578               0.999999993               0.000000000               0.000617418               0.999999993               0.000000000               0.000628212               0.999999993               0.000000000               0.000642826               0.999999993               0.000000000               0.000660814               0.999999993               0.000000000               0.000681664               0.999999993               0.000000000               0.000704812               0.999999993               0.000000000               0.000729867               0.999999993               0.000000000               0.000756671               0.999999993              -0.000000000               0.000784923               0.999999993              -0.000000000               0.000814342               0.999999993              -0.000000000               0.000844720               0.999999993               0.000000000               0.000875719               0.999999993               0.000000000               0.000907052               0.999999993               0.000000000               0.000938246               0.999999993              -0.000103614               0.000000000               0.999999993              -0.000127384              -0.000000000               0.999999993              -0.000138572               0.000000000               0.999999993              -0.000145001               0.000000000               0.999999993              -0.000149822               0.000000000               0.999999993              -0.000154438               0.000000000               0.999999993              -0.000159535              -0.000000000               0.999999993              -0.000165367               0.000000000               0.999999993              -0.000172051               0.000000000               0.999999993              -0.000179614               0.000000000               0.999999993              -0.000188110              -0.000000000               0.999999993              -0.000197449               0.000000000               0.999999993              -0.000207597               0.000000000               0.999999993              -0.000218585               0.000000000               0.999999993              -0.000230359               0.000000000               0.999999993              -0.000242793               0.000000000               0.999999993              -0.000255777               0.000000000               0.999999993              -0.000103016              -0.000059594               0.999999993              -0.000125609              -0.000051861               0.999999993              -0.000136068              -0.000049469               0.999999993              -0.000142067              -0.000049995               0.999999993              -0.000146665              -0.000052126               0.999999993              -0.000151196              -0.000055468               0.999999993              -0.000156311              -0.000059614               0.999999993              -0.000162259              -0.000064296               0.999999993              -0.000169036              -0.000069223               0.999999993              -0.000176623              -0.000074361               0.999999993              -0.000185088              -0.000079644               0.999999993              -0.000194406              -0.000084954               0.999999993              -0.000204559              -0.000090232               0.999999993              -0.000215534              -0.000095425               0.999999993              -0.000227264              -0.000100430               0.999999993              -0.000239686              -0.000105056               0.999999993              -0.000252697              -0.000108857               0.999999993              -0.000101241              -0.000118587               0.999999993              -0.000120367              -0.000103170               0.999999993              -0.000128833              -0.000098721               0.999999993              -0.000133797              -0.000100072               0.999999993              -0.000137964              -0.000104719               0.999999993              -0.000142468              -0.000111622               0.999999993              -0.000147732              -0.000120020               0.999999993              -0.000153889              -0.000129270               0.999999993              -0.000160893              -0.000139056               0.999999993              -0.000168687              -0.000149272               0.999999993              -0.000177285              -0.000159808               0.999999993              -0.000186665              -0.000170510               0.999999993              -0.000196841              -0.000181253               0.999999993              -0.000207861              -0.000191967               0.999999993              -0.000219629              -0.000202493               0.999999993              -0.000232038              -0.000212428               0.999999993              -0.000245034              -0.000221345               0.999999993              -0.000098262              -0.000176358               0.999999993              -0.000111872              -0.000153476               0.999999993              -0.000117543              -0.000147628               0.999999993              -0.000121282              -0.000150363               0.999999993              -0.000125147              -0.000157955               0.999999993              -0.000129882              -0.000168618               0.999999993              -0.000135633              -0.000181248               0.999999993              -0.000142344              -0.000195059               0.999999993              -0.000149932              -0.000209684               0.999999993              -0.000158300              -0.000224866               0.999999993              -0.000167479              -0.000240634               0.999999993              -0.000177410              -0.000256721               0.999999993              -0.000188068              -0.000273036               0.999999993              -0.000199481              -0.000289537               0.999999993              -0.000211516              -0.000305840               0.999999993              -0.000224052              -0.000321581               0.999999993              -0.000237022              -0.000336433               0.999999993              -0.000094036              -0.000232291               0.999999993              -0.000100531              -0.000202522               0.999999993              -0.000103164              -0.000196088               0.999999993              -0.000105932              -0.000200790               0.999999993              -0.000109948              -0.000211561               0.999999993              -0.000115367              -0.000226081               0.999999993              -0.000122049              -0.000243002               0.999999993              -0.000129770              -0.000261367               0.999999993              -0.000138394              -0.000280695               0.999999993              -0.000147755              -0.000300801               0.999999993              -0.000157846              -0.000321674               0.999999993              -0.000168602              -0.000343056               0.999999993              -0.000179978              -0.000364886               0.999999993              -0.000191877              -0.000387030               0.999999993              -0.000204236              -0.000408994               0.999999993              -0.000216918              -0.000430529               0.999999993              -0.000229819              -0.000451270               0.999999993              -0.000088667              -0.000285753               0.999999993              -0.000087115              -0.000250127               0.999999993              -0.000087158              -0.000243833               0.999999993              -0.000089695              -0.000250832               0.999999993              -0.000094469              -0.000264994               0.999999993              -0.000101067              -0.000283431               0.999999993              -0.000108974              -0.000304618               0.999999993              -0.000117997              -0.000327473               0.999999993              -0.000127899              -0.000351390               0.999999993              -0.000138436              -0.000376296               0.999999993              -0.000149605              -0.000402063               0.999999993              -0.000161292              -0.000428510               0.999999993              -0.000173461              -0.000455612               0.999999993              -0.000186023              -0.000482988               0.999999993              -0.000198791              -0.000510263               0.999999993              -0.000211713              -0.000537047               0.999999993              -0.000224721              -0.000563350               0.999999993              -0.000082496              -0.000336102               0.999999993              -0.000072660              -0.000295999               0.999999993              -0.000070889              -0.000290531               0.999999993              -0.000073987              -0.000300079               0.999999993              -0.000080023              -0.000317649               0.999999993              -0.000088104              -0.000339967               0.999999993              -0.000097656              -0.000365325               0.999999993              -0.000108231              -0.000392543               0.999999993              -0.000119463              -0.000421008               0.999999993              -0.000131224              -0.000450425               0.999999993              -0.000143470              -0.000480829               0.999999993              -0.000156183              -0.000512031               0.999999993              -0.000169262              -0.000543854               0.999999993              -0.000182561              -0.000575982               0.999999993              -0.000195907              -0.000607843               0.999999993              -0.000209178              -0.000639259               0.999999993              -0.000222246              -0.000670188               0.999999993              -0.000075638              -0.000382890               0.999999993              -0.000057951              -0.000339983               0.999999993              -0.000055341              -0.000335806               0.999999993              -0.000059643              -0.000348039               0.999999993              -0.000067414              -0.000368918               0.999999993              -0.000077407              -0.000395048               0.999999993              -0.000088746              -0.000424333               0.999999993              -0.000100786              -0.000455731               0.999999993              -0.000113335              -0.000488460               0.999999993              -0.000126255              -0.000522214               0.999999993              -0.000139651              -0.000557023               0.999999993              -0.000153414              -0.000592588               0.999999993              -0.000167389              -0.000628751               0.999999993              -0.000181297              -0.000665059               0.999999993              -0.000194970              -0.000700938               0.999999993              -0.000208270              -0.000736300               0.999999993              -0.000221080              -0.000770920               0.999999993              -0.000068485              -0.000425335               0.999999993              -0.000043477              -0.000382068               0.999999993              -0.000041372              -0.000379225               0.999999993              -0.000047394              -0.000394034               0.999999993              -0.000057227              -0.000418173               0.999999993              -0.000069236              -0.000447923               0.999999993              -0.000082124              -0.000481009               0.999999993              -0.000095469              -0.000516379               0.999999993              -0.000109123              -0.000553236               0.999999993              -0.000123183              -0.000591238               0.999999993              -0.000137560              -0.000630290               0.999999993              -0.000152151              -0.000670047               0.999999993              -0.000166657              -0.000710084               0.999999993              -0.000180796              -0.000749959               0.999999993              -0.000194440              -0.000789285               0.999999993              -0.000207672              -0.000827988               0.999999993              -0.000220600              -0.000866068               0.999999993              -0.000061701              -0.000464896               0.999999993              -0.000032439              -0.000426309               0.999999993              -0.000028297              -0.000419861               0.999999993              -0.000033109              -0.000430465               0.999999993              -0.000041758              -0.000450502               0.999999993              -0.000052643              -0.000476447               0.999999993              -0.000064442              -0.000506011               0.999999993              -0.000076600              -0.000538016               0.999999993              -0.000088884              -0.000571736               0.999999993              -0.000101276              -0.000606783               0.999999993              -0.000113821              -0.000642874               0.999999993              -0.000126620              -0.000679749               0.999999993              -0.000139447              -0.000717169               0.999999993              -0.000152032              -0.000754744               0.999999993              -0.000164229              -0.000792243               0.999999993              -0.000176031              -0.000829323               0.999999993              -0.000187760              -0.000865960               0.999999993              -0.000054061              -0.000500440               0.999999993              -0.000023357              -0.000468352               0.999999993              -0.000017212              -0.000460667               0.999999993              -0.000020281              -0.000467990               0.999999993              -0.000027420              -0.000484553               0.999999993              -0.000036912              -0.000507110               0.999999993              -0.000047539              -0.000533493               0.999999993              -0.000058385              -0.000562437               0.999999993              -0.000069250              -0.000593206               0.999999993              -0.000079997              -0.000625420               0.999999993              -0.000090686              -0.000658780               0.999999993              -0.000101456              -0.000693012               0.999999993              -0.000112264              -0.000727850               0.999999993              -0.000122958              -0.000762995               0.999999993              -0.000133152              -0.000798276               0.999999993              -0.000142775              -0.000833522               0.999999993              -0.000152048              -0.000868646               0.999999993              -0.000045915              -0.000531187               0.999999993              -0.000016172              -0.000507050               0.999999993              -0.000008498              -0.000500075               0.999999993              -0.000009713              -0.000505337               0.999999993              -0.000015101              -0.000519169               0.999999993              -0.000022956              -0.000538925               0.999999993              -0.000032187              -0.000562617               0.999999993              -0.000041614              -0.000588980               0.999999993              -0.000050948              -0.000617271               0.999999993              -0.000060023              -0.000647062               0.999999993              -0.000068799              -0.000678050               0.999999993              -0.000077455              -0.000709966               0.999999993              -0.000086149              -0.000742500               0.999999993              -0.000094637              -0.000775421               0.999999993              -0.000102505              -0.000808578               0.999999993              -0.000109424              -0.000841885               0.999999993              -0.000115453              -0.000875277               0.999999993              -0.000037369              -0.000556752               0.999999993              -0.000010752              -0.000540966               0.999999993              -0.000002454              -0.000536140               0.999999993              -0.000002068              -0.000540772               0.999999993              -0.000005696              -0.000552719               0.999999993              -0.000011804              -0.000570250               0.999999993              -0.000019278              -0.000591806               0.999999993              -0.000027093              -0.000616200               0.999999993              -0.000034795              -0.000642598               0.999999993              -0.000042142              -0.000670564               0.999999993              -0.000049130              -0.000699740               0.999999993              -0.000055906              -0.000729763               0.999999993              -0.000062409              -0.000760461               0.999999993              -0.000068519              -0.000791662               0.999999993              -0.000073815              -0.000823213               0.999999993              -0.000077799              -0.000854999               0.999999993              -0.000080125              -0.000887014               0.999999993              -0.000028439              -0.000576928               0.999999993              -0.000006766              -0.000568906               0.999999993               0.000000976              -0.000566899               0.999999993               0.000002333              -0.000571892               0.999999993               0.000000266              -0.000582919               0.999999993              -0.000004059              -0.000598965               0.999999993              -0.000009669              -0.000618864               0.999999993              -0.000015675              -0.000641678               0.999999993              -0.000021625              -0.000666660               0.999999993              -0.000027300              -0.000693331               0.999999993              -0.000032630              -0.000721259               0.999999993              -0.000037638              -0.000750099               0.999999993              -0.000042185              -0.000779651               0.999999993              -0.000046044              -0.000809769               0.999999993              -0.000048834              -0.000840416               0.999999993              -0.000050186              -0.000871410               0.999999993              -0.000049374              -0.000902616               0.999999993              -0.000019177              -0.000591502               0.999999993              -0.000003881              -0.000589743               0.999999993               0.000002114              -0.000590539               0.999999993               0.000003640              -0.000596340               0.999999993               0.000002640              -0.000607119               0.999999993              -0.000000022              -0.000622264               0.999999993              -0.000003728              -0.000641021               0.999999993              -0.000007720              -0.000662726               0.999999993              -0.000011728              -0.000686682               0.999999993              -0.000015636              -0.000712474               0.999999993              -0.000019289              -0.000739726               0.999999993              -0.000022638              -0.000768116               0.999999993              -0.000025583              -0.000797262               0.999999993              -0.000027770              -0.000827001               0.999999993              -0.000028824              -0.000857231               0.999999993              -0.000028364              -0.000887817               0.999999993              -0.000025836              -0.000918673               0.999999993              -0.000009665              -0.000600349               0.999999993              -0.000001744              -0.000602619               0.999999993               0.000001526              -0.000605463               0.999999993               0.000002498              -0.000612030               0.999999993               0.000002135              -0.000622806               0.999999993               0.000000908              -0.000637515               0.999999993              -0.000000929              -0.000655688               0.999999993              -0.000002890              -0.000676710               0.999999993              -0.000004918              -0.000700032               0.999999993              -0.000006859              -0.000725369               0.999999993              -0.000008747              -0.000752263               0.999999993              -0.000010486              -0.000780481               0.999999993              -0.000011972              -0.000809740               0.999999993              -0.000013032              -0.000839753               0.999999993              -0.000013302              -0.000870310               0.999999993              -0.000012419              -0.000901206               0.999999993              -0.000009994              -0.000932179               0.999999993              -0.000000000              -0.000603354               0.999999993               0.000000000              -0.000607015               0.999999993              -0.000000000              -0.000610578               0.999999993               0.000000000              -0.000617418               0.999999993              -0.000000000              -0.000628212               0.999999993              -0.000000000              -0.000642826               0.999999993              -0.000000000              -0.000660814               0.999999993              -0.000000000              -0.000681664               0.999999993              -0.000000000              -0.000704812               0.999999993               0.000000000              -0.000729867               0.999999993               0.000000000              -0.000756671               0.999999993              -0.000000000              -0.000784923               0.999999993              -0.000000000              -0.000814342               0.999999993              -0.000000000              -0.000844720               0.999999993              -0.000000000              -0.000875719               0.999999993               0.000000000              -0.000907052               0.999999993               0.000000000              -0.000938246               0.999999993               0.000103614              -0.000000000               0.999999993               0.000127384              -0.000000000               0.999999993               0.000138572              -0.000000000               0.999999993               0.000145001              -0.000000000               0.999999993               0.000149822               0.000000000               0.999999993               0.000154438              -0.000000000               0.999999993               0.000159535               0.000000000               0.999999993               0.000165367              -0.000000000               0.999999993               0.000172051               0.000000000               0.999999993               0.000179614               0.000000000               0.999999993               0.000188110               0.000000000               0.999999993               0.000197449               0.000000000               0.999999993               0.000207597              -0.000000000               0.999999993               0.000218585              -0.000000000               0.999999993               0.000230359              -0.000000000               0.999999993               0.000242793               0.000000000               0.999999993               0.000255777               0.000000000               0.999999993               0.000103016              -0.000059594               0.999999993               0.000125609              -0.000051861               0.999999993               0.000136068              -0.000049469               0.999999993               0.000142067              -0.000049995               0.999999993               0.000146665              -0.000052126               0.999999993               0.000151196              -0.000055468               0.999999993               0.000156311              -0.000059614               0.999999993               0.000162259              -0.000064296               0.999999993               0.000169036              -0.000069223               0.999999993               0.000176623              -0.000074361               0.999999993               0.000185088              -0.000079644               0.999999993               0.000194406              -0.000084954               0.999999993               0.000204559              -0.000090232               0.999999993               0.000215534              -0.000095425               0.999999993               0.000227264              -0.000100430               0.999999993               0.000239686              -0.000105056               0.999999993               0.000252697              -0.000108857               0.999999993               0.000101241              -0.000118587               0.999999993               0.000120367              -0.000103170               0.999999993               0.000128833              -0.000098721               0.999999993               0.000133797              -0.000100072               0.999999993               0.000137964              -0.000104719               0.999999993               0.000142468              -0.000111622               0.999999993               0.000147732              -0.000120020               0.999999993               0.000153889              -0.000129270               0.999999993               0.000160893              -0.000139056               0.999999993               0.000168687              -0.000149272               0.999999993               0.000177285              -0.000159808               0.999999993               0.000186665              -0.000170510               0.999999993               0.000196841              -0.000181253               0.999999993               0.000207861              -0.000191967               0.999999993               0.000219629              -0.000202493               0.999999993               0.000232038              -0.000212428               0.999999993               0.000245034              -0.000221345               0.999999993               0.000098262              -0.000176358               0.999999993               0.000111872              -0.000153476               0.999999993               0.000117543              -0.000147628               0.999999993               0.000121282              -0.000150363               0.999999993               0.000125147              -0.000157955               0.999999993               0.000129882              -0.000168618               0.999999993               0.000135633              -0.000181248               0.999999993               0.000142344              -0.000195059               0.999999993               0.000149932              -0.000209684               0.999999993               0.000158300              -0.000224866               0.999999993               0.000167479              -0.000240634               0.999999993               0.000177410              -0.000256721               0.999999993               0.000188068              -0.000273036               0.999999993               0.000199481              -0.000289537               0.999999993               0.000211516              -0.000305840               0.999999993               0.000224052              -0.000321581               0.999999993               0.000237022              -0.000336433               0.999999993               0.000094036              -0.000232291               0.999999993               0.000100531              -0.000202522               0.999999993               0.000103164              -0.000196088               0.999999993               0.000105932              -0.000200790               0.999999993               0.000109948              -0.000211561               0.999999993               0.000115367              -0.000226081               0.999999993               0.000122049              -0.000243002               0.999999993               0.000129770              -0.000261367               0.999999993               0.000138394              -0.000280695               0.999999993               0.000147755              -0.000300801               0.999999993               0.000157846              -0.000321674               0.999999993               0.000168602              -0.000343056               0.999999993               0.000179978              -0.000364886               0.999999993               0.000191877              -0.000387030               0.999999993               0.000204236              -0.000408994               0.999999993               0.000216918              -0.000430529               0.999999993               0.000229819              -0.000451270               0.999999993               0.000088667              -0.000285753               0.999999993               0.000087115              -0.000250127               0.999999993               0.000087158              -0.000243833               0.999999993               0.000089695              -0.000250832               0.999999993               0.000094469              -0.000264994               0.999999993               0.000101067              -0.000283431               0.999999993               0.000108974              -0.000304618               0.999999993               0.000117997              -0.000327473               0.999999993               0.000127899              -0.000351390               0.999999993               0.000138436              -0.000376296               0.999999993               0.000149605              -0.000402063               0.999999993               0.000161292              -0.000428510               0.999999993               0.000173461              -0.000455612               0.999999993               0.000186023              -0.000482988               0.999999993               0.000198791              -0.000510263               0.999999993               0.000211713              -0.000537047               0.999999993               0.000224721              -0.000563350               0.999999993               0.000082496              -0.000336102               0.999999993               0.000072660              -0.000295999               0.999999993               0.000070889              -0.000290531               0.999999993               0.000073987              -0.000300079               0.999999993               0.000080023              -0.000317649               0.999999993               0.000088104              -0.000339967               0.999999993               0.000097656              -0.000365325               0.999999993               0.000108231              -0.000392543               0.999999993               0.000119463              -0.000421008               0.999999993               0.000131224              -0.000450425               0.999999993               0.000143470              -0.000480829               0.999999993               0.000156183              -0.000512031               0.999999993               0.000169262              -0.000543854               0.999999993               0.000182561              -0.000575982               0.999999993               0.000195907              -0.000607843               0.999999993               0.000209178              -0.000639259               0.999999993               0.000222246              -0.000670188               0.999999993               0.000075638              -0.000382890               0.999999993               0.000057951              -0.000339983               0.999999993               0.000055341              -0.000335806               0.999999993               0.000059643              -0.000348039               0.999999993               0.000067414              -0.000368918               0.999999993               0.000077407              -0.000395048               0.999999993               0.000088746              -0.000424333               0.999999993               0.000100786              -0.000455731               0.999999993               0.000113335              -0.000488460               0.999999993               0.000126255              -0.000522214               0.999999993               0.000139651              -0.000557023               0.999999993               0.000153414              -0.000592588               0.999999993               0.000167389              -0.000628751               0.999999993               0.000181297              -0.000665059               0.999999993               0.000194970              -0.000700938               0.999999993               0.000208270              -0.000736300               0.999999993               0.000221080              -0.000770920               0.999999993               0.000068485              -0.000425335               0.999999993               0.000043477              -0.000382068               0.999999993               0.000041372              -0.000379225               0.999999993               0.000047394              -0.000394034               0.999999993               0.000057227              -0.000418173               0.999999993               0.000069236              -0.000447923               0.999999993               0.000082124              -0.000481009               0.999999993               0.000095469              -0.000516379               0.999999993               0.000109123              -0.000553236               0.999999993               0.000123183              -0.000591238               0.999999993               0.000137560              -0.000630290               0.999999993               0.000152151              -0.000670047               0.999999993               0.000166657              -0.000710084               0.999999993               0.000180796              -0.000749959               0.999999993               0.000194440              -0.000789285               0.999999993               0.000207672              -0.000827988               0.999999993               0.000220600              -0.000866068               0.999999993               0.000061701              -0.000464896               0.999999993               0.000032439              -0.000426309               0.999999993               0.000028297              -0.000419861               0.999999993               0.000033109              -0.000430465               0.999999993               0.000041758              -0.000450502               0.999999993               0.000052643              -0.000476447               0.999999993               0.000064442              -0.000506011               0.999999993               0.000076600              -0.000538016               0.999999993               0.000088884              -0.000571736               0.999999993               0.000101276              -0.000606783               0.999999993               0.000113821              -0.000642874               0.999999993               0.000126620              -0.000679749               0.999999993               0.000139447              -0.000717169               0.999999993               0.000152032              -0.000754744               0.999999993               0.000164229              -0.000792243               0.999999993               0.000176031              -0.000829323               0.999999993               0.000187760              -0.000865960               0.999999993               0.000054061              -0.000500440               0.999999993               0.000023357              -0.000468352               0.999999993               0.000017212              -0.000460667               0.999999993               0.000020281              -0.000467990               0.999999993               0.000027420              -0.000484553               0.999999993               0.000036912              -0.000507110               0.999999993               0.000047539              -0.000533493               0.999999993               0.000058385              -0.000562437               0.999999993               0.000069250              -0.000593206               0.999999993               0.000079997              -0.000625420               0.999999993               0.000090686              -0.000658780               0.999999993               0.000101456              -0.000693012               0.999999993               0.000112264              -0.000727850               0.999999993               0.000122958              -0.000762995               0.999999993               0.000133152              -0.000798276               0.999999993               0.000142775              -0.000833522               0.999999993               0.000152048              -0.000868646               0.999999993               0.000045915              -0.000531187               0.999999993               0.000016172              -0.000507050               0.999999993               0.000008498              -0.000500075               0.999999993               0.000009713              -0.000505337               0.999999993               0.000015101              -0.000519169               0.999999993               0.000022956              -0.000538925               0.999999993               0.000032187              -0.000562617               0.999999993               0.000041614              -0.000588980               0.999999993               0.000050948              -0.000617271               0.999999993               0.000060023              -0.000647062               0.999999993               0.000068799              -0.000678050               0.999999993               0.000077455              -0.000709966               0.999999993               0.000086149              -0.000742500               0.999999993               0.000094637              -0.000775421               0.999999993               0.000102505              -0.000808578               0.999999993               0.000109424              -0.000841885               0.999999993               0.000115453              -0.000875277               0.999999993               0.000037369              -0.000556752               0.999999993               0.000010752              -0.000540966               0.999999993               0.000002454              -0.000536140               0.999999993               0.000002068              -0.000540772               0.999999993               0.000005696              -0.000552719               0.999999993               0.000011804              -0.000570250               0.999999993               0.000019278              -0.000591806               0.999999993               0.000027093              -0.000616200               0.999999993               0.000034795              -0.000642598               0.999999993               0.000042142              -0.000670564               0.999999993               0.000049130              -0.000699740               0.999999993               0.000055906              -0.000729763               0.999999993               0.000062409              -0.000760461               0.999999993               0.000068519              -0.000791662               0.999999993               0.000073815              -0.000823213               0.999999993               0.000077799              -0.000854999               0.999999993               0.000080125              -0.000887014               0.999999993               0.000028439              -0.000576928               0.999999993               0.000006766              -0.000568906               0.999999993              -0.000000976              -0.000566899               0.999999993              -0.000002333              -0.000571892               0.999999993              -0.000000266              -0.000582919               0.999999993               0.000004059              -0.000598965               0.999999993               0.000009669              -0.000618864               0.999999993               0.000015675              -0.000641678               0.999999993               0.000021625              -0.000666660               0.999999993               0.000027300              -0.000693331               0.999999993               0.000032630              -0.000721259               0.999999993               0.000037638              -0.000750099               0.999999993               0.000042185              -0.000779651               0.999999993               0.000046044              -0.000809769               0.999999993               0.000048834              -0.000840416               0.999999993               0.000050186              -0.000871410               0.999999993               0.000049374              -0.000902616               0.999999993               0.000019177              -0.000591502               0.999999993               0.000003881              -0.000589743               0.999999993              -0.000002114              -0.000590539               0.999999993              -0.000003640              -0.000596340               0.999999993              -0.000002640              -0.000607119               0.999999993               0.000000022              -0.000622264               0.999999993               0.000003728              -0.000641021               0.999999993               0.000007720              -0.000662726               0.999999993               0.000011728              -0.000686682               0.999999993               0.000015636              -0.000712474               0.999999993               0.000019289              -0.000739726               0.999999993               0.000022638              -0.000768116               0.999999993               0.000025583              -0.000797262               0.999999993               0.000027770              -0.000827001               0.999999993               0.000028824              -0.000857231               0.999999993               0.000028364              -0.000887817               0.999999993               0.000025836              -0.000918673               0.999999993               0.000009665              -0.000600349               0.999999993               0.000001744              -0.000602619               0.999999993              -0.000001526              -0.000605463               0.999999993              -0.000002498              -0.000612030               0.999999993              -0.000002135              -0.000622806               0.999999993              -0.000000908              -0.000637515               0.999999993               0.000000929              -0.000655688               0.999999993               0.000002890              -0.000676710               0.999999993               0.000004918              -0.000700032               0.999999993               0.000006859              -0.000725369               0.999999993               0.000008747              -0.000752263               0.999999993               0.000010486              -0.000780481               0.999999993               0.000011972              -0.000809740               0.999999993               0.000013032              -0.000839753               0.999999993               0.000013302              -0.000870310               0.999999993               0.000012419              -0.000901206               0.999999993               0.000009994              -0.000932179               0.999999993              -0.000000000              -0.000603354               0.999999993               0.000000000              -0.000607015               0.999999993              -0.000000000              -0.000610578               0.999999993               0.000000000              -0.000617418               0.999999993              -0.000000000              -0.000628212               0.999999993              -0.000000000              -0.000642826               0.999999993              -0.000000000              -0.000660814               0.999999993              -0.000000000              -0.000681664               0.999999993              -0.000000000              -0.000704812               0.999999993               0.000000000              -0.000729867               0.999999993               0.000000000              -0.000756671               0.999999993              -0.000000000              -0.000784923               0.999999993              -0.000000000              -0.000814342               0.999999993              -0.000000000              -0.000844720               0.999999993              -0.000000000              -0.000875719               0.999999993               0.000000000              -0.000907052               0.999999993               0.000000000              -0.000938246               0.999999993               0.000103614              -0.000000000               0.999999993               0.000127384              -0.000000000               0.999999993               0.000138572              -0.000000000               0.999999993               0.000145001              -0.000000000               0.999999993               0.000149822               0.000000000               0.999999993               0.000154438              -0.000000000               0.999999993               0.000159535               0.000000000               0.999999993               0.000165367              -0.000000000               0.999999993               0.000172051               0.000000000               0.999999993               0.000179614               0.000000000               0.999999993               0.000188110               0.000000000               0.999999993               0.000197449               0.000000000               0.999999993               0.000207597              -0.000000000               0.999999993               0.000218585              -0.000000000               0.999999993               0.000230359              -0.000000000               0.999999993               0.000242793               0.000000000               0.999999993               0.000255777               0.000000000               0.999999993               0.000103016               0.000059594               0.999999993               0.000125609               0.000051861               0.999999993               0.000136068               0.000049469               0.999999993               0.000142067               0.000049995               0.999999993               0.000146665               0.000052126               0.999999993               0.000151196               0.000055468               0.999999993               0.000156311               0.000059614               0.999999993               0.000162259               0.000064296               0.999999993               0.000169036               0.000069223               0.999999993               0.000176623               0.000074361               0.999999993               0.000185088               0.000079644               0.999999993               0.000194406               0.000084954               0.999999993               0.000204559               0.000090232               0.999999993               0.000215534               0.000095425               0.999999993               0.000227264               0.000100430               0.999999993               0.000239686               0.000105056               0.999999993               0.000252697               0.000108857               0.999999993               0.000101241               0.000118587               0.999999993               0.000120367               0.000103170               0.999999993               0.000128833               0.000098721               0.999999993               0.000133797               0.000100072               0.999999993               0.000137964               0.000104719               0.999999993               0.000142468               0.000111622               0.999999993               0.000147732               0.000120020               0.999999993               0.000153889               0.000129270               0.999999993               0.000160893               0.000139056               0.999999993               0.000168687               0.000149272               0.999999993               0.000177285               0.000159808               0.999999993               0.000186665               0.000170510               0.999999993               0.000196841               0.000181253               0.999999993               0.000207861               0.000191967               0.999999993               0.000219629               0.000202493               0.999999993               0.000232038               0.000212428               0.999999993               0.000245034               0.000221345               0.999999993               0.000098262               0.000176358               0.999999993               0.000111872               0.000153476               0.999999993               0.000117543               0.000147628               0.999999993               0.000121282               0.000150363               0.999999993               0.000125147               0.000157955               0.999999993               0.000129882               0.000168618               0.999999993               0.000135633               0.000181248               0.999999993               0.000142344               0.000195059               0.999999993               0.000149932               0.000209684               0.999999993               0.000158300               0.000224866               0.999999993               0.000167479               0.000240634               0.999999993               0.000177410               0.000256721               0.999999993               0.000188068               0.000273036               0.999999993               0.000199481               0.000289537               0.999999993               0.000211516               0.000305840               0.999999993               0.000224052               0.000321581               0.999999993               0.000237022               0.000336433               0.999999993               0.000094036               0.000232291               0.999999993               0.000100531               0.000202522               0.999999993               0.000103164               0.000196088               0.999999993               0.000105932               0.000200790               0.999999993               0.000109948               0.000211561               0.999999993               0.000115367               0.000226081               0.999999993               0.000122049               0.000243002               0.999999993               0.000129770               0.000261367               0.999999993               0.000138394               0.000280695               0.999999993               0.000147755               0.000300801               0.999999993               0.000157846               0.000321674               0.999999993               0.000168602               0.000343056               0.999999993               0.000179978               0.000364886               0.999999993               0.000191877               0.000387030               0.999999993               0.000204236               0.000408994               0.999999993               0.000216918               0.000430529               0.999999993               0.000229819               0.000451270               0.999999993               0.000088667               0.000285753               0.999999993               0.000087115               0.000250127               0.999999993               0.000087158               0.000243833               0.999999993               0.000089695               0.000250832               0.999999993               0.000094469               0.000264994               0.999999993               0.000101067               0.000283431               0.999999993               0.000108974               0.000304618               0.999999993               0.000117997               0.000327473               0.999999993               0.000127899               0.000351390               0.999999993               0.000138436               0.000376296               0.999999993               0.000149605               0.000402063               0.999999993               0.000161292               0.000428510               0.999999993               0.000173461               0.000455612               0.999999993               0.000186023               0.000482988               0.999999993               0.000198791               0.000510263               0.999999993               0.000211713               0.000537047               0.999999993               0.000224721               0.000563350               0.999999993               0.000082496               0.000336102               0.999999993               0.000072660               0.000295999               0.999999993               0.000070889               0.000290531               0.999999993               0.000073987               0.000300079               0.999999993               0.000080023               0.000317649               0.999999993               0.000088104               0.000339967               0.999999993               0.000097656               0.000365325               0.999999993               0.000108231               0.000392543               0.999999993               0.000119463               0.000421008               0.999999993               0.000131224               0.000450425               0.999999993               0.000143470               0.000480829               0.999999993               0.000156183               0.000512031               0.999999993               0.000169262               0.000543854               0.999999993               0.000182561               0.000575982               0.999999993               0.000195907               0.000607843               0.999999993               0.000209178               0.000639259               0.999999993               0.000222246               0.000670188               0.999999993               0.000075638               0.000382890               0.999999993               0.000057951               0.000339983               0.999999993               0.000055341               0.000335806               0.999999993               0.000059643               0.000348039               0.999999993               0.000067414               0.000368918               0.999999993               0.000077407               0.000395048               0.999999993               0.000088746               0.000424333               0.999999993               0.000100786               0.000455731               0.999999993               0.000113335               0.000488460               0.999999993               0.000126255               0.000522214               0.999999993               0.000139651               0.000557023               0.999999993               0.000153414               0.000592588               0.999999993               0.000167389               0.000628751               0.999999993               0.000181297               0.000665059               0.999999993               0.000194970               0.000700938               0.999999993               0.000208270               0.000736300               0.999999993               0.000221080               0.000770920               0.999999993               0.000068485               0.000425335               0.999999993               0.000043477               0.000382068               0.999999993               0.000041372               0.000379225               0.999999993               0.000047394               0.000394034               0.999999993               0.000057227               0.000418173               0.999999993               0.000069236               0.000447923               0.999999993               0.000082124               0.000481009               0.999999993               0.000095469               0.000516379               0.999999993               0.000109123               0.000553236               0.999999993               0.000123183               0.000591238               0.999999993               0.000137560               0.000630290               0.999999993               0.000152151               0.000670047               0.999999993               0.000166657               0.000710084               0.999999993               0.000180796               0.000749959               0.999999993               0.000194440               0.000789285               0.999999993               0.000207672               0.000827988               0.999999993               0.000220600               0.000866068               0.999999993               0.000061701               0.000464896               0.999999993               0.000032439               0.000426309               0.999999993               0.000028297               0.000419861               0.999999993               0.000033109               0.000430465               0.999999993               0.000041758               0.000450502               0.999999993               0.000052643               0.000476447               0.999999993               0.000064442               0.000506011               0.999999993               0.000076600               0.000538016               0.999999993               0.000088884               0.000571736               0.999999993               0.000101276               0.000606783               0.999999993               0.000113821               0.000642874               0.999999993               0.000126620               0.000679749               0.999999993               0.000139447               0.000717169               0.999999993               0.000152032               0.000754744               0.999999993               0.000164229               0.000792243               0.999999993               0.000176031               0.000829323               0.999999993               0.000187760               0.000865960               0.999999993               0.000054061               0.000500440               0.999999993               0.000023357               0.000468352               0.999999993               0.000017212               0.000460667               0.999999993               0.000020281               0.000467990               0.999999993               0.000027420               0.000484553               0.999999993               0.000036912               0.000507110               0.999999993               0.000047539               0.000533493               0.999999993               0.000058385               0.000562437               0.999999993               0.000069250               0.000593206               0.999999993               0.000079997               0.000625420               0.999999993               0.000090686               0.000658780               0.999999993               0.000101456               0.000693012               0.999999993               0.000112264               0.000727850               0.999999993               0.000122958               0.000762995               0.999999993               0.000133152               0.000798276               0.999999993               0.000142775               0.000833522               0.999999993               0.000152048               0.000868646               0.999999993               0.000045915               0.000531187               0.999999993               0.000016172               0.000507050               0.999999993               0.000008498               0.000500075               0.999999993               0.000009713               0.000505337               0.999999993               0.000015101               0.000519169               0.999999993               0.000022956               0.000538925               0.999999993               0.000032187               0.000562617               0.999999993               0.000041614               0.000588980               0.999999993               0.000050948               0.000617271               0.999999993               0.000060023               0.000647062               0.999999993               0.000068799               0.000678050               0.999999993               0.000077455               0.000709966               0.999999993               0.000086149               0.000742500               0.999999993               0.000094637               0.000775421               0.999999993               0.000102505               0.000808578               0.999999993               0.000109424               0.000841885               0.999999993               0.000115453               0.000875277               0.999999993               0.000037369               0.000556752               0.999999993               0.000010752               0.000540966               0.999999993               0.000002454               0.000536140               0.999999993               0.000002068               0.000540772               0.999999993               0.000005696               0.000552719               0.999999993               0.000011804               0.000570250               0.999999993               0.000019278               0.000591806               0.999999993               0.000027093               0.000616200               0.999999993               0.000034795               0.000642598               0.999999993               0.000042142               0.000670564               0.999999993               0.000049130               0.000699740               0.999999993               0.000055906               0.000729763               0.999999993               0.000062409               0.000760461               0.999999993               0.000068519               0.000791662               0.999999993               0.000073815               0.000823213               0.999999993               0.000077799               0.000854999               0.999999993               0.000080125               0.000887014               0.999999993               0.000028439               0.000576928               0.999999993               0.000006766               0.000568906               0.999999993              -0.000000976               0.000566899               0.999999993              -0.000002333               0.000571892               0.999999993              -0.000000266               0.000582919               0.999999993               0.000004059               0.000598965               0.999999993               0.000009669               0.000618864               0.999999993               0.000015675               0.000641678               0.999999993               0.000021625               0.000666660               0.999999993               0.000027300               0.000693331               0.999999993               0.000032630               0.000721259               0.999999993               0.000037638               0.000750099               0.999999993               0.000042185               0.000779651               0.999999993               0.000046044               0.000809769               0.999999993               0.000048834               0.000840416               0.999999993               0.000050186               0.000871410               0.999999993               0.000049374               0.000902616               0.999999993               0.000019177               0.000591502               0.999999993               0.000003881               0.000589743               0.999999993              -0.000002114               0.000590539               0.999999993              -0.000003640               0.000596340               0.999999993              -0.000002640               0.000607119               0.999999993               0.000000022               0.000622264               0.999999993               0.000003728               0.000641021               0.999999993               0.000007720               0.000662726               0.999999993               0.000011728               0.000686682               0.999999993               0.000015636               0.000712474               0.999999993               0.000019289               0.000739726               0.999999993               0.000022638               0.000768116               0.999999993               0.000025583               0.000797262               0.999999993               0.000027770               0.000827001               0.999999993               0.000028824               0.000857231               0.999999993               0.000028364               0.000887817               0.999999993               0.000025836               0.000918673               0.999999993               0.000009665               0.000600349               0.999999993               0.000001744               0.000602619               0.999999993              -0.000001526               0.000605463               0.999999993              -0.000002498               0.000612030               0.999999993              -0.000002135               0.000622806               0.999999993              -0.000000908               0.000637515               0.999999993               0.000000929               0.000655688               0.999999993               0.000002890               0.000676710               0.999999993               0.000004918               0.000700032               0.999999993               0.000006859               0.000725369               0.999999993               0.000008747               0.000752263               0.999999993               0.000010486               0.000780481               0.999999993               0.000011972               0.000809740               0.999999993               0.000013032               0.000839753               0.999999993               0.000013302               0.000870310               0.999999993               0.000012419               0.000901206               0.999999993               0.000009994               0.000932179               0.999999993              -0.000000000               0.000603354               0.999999993               0.000000000               0.000607015               0.999999993              -0.000000000               0.000610578               0.999999993               0.000000000               0.000617418               0.999999993               0.000000000               0.000628212               0.999999993               0.000000000               0.000642826               0.999999993               0.000000000               0.000660814               0.999999993               0.000000000               0.000681664               0.999999993               0.000000000               0.000704812               0.999999993               0.000000000               0.000729867               0.999999993               0.000000000               0.000756671               0.999999993              -0.000000000               0.000784923               0.999999993              -0.000000000               0.000814342               0.999999993              -0.000000000               0.000844720               0.999999993               0.000000000               0.000875719               0.999999993               0.000000000               0.000907052               0.999999993               0.000000000               0.000938246               0.999999993 </DataArray>
<DataArray type="Float64"                                    Name="defo"                                                      NumberOfComponents=" 3" format="ascii">
             -0.000103614               0.000000000               0.999999993              -0.000127384              -0.000000000               0.999999993              -0.000138572               0.000000000               0.999999993              -0.000145001               0.000000000               0.999999993              -0.000149822               0.000000000               0.999999993              -0.000154438               0.000000000               0.999999993              -0.000159535              -0.000000000               0.999999993              -0.000165367               0.000000000               0.999999993              -0.000172051               0.000000000               0.999999993              -0.000179614               0.000000000               0.999999993              -0.000188110              -0.000000000               0.999999993              -0.000197449               0.000000000               0.999999993              -0.000207597               0.000000000               0.999999993              -0.000218585               0.000000000               0.999999993              -0.000230359               0.000000000               0.999999993              -0.000242793               0.000000000               0.999999993              -0.000255777               0.000000000               0.999999993              -0.000103016               0.000059594               0.999999993              -0.000125609               0.000051861               0.999999993              -0.000136068               0.000049469               0.999999993              -0.000142067               0.000049995               0.999999993              -0.000146665               0.000052126               0.999999993              -0.000151196               0.000055468               0.999999993              -0.000156311               0.000059614               0.999999993              -0.000162259               0.000064296               0.999999993              -0.000169036               0.000069223               0.999999993              -0.000176623               0.000074361               0.999999993              -0.000185088               0.000079644               0.999999993              -0.000194406               0.000084954               0.999999993              -0.000204559               0.000090232               0.999999993              -0.000215534               0.000095425               0.999999993              -0.000227264               0.000100430               0.999999993              -0.000239686               0.000105056               0.999999993              -0.000252697               0.000108857               0.999999993              -0.000101241               0.000118587               0.999999993              -0.000120367               0.000103170               0.999999993              -0.000128833               0.000098721               0.999999993              -0.000133797               0.000100072               0.999999993              -0.000137964               0.000104719               0.999999993              -0.000142468               0.000111622               0.999999993              -0.000147732               0.000120020               0.999999993              -0.000153889               0.000129270               0.999999993              -0.000160893               0.000139056               0.999999993              -0.000168687               0.000149272               0.999999993              -0.000177285               0.000159808               0.999999993              -0.000186665               0.000170510               0.999999993              -0.000196841               0.000181253               0.999999993              -0.000207861               0.000191967               0.999999993              -0.000219629               0.000202493               0.999999993              -0.000232038               0.000212428               0.999999993              -0.000245034               0.000221345               0.999999993              -0.000098262               0.000176358               0.999999993              -0.000111872               0.000153476               0.999999993              -0.000117543               0.000147628               0.999999993              -0.000121282               0.000150363               0.999999993              -0.000125147               0.000157955               0.999999993              -0.000129882               0.000168618               0.999999993              -0.000135633               0.000181248               0.999999993              -0.000142344               0.000195059               0.999999993              -0.000149932               0.000209684               0.999999993              -0.000158300               0.000224866               0.999999993              -0.000167479               0.000240634               0.999999993              -0.000177410               0.000256721               0.999999993              -0.000188068               0.000273036               0.999999993              -0.000199481               0.000289537               0.999999993              -0.000211516               0.000305840               0.999999993              -0.000224052               0.000321581               0.999999993              -0.000237022               0.000336433               0.999999993              -0.000094036               0.000232291               0.999999993              -0.000100531               0.000202522               0.999999993              -0.000103164               0.000196088               0.999999993              -0.000105932               0.000200790               0.999999993              -0.000109948               0.000211561               0.999999993              -0.000115367               0.000226081               0.999999993              -0.000122049               0.000243002               0.999999993              -0.000129770               0.000261367               0.999999993              -0.000138394               0.000280695               0.999999993              -0.000147755               0.000300801               0.999999993              -0.000157846               0.000321674               0.999999993              -0.000168602               0.000343056               0.999999993              -0.000179978               0.000364886               0.999999993              -0.000191877               0.000387030               0.999999993              -0.000204236               0.000408994               0.999999993              -0.000216918               0.000430529               0.999999993              -0.000229819               0.000451270               0.999999993              -0.000088667               0.000285753               0.999999993              -0.000087115               0.000250127               0.999999993              -0.000087158               0.000243833               0.999999993              -0.000089695               0.000250832               0.999999993              -0.000094469               0.000264994               0.999999993              -0.000101067               0.000283431               0.999999993              -0.000108974               0.000304618               0.999999993              -0.000117997               0.000327473               0.999999993              -0.000127899               0.000351390               0.999999993              -0.000138436               0.000376296               0.999999993              -0.000149605               0.000402063               0.999999993              -0.000161292               0.000428510               0.999999993              -0.000173461               0.000455612               0.999999993              -0.000186023               0.000482988               0.999999993              -0.000198791               0.000510263               0.999999993              -0.000211713               0.000537047               0.999999993              -0.000224721               0.000563350               0.999999993              -0.000082496               0.000336102               0.999999993              -0.000072660               0.000295999               0.999999993              -0.000070889               0.000290531               0.999999993              -0.000073987               0.000300079               0.999999993              -0.000080023               0.000317649               0.999999993              -0.000088104               0.000339967               0.999999993              -0.000097656               0.000365325               0.999999993              -0.000108231               0.000392543               0.999999993              -0.000119463               0.000421008               0.999999993              -0.000131224               0.000450425               0.999999993              -0.000143470               0.000480829               0.999999993              -0.000156183               0.000512031               0.999999993              -0.000169262               0.000543854               0.999999993              -0.000182561               0.000575982               0.999999993              -0.000195907               0.000607843               0.999999993              -0.000209178               0.000639259               0.999999993              -0.000222246               0.000670188               0.999999993              -0.000075638               0.000382890               0.999999993              -0.000057951               0.000339983               0.999999993              -0.000055341               0.000335806               0.999999993              -0.000059643               0.000348039               0.999999993              -0.000067414               0.000368918               0.999999993              -0.000077407               0.000395048               0.999999993              -0.000088746               0.000424333               0.999999993              -0.000100786               0.000455731               0.999999993              -0.000113335               0.000488460               0.999999993              -0.000126255               0.000522214               0.999999993              -0.000139651               0.000557023               0.999999993              -0.000153414               0.000592588               0.999999993              -0.000167389               0.000628751               0.999999993              -0.000181297               0.000665059               0.999999993              -0.000194970               0.000700938               0.999999993              -0.000208270               0.000736300               0.999999993              -0.000221080               0.000770920               0.999999993              -0.000068485               0.000425335               0.999999993              -0.000043477               0.000382068               0.999999993              -0.000041372               0.000379225               0.999999993              -0.000047394               0.000394034               0.999999993              -0.000057227               0.000418173               0.999999993              -0.000069236               0.000447923               0.999999993              -0.000082124               0.000481009               0.999999993              -0.000095469               0.000516379               0.999999993              -0.000109123               0.000553236               0.999999993              -0.000123183               0.000591238               0.999999993              -0.000137560               0.000630290               0.999999993              -0.000152151               0.000670047               0.999999993              -0.000166657               0.000710084               0.999999993              -0.000180796               0.000749959               0.999999993              -0.000194440               0.000789285               0.999999993              -0.000207672               0.000827988               0.999999993              -0.000220600               0.000866068               0.999999993              -0.000061701               0.000464896               0.999999993              -0.000032439               0.000426309               0.999999993              -0.000028297               0.000419861               0.999999993              -0.000033109               0.000430465               0.999999993              -0.000041758               0.000450502               0.999999993              -0.000052643               0.000476447               0.999999993              -0.000064442               0.000506011               0.999999993              -0.000076600               0.000538016               0.999999993              -0.000088884               0.000571736               0.999999993              -0.000101276               0.000606783               0.999999993              -0.000113821               0.000642874               0.999999993              -0.000126620               0.000679749               0.999999993              -0.000139447               0.000717169               0.999999993              -0.000152032               0.000754744               0.999999993              -0.000164229               0.000792243               0.999999993              -0.000176031               0.000829323               0.999999993              -0.000187760               0.000865960               0.999999993              -0.000054061               0.000500440               0.999999993              -0.000023357               0.000468352               0.999999993              -0.000017212               0.000460667               0.999999993              -0.000020281               0.000467990               0.999999993              -0.000027420               0.000484553               0.999999993              -0.000036912               0.000507110               0.999999993              -0.000047539               0.000533493               0.999999993              -0.000058385               0.000562437               0.999999993              -0.000069250               0.000593206               0.999999993              -0.000079997               0.000625420               0.999999993              -0.000090686               0.000658780               0.999999993              -0.000101456               0.000693012               0.999999993              -0.000112264               0.000727850               0.999999993              -0.000122958               0.000762995               0.999999993              -0.000133152               0.000798276               0.999999993              -0.000142775               0.000833522               0.999999993              -0.000152048               0.000868646               0.999999993              -0.000045915               0.000531187               0.999999993              -0.000016172               0.000507050               0.999999993              -0.000008498               0.000500075               0.999999993              -0.000009713               0.000505337               0.999999993              -0.000015101               0.000519169               0.999999993              -0.000022956               0.000538925               0.999999993              -0.000032187               0.000562617               0.999999993              -0.000041614               0.000588980               0.999999993              -0.000050948               0.000617271               0.999999993              -0.000060023               0.000647062               0.999999993              -0.000068799               0.000678050               0.999999993              -0.000077455               0.000709966               0.999999993              -0.000086149               0.000742500               0.999999993              -0.000094637               0.000775421               0.999999993              -0.000102505               0.000808578               0.999999993              -0.000109424               0.000841885               0.999999993              -0.000115453               0.000875277               0.999999993              -0.000037369               0.000556752               0.999999993              -0.000010752               0.000540966               0.999999993              -0.000002454               0.000536140               0.999999993              -0.000002068               0.000540772               0.999999993              -0.000005696               0.000552719               0.999999993              -0.000011804               0.000570250               0.999999993              -0.000019278               0.000591806               0.999999993              -0.000027093               0.000616200               0.999999993              -0.000034795               0.000642598               0.999999993              -0.000042142               0.000670564               0.999999993              -0.000049130               0.000699740               0.999999993              -0.000055906               0.000729763               0.999999993              -0.000062409               0.000760461               0.999999993              -0.000068519               0.000791662               0.999999993              -0.000073815               0.000823213               0.999999993              -0.000077799               0.000854999               0.999999993              -0.000080125               0.000887014               0.999999993              -0.000028439               0.000576928               0.999999993              -0.000006766               0.000568906               0.999999993               0.000000976               0.000566899               0.999999993               0.000002333               0.000571892               0.999999993               0.000000266               0.000582919               0.999999993              -0.000004059               0.000598965               0.999999993              -0.000009669               0.000618864               0.999999993              -0.000015675               0.000641678               0.999999993              -0.000021625               0.000666660               0.999999993              -0.000027300               0.000693331               0.999999993              -0.000032630               0.000721259               0.999999993              -0.000037638               0.000750099               0.999999993              -0.000042185               0.000779651               0.999999993              -0.000046044               0.000809769               0.999999993              -0.000048834               0.000840416               0.999999993              -0.000050186               0.000871410               0.999999993              -0.000049374               0.000902616               0.999999993              -0.000019177               0.000591502               0.999999993              -0.000003881               0.000589743               0.999999993               0.000002114               0.000590539               0.999999993               0.000003640               0.000596340               0.999999993               0.000002640               0.000607119               0.999999993              -0.000000022               0.000622264               0.999999993              -0.000003728               0.000641021               0.999999993              -0.000007720               0.000662726               0.999999993              -0.000011728               0.000686682               0.999999993              -0.000015636               0.000712474               0.999999993              -0.000019289               0.000739726               0.999999993              -0.000022638               0.000768116               0.999999993              -0.000025583               0.000797262               0.999999993              -0.000027770               0.000827001               0.999999993              -0.000028824               0.000857231               0.999999993              -0.000028364               0.000887817               0.999999993              -0.000025836               0.000918673               0.999999993              -0.000009665               0.000600349               0.999999993              -0.000001744               0.000602619               0.999999993               0.000001526               0.000605463               0.999999993               0.000002498               0.000612030               0.999999993               0.000002135               0.000622806               0.999999993               0.000000908               0.000637515               0.999999993              -0.000000929               0.000655688               0.999999993              -0.000002890               0.000676710               0.999999993              -0.000004918               0.000700032               0.999999993              -0.000006859               0.000725369               0.999999993              -0.000008747               0.000752263               0.999999993              -0.000010486               0.000780481               0.999999993              -0.000011972               0.000809740               0.999999993              -0.000013032               0.000839753               0.999999993              -0.000013302               0.000870310               0.999999993              -0.000012419               0.000901206               0.999999993              -0.000009994               0.000932179               0.999999993              -0.000000000               0.000603354               0.999999993               0.000000000               0.000607015               0.999999993              -0.000000000               0.000610578               0.999999993               0.000000000               0.000617418               0.999999993               0.000000000               0.000628212               0.999999993               0.000000000               0.000642826               0.999999993               0.000000000               0.000660814               0.999999993               0.000000000               0.000681664               0.999999993               0.000000000               0.000704812               0.999999993               0.000000000               0.000729867               0.999999993               0.000000000               0.000756671               0.999999993              -0.000000000               0.000784923               0.999999993              -0.000000000               0.000814342               0.999999993              -0.000000000               0.000844720               0.999999993               0.000000000               0.000875719               0.999999993               0.000000000               0.000907052               0.999999993               0.000000000               0.000938246               0.999999993              -0.000103614               0.000000000               0.999999993              -0.000127384              -0.000000000               0.999999993              -0.000138572               0.000000000               0.999999993              -0.000145001               0.000000000               0.999999993              -0.000149822               0.000000000               0.999999993              -0.000154438               0.000000000               0.999999993              -0.000159535              -0.000000000               0.999999993              -0.000165367               0.000000000               0.999999993              -0.000172051               0.000000000               0.999999993              -0.000179614               0.000000000               0.999999993              -0.000188110              -0.000000000               0.999999993              -0.000197449               0.000000000               0.999999993              -0.000207597               0.000000000               0.999999993              -0.000218585               0.000000000               0.999999993              -0.000230359               0.000000000               0.999999993              -0.000242793               0.000000000               0.999999993              -0.000255777               0.000000000               0.999999993              -0.000103016              -0.000059594               0.999999993              -0.000125609              -0.000051861               0.999999993              -0.000136068              -0.000049469               0.999999993              -0.000142067              -0.000049995               0.999999993              -0.000146665              -0.000052126               0.999999993              -0.000151196              -0.000055468               0.999999993              -0.000156311              -0.000059614               0.999999993              -0.000162259              -0.000064296               0.999999993              -0.000169036              -0.000069223               0.999999993              -0.000176623              -0.000074361               0.999999993              -0.000185088              -0.000079644               0.999999993              -0.000194406              -0.000084954               0.999999993              -0.000204559              -0.000090232               0.999999993              -0.000215534              -0.000095425               0.999999993              -0.000227264              -0.000100430               0.999999993              -0.000239686              -0.000105056               0.999999993              -0.000252697              -0.000108857               0.999999993              -0.000101241              -0.000118587               0.999999993              -0.000120367              -0.000103170               0.999999993              -0.000128833              -0.000098721               0.999999993              -0.000133797              -0.000100072               0.999999993              -0.000137964              -0.000104719               0.999999993              -0.000142468              -0.000111622               0.999999993              -0.000147732              -0.000120020               0.999999993              -0.000153889              -0.000129270               0.999999993              -0.000160893              -0.000139056               0.999999993              -0.000168687              -0.000149272               0.999999993              -0.000177285              -0.000159808               0.999999993              -0.000186665              -0.000170510               0.999999993              -0.000196841              -0.000181253               0.999999993              -0.000207861              -0.000191967               0.999999993              -0.000219629              -0.000202493               0.999999993              -0.000232038              -0.000212428               0.999999993              -0.000245034              -0.000221345               0.999999993              -0.000098262              -0.000176358               0.999999993              -0.000111872              -0.000153476               0.999999993              -0.000117543              -0.000147628               0.999999993              -0.000121282              -0.000150363               0.999999993              -0.000125147              -0.000157955               0.999999993              -0.000129882              -0.000168618               0.999999993              -0.000135633              -0.000181248               0.999999993              -0.000142344              -0.000195059               0.999999993              -0.000149932              -0.000209684               0.999999993              -0.000158300              -0.000224866               0.999999993              -0.000167479              -0.000240634               0.999999993              -0.000177410              -0.000256721               0.999999993              -0.000188068              -0.000273036               0.999999993              -0.000199481              -0.000289537               0.999999993              -0.000211516              -0.000305840               0.999999993              -0.000224052              -0.000321581               0.999999993              -0.000237022              -0.000336433               0.999999993              -0.000094036              -0.000232291               0.999999993              -0.000100531              -0.000202522               0.999999993              -0.000103164              -0.000196088               0.999999993              -0.000105932              -0.000200790               0.999999993              -0.000109948              -0.000211561               0.999999993              -0.000115367              -0.000226081               0.999999993              -0.000122049              -0.000243002               0.999999993              -0.000129770              -0.000261367               0.999999993              -0.000138394              -0.000280695               0.999999993              -0.000147755              -0.000300801               0.999999993              -0.000157846              -0.000321674               0.999999993              -0.000168602              -0.000343056               0.999999993              -0.000179978              -0.000364886               0.999999993              -0.000191877              -0.000387030               0.999999993              -0.000204236              -0.000408994               0.999999993              -0.000216918              -0.000430529               0.999999993              -0.000229819              -0.000451270               0.999999993              -0.000088667              -0.000285753               0.999999993              -0.000087115              -0.000250127               0.999999993              -0.000087158              -0.000243833               0.999999993              -0.000089695              -0.000250832               0.999999993              -0.000094469              -0.000264994               0.999999993              -0.000101067              -0.000283431               0.999999993              -0.000108974              -0.000304618               0.999999993              -0.000117997              -0.000327473               0.999999993              -0.000127899              -0.000351390               0.999999993              -0.000138436              -0.000376296               0.999999993              -0.000149605              -0.000402063               0.999999993              -0.000161292              -0.000428510               0.999999993              -0.000173461              -0.000455612               0.999999993              -0.000186023              -0.000482988               0.999999993              -0.000198791              -0.000510263               0.999999993              -0.000211713              -0.000537047               0.999999993              -0.000224721              -0.000563350               0.999999993              -0.000082496              -0.000336102               0.999999993              -0.000072660              -0.000295999               0.999999993              -0.000070889              -0.000290531               0.999999993              -0.000073987              -0.000300079               0.999999993              -0.000080023              -0.000317649               0.999999993              -0.000088104              -0.000339967               0.999999993              -0.000097656              -0.000365325               0.999999993              -0.000108231              -0.000392543               0.999999993              -0.000119463              -0.000421008               0.999999993              -0.000131224              -0.000450425               0.999999993              -0.000143470              -0.000480829               0.999999993              -0.000156183              -0.000512031               0.999999993              -0.000169262              -0.000543854               0.999999993              -0.000182561              -0.000575982               0.999999993              -0.000195907              -0.000607843               0.999999993              -0.000209178              -0.000639259               0.999999993              -0.000222246              -0.000670188               0.999999993              -0.000075638              -0.000382890               0.999999993              -0.000057951              -0.000339983               0.999999993              -0.000055341              -0.000335806               0.999999993              -0.000059643              -0.000348039               0.999999993              -0.000067414              -0.000368918               0.999999993              -0.000077407              -0.000395048               0.999999993              -0.000088746              -0.000424333               0.999999993              -0.000100786              -0.000455731               0.999999993              -0.000113335              -0.000488460               0.999999993              -0.000126255              -0.000522214               0.999999993              -0.000139651              -0.000557023               0.999999993              -0.000153414              -0.000592588               0.999999993              -0.000167389              -0.000628751               0.999999993              -0.000181297              -0.000665059               0.999999993              -0.000194970              -0.000700938               0.999999993              -0.000208270              -0.000736300               0.999999993              -0.000221080              -0.000770920               0.999999993              -0.000068485              -0.000425335               0.999999993              -0.000043477              -0.000382068               0.999999993              -0.000041372              -0.000379225               0.999999993              -0.000047394              -0.000394034               0.999999993              -0.000057227              -0.000418173               0.999999993              -0.000069236              -0.000447923               0.999999993              -0.000082124              -0.000481009               0.999999993              -0.000095469              -0.000516379               0.999999993              -0.000109123              -0.000553236               0.999999993              -0.000123183              -0.000591238               0.999999993              -0.000137560              -0.000630290               0.999999993              -0.000152151              -0.000670047               0.999999993              -0.000166657              -0.000710084               0.999999993              -0.000180796              -0.000749959               0.999999993              -0.000194440              -0.000789285               0.999999993              -0.000207672              -0.000827988               0.999999993              -0.000220600              -0.000866068               0.999999993              -0.000061701              -0.000464896               0.999999993              -0.000032439              -0.000426309               0.999999993              -0.000028297              -0.000419861               0.999999993              -0.000033109              -0.000430465               0.999999993              -0.000041758              -0.000450502               0.999999993              -0.000052643              -0.000476447               0.999999993              -0.000064442              -0.000506011               0.999999993              -0.000076600              -0.000538016               0.999999993              -0.000088884              -0.000571736               0.999999993              -0.000101276              -0.000606783               0.999999993              -0.000113821              -0.000642874               0.999999993              -0.000126620              -0.000679749               0.999999993              -0.000139447              -0.000717169               0.999999993              -0.000152032              -0.000754744               0.999999993              -0.000164229              -0.000792243               0.999999993              -0.000176031              -0.000829323               0.999999993              -0.000187760              -0.000865960               0.999999993              -0.000054061              -0.000500440               0.999999993              -0.000023357              -0.000468352               0.999999993              -0.000017212              -0.000460667               0.999999993              -0.000020281              -0.000467990               0.999999993              -0.000027420              -0.000484553               0.999999993              -0.000036912              -0.000507110               0.999999993              -0.000047539              -0.000533493               0.999999993              -0.000058385              -0.000562437               0.999999993              -0.000069250              -0.000593206               0.999999993              -0.000079997              -0.000625420               0.999999993              -0.000090686              -0.000658780               0.999999993              -0.000101456              -0.000693012               0.999999993              -0.000112264              -0.000727850               0.999999993              -0.000122958              -0.000762995               0.999999993              -0.000133152              -0.000798276               0.999999993              -0.000142775              -0.000833522               0.999999993              -0.000152048              -0.000868646               0.999999993              -0.000045915              -0.000531187               0.999999993              -0.000016172              -0.000507050               0.999999993              -0.000008498              -0.000500075               0.999999993              -0.000009713              -0.000505337               0.999999993              -0.000015101              -0.000519169               0.999999993              -0.000022956              -0.000538925               0.999999993              -0.000032187              -0.000562617               0.999999993              -0.000041614              -0.000588980               0.999999993              -0.000050948              -0.000617271               0.999999993              -0.000060023              -0.000647062               0.999999993              -0.000068799              -0.000678050               0.999999993              -0.000077455              -0.000709966               0.999999993              -0.000086149              -0.000742500               0.999999993              -0.000094637              -0.000775421               0.999999993              -0.000102505              -0.000808578               0.999999993              -0.000109424              -0.000841885               0.999999993              -0.000115453              -0.000875277               0.999999993              -0.000037369              -0.000556752               0.999999993              -0.000010752              -0.000540966               0.999999993              -0.000002454              -0.000536140               0.999999993              -0.000002068              -0.000540772               0.999999993              -0.000005696              -0.000552719               0.999999993              -0.000011804              -0.000570250               0.999999993              -0.000019278              -0.000591806               0.999999993              -0.000027093              -0.000616200               0.999999993              -0.000034795              -0.000642598               0.999999993              -0.000042142              -0.000670564               0.999999993              -0.000049130              -0.000699740               0.999999993              -0.000055906              -0.000729763               0.999999993              -0.000062409              -0.000760461               0.999999993              -0.000068519              -0.000791662               0.999999993              -0.000073815              -0.000823213               0.999999993              -0.000077799              -0.000854999               0.999999993              -0.000080125              -0.000887014               0.999999993              -0.000028439              -0.000576928               0.999999993              -0.000006766              -0.000568906               0.999999993               0.000000976              -0.000566899               0.999999993               0.000002333              -0.000571892               0.999999993               0.000000266              -0.000582919               0.999999993              -0.000004059              -0.000598965               0.999999993              -0.000009669              -0.000618864               0.999999993              -0.000015675              -0.000641678               0.999999993              -0.000021625              -0.000666660               0.999999993              -0.000027300              -0.000693331               0.999999993              -0.000032630              -0.000721259               0.999999993              -0.000037638              -0.000750099               0.999999993              -0.000042185              -0.000779651               0.999999993              -0.000046044              -0.000809769               0.999999993              -0.000048834              -0.000840416               0.999999993              -0.000050186              -0.000871410               0.999999993              -0.000049374              -0.000902616               0.999999993              -0.000019177              -0.000591502               0.999999993              -0.000003881              -0.000589743               0.999999993               0.000002114              -0.000590539               0.999999993               0.000003640              -0.000596340               0.999999993               0.000002640              -0.000607119               0.999999993              -0.000000022              -0.000622264               0.999999993              -0.000003728              -0.000641021               0.999999993              -0.000007720              -0.000662726               0.999999993              -0.000011728              -0.000686682               0.999999993              -0.000015636              -0.000712474               0.999999993              -0.000019289              -0.000739726               0.999999993              -0.000022638              -0.000768116               0.999999993              -0.000025583              -0.000797262               0.999999993              -0.000027770              -0.000827001               0.999999993              -0.000028824              -0.000857231               0.999999993              -0.000028364              -0.000887817               0.999999993              -0.000025836              -0.000918673               0.999999993              -0.000009665              -0.000600349               0.999999993              -0.000001744              -0.000602619               0.999999993               0.000001526              -0.000605463               0.999999993               0.000002498              -0.000612030               0.999999993               0.000002135              -0.000622806               0.999999993               0.000000908              -0.000637515               0.999999993              -0.000000929              -0.000655688               0.999999993              -0.000002890              -0.000676710               0.999999993              -0.000004918              -0.000700032               0.999999993              -0.000006859              -0.000725369               0.999999993              -0.000008747              -0.000752263               0.999999993              -0.000010486              -0.000780481               0.999999993              -0.000011972              -0.000809740               0.999999993              -0.000013032              -0.000839753               0.999999993              -0.000013302              -0.000870310               0.999999993              -0.000012419              -0.000901206               0.999999993              -0.000009994              -0.000932179               0.999999993              -0.000000000              -0.000603354               0.999999993               0.000000000              -0.000607015               0.999999993              -0.000000000              -0.000610578               0.999999993               0.000000000              -0.000617418               0.999999993              -0.000000000              -0.000628212               0.999999993              -0.000000000              -0.000642826               0.999999993              -0.000000000              -0.000660814               0.999999993              -0.000000000              -0.000681664               0.999999993              -0.000000000              -0.000704812               0.999999993               0.000000000              -0.000729867               0.999999993               0.000000000              -0.000756671               0.999999993              -0.000000000              -0.000784923               0.999999993              -0.000000000              -0.000814342               0.999999993              -0.000000000              -0.000844720               0.999999993              -0.000000000              -0.000875719               0.999999993               0.000000000              -0.000907052               0.999999993               0.000000000              -0.000938246               0.999999993               0.000103614              -0.000000000               0.999999993               0.000127384              -0.000000000               0.999999993               0.000138572              -0.000000000               0.999999993               0.000145001              -0.000000000               0.999999993               0.000149822               0.000000000               0.999999993               0.000154438              -0.000000000               0.999999993               0.000159535               0.000000000               0.999999993               0.000165367              -0.000000000               0.999999993               0.000172051               0.000000000               0.999999993               0.000179614               0.000000000               0.999999993               0.000188110               0.000000000               0.999999993               0.000197449               0.000000000               0.999999993               0.000207597              -0.000000000               0.999999993               0.000218585              -0.000000000               0.999999993               0.000230359              -0.000000000               0.999999993               0.000242793               0.000000000               0.999999993               0.000255777               0.000000000               0.999999993               0.000103016              -0.000059594               0.999999993               0.000125609              -0.000051861               0.999999993               0.000136068              -0.000049469               0.999999993               0.000142067              -0.000049995               0.999999993               0.000146665              -0.000052126               0.999999993               0.000151196              -0.000055468               0.999999993               0.000156311              -0.000059614               0.999999993               0.000162259              -0.000064296               0.999999993               0.000169036              -0.000069223               0.999999993               0.000176623              -0.000074361               0.999999993               0.000185088              -0.000079644               0.999999993               0.000194406              -0.000084954               0.999999993               0.000204559              -0.000090232               0.999999993               0.000215534              -0.000095425               0.999999993               0.000227264              -0.000100430               0.999999993               0.000239686              -0.000105056               0.999999993               0.000252697              -0.000108857               0.999999993               0.000101241              -0.000118587               0.999999993               0.000120367              -0.000103170               0.999999993               0.000128833              -0.000098721               0.999999993               0.000133797              -0.000100072               0.999999993               0.000137964              -0.000104719               0.999999993               0.000142468              -0.000111622               0.999999993               0.000147732              -0.000120020               0.999999993               0.000153889              -0.000129270               0.999999993               0.000160893              -0.000139056               0.999999993               0.000168687              -0.000149272               0.999999993               0.000177285              -0.000159808               0.999999993               0.000186665              -0.000170510               0.999999993               0.000196841              -0.000181253               0.999999993               0.000207861              -0.000191967               0.999999993               0.000219629              -0.000202493               0.999999993               0.000232038              -0.000212428               0.999999993               0.000245034              -0.000221345               0.999999993               0.000098262              -0.000176358               0.999999993               0.000111872              -0.000153476               0.999999993               0.000117543              -0.000147628               0.999999993               0.000121282              -0.000150363               0.999999993               0.000125147              -0.000157955               0.999999993               0.000129882              -0.000168618               0.999999993               0.000135633              -0.000181248               0.999999993               0.000142344              -0.000195059               0.999999993               0.000149932              -0.000209684               0.999999993               0.000158300              -0.000224866               0.999999993               0.000167479              -0.000240634               0.999999993               0.000177410              -0.000256721               0.999999993               0.000188068              -0.000273036               0.999999993               0.000199481              -0.000289537               0.999999993               0.000211516              -0.000305840               0.999999993               0.000224052              -0.000321581               0.999999993               0.000237022              -0.000336433               0.999999993               0.000094036              -0.000232291               0.999999993               0.000100531              -0.000202522               0.999999993               0.000103164              -0.000196088               0.999999993               0.000105932              -0.000200790               0.999999993               0.000109948              -0.000211561               0.999999993               0.000115367              -0.000226081               0.999999993               0.000122049              -0.000243002               0.999999993               0.000129770              -0.000261367               0.999999993               0.000138394              -0.000280695               0.999999993               0.000147755              -0.000300801               0.999999993               0.000157846              -0.000321674               0.999999993               0.000168602              -0.000343056               0.999999993               0.000179978              -0.000364886               0.999999993               0.000191877              -0.000387030               0.999999993               0.000204236              -0.000408994               0.999999993               0.000216918              -0.000430529               0.999999993               0.000229819              -0.000451270               0.999999993               0.000088667              -0.000285753               0.999999993               0.000087115              -0.000250127               0.999999993               0.000087158              -0.000243833               0.999999993               0.000089695              -0.000250832               0.999999993               0.000094469              -0.000264994               0.999999993               0.000101067              -0.000283431               0.999999993               0.000108974              -0.000304618               0.999999993               0.000117997              -0.000327473               0.999999993               0.000127899              -0.000351390               0.999999993               0.000138436              -0.000376296               0.999999993               0.000149605              -0.000402063               0.999999993               0.000161292              -0.000428510               0.999999993               0.000173461              -0.000455612               0.999999993               0.000186023              -0.000482988               0.999999993               0.000198791              -0.000510263               0.999999993               0.000211713              -0.000537047               0.999999993               0.000224721              -0.000563350               0.999999993               0.000082496              -0.000336102               0.999999993               0.000072660              -0.000295999               0.999999993               0.000070889              -0.000290531               0.999999993               0.000073987              -0.000300079               0.999999993               0.000080023              -0.000317649               0.999999993               0.000088104              -0.000339967               0.999999993               0.000097656              -0.000365325               0.999999993               0.000108231              -0.000392543               0.999999993               0.000119463              -0.000421008               0.999999993               0.000131224              -0.000450425               0.999999993               0.000143470              -0.000480829               0.999999993               0.000156183              -0.000512031               0.999999993               0.000169262              -0.000543854               0.999999993               0.000182561              -0.000575982               0.999999993               0.000195907              -0.000607843               0.999999993               0.000209178              -0.000639259               0.999999993               0.000222246              -0.000670188               0.999999993               0.000075638              -0.000382890               0.999999993               0.000057951              -0.000339983               0.999999993               0.000055341              -0.000335806               0.999999993               0.000059643              -0.000348039               0.999999993               0.000067414              -0.000368918               0.999999993               0.000077407              -0.000395048               0.999999993               0.000088746              -0.000424333               0.999999993               0.000100786              -0.000455731               0.999999993               0.000113335              -0.000488460               0.999999993               0.000126255              -0.000522214               0.999999993               0.000139651              -0.000557023               0.999999993               0.000153414              -0.000592588               0.999999993               0.000167389              -0.000628751               0.999999993               0.000181297              -0.000665059               0.999999993               0.000194970              -0.000700938               0.999999993               0.000208270              -0.000736300               0.999999993               0.000221080              -0.000770920               0.999999993               0.000068485              -0.000425335               0.999999993               0.000043477              -0.000382068               0.999999993               0.000041372              -0.000379225               0.999999993               0.000047394              -0.000394034               0.999999993               0.000057227              -0.000418173               0.999999993               0.000069236              -0.000447923               0.999999993               0.000082124              -0.000481009               0.999999993               0.000095469              -0.000516379               0.999999993               0.000109123              -0.000553236               0.999999993               0.000123183              -0.000591238               0.999999993               0.000137560              -0.000630290               0.999999993               0.000152151              -0.000670047               0.999999993               0.000166657              -0.000710084               0.999999993               0.000180796              -0.000749959               0.999999993               0.000194440              -0.000789285               0.999999993               0.000207672              -0.000827988               0.999999993               0.000220600              -0.000866068               0.999999993               0.000061701              -0.000464896               0.999999993               0.000032439              -0.000426309               0.999999993               0.000028297              -0.000419861               0.999999993               0.000033109              -0.000430465               0.999999993               0.000041758              -0.000450502               0.999999993               0.000052643              -0.000476447               0.999999993               0.000064442              -0.000506011               0.999999993               0.000076600              -0.000538016               0.999999993               0.000088884              -0.000571736               0.999999993               0.000101276              -0.000606783               0.999999993               0.000113821              -0.000642874               0.999999993               0.000126620              -0.000679749               0.999999993               0.000139447              -0.000717169               0.999999993               0.000152032              -0.000754744               0.999999993               0.000164229              -0.000792243               0.999999993               0.000176031              -0.000829323               0.999999993               0.000187760              -0.000865960               0.999999993               0.000054061              -0.000500440               0.999999993               0.000023357              -0.000468352               0.999999993               0.000017212              -0.000460667               0.999999993               0.000020281              -0.000467990               0.999999993               0.000027420              -0.000484553               0.999999993               0.000036912              -0.000507110               0.999999993               0.000047539              -0.000533493               0.999999993               0.000058385              -0.000562437               0.999999993               0.000069250              -0.000593206               0.999999993               0.000079997              -0.000625420               0.999999993               0.000090686              -0.000658780               0.999999993               0.000101456              -0.000693012               0.999999993               0.000112264              -0.000727850               0.999999993               0.000122958              -0.000762995               0.999999993               0.000133152              -0.000798276               0.999999993               0.000142775              -0.000833522               0.999999993               0.000152048              -0.000868646               0.999999993               0.000045915              -0.000531187               0.999999993               0.000016172              -0.000507050               0.999999993               0.000008498              -0.000500075               0.999999993               0.000009713              -0.000505337               0.999999993               0.000015101              -0.000519169               0.999999993               0.000022956              -0.000538925               0.999999993               0.000032187              -0.000562617               0.999999993               0.000041614              -0.000588980               0.999999993               0.000050948              -0.000617271               0.999999993               0.000060023              -0.000647062               0.999999993               0.000068799              -0.000678050               0.999999993               0.000077455              -0.000709966               0.999999993               0.000086149              -0.000742500               0.999999993               0.000094637              -0.000775421               0.999999993               0.000102505              -0.000808578               0.999999993               0.000109424              -0.000841885               0.999999993               0.000115453              -0.000875277               0.999999993               0.000037369              -0.000556752               0.999999993               0.000010752              -0.000540966               0.999999993               0.000002454              -0.000536140               0.999999993               0.000002068              -0.000540772               0.999999993               0.000005696              -0.000552719               0.999999993               0.000011804              -0.000570250               0.999999993               0.000019278              -0.000591806               0.999999993               0.000027093              -0.000616200               0.999999993               0.000034795              -0.000642598               0.999999993               0.000042142              -0.000670564               0.999999993               0.000049130              -0.000699740               0.999999993               0.000055906              -0.000729763               0.999999993               0.000062409              -0.000760461               0.999999993               0.000068519              -0.000791662               0.999999993               0.000073815              -0.000823213               0.999999993               0.000077799              -0.000854999               0.999999993               0.000080125              -0.000887014               0.999999993               0.000028439              -0.000576928               0.999999993               0.000006766              -0.000568906               0.999999993              -0.000000976              -0.000566899               0.999999993              -0.000002333              -0.000571892               0.999999993              -0.000000266              -0.000582919               0.999999993               0.000004059              -0.000598965               0.999999993               0.000009669              -0.000618864               0.999999993               0.000015675              -0.000641678               0.999999993               0.000021625              -0.000666660               0.999999993               0.000027300              -0.000693331               0.999999993               0.000032630              -0.000721259               0.999999993               0.000037638              -0.000750099               0.999999993               0.000042185              -0.000779651               0.999999993               0.000046044              -0.000809769               0.999999993               0.000048834              -0.000840416               0.999999993               0.000050186              -0.000871410               0.999999993               0.000049374              -0.000902616               0.999999993               0.000019177              -0.000591502               0.999999993               0.000003881              -0.000589743               0.999999993              -0.000002114              -0.000590539               0.999999993              -0.000003640              -0.000596340               0.999999993              -0.000002640              -0.000607119               0.999999993               0.000000022              -0.000622264               0.999999993               0.000003728              -0.000641021               0.999999993               0.000007720              -0.000662726               0.999999993               0.000011728              -0.000686682               0.999999993               0.000015636              -0.000712474               0.999999993               0.000019289              -0.000739726               0.999999993               0.000022638              -0.000768116               0.999999993               0.000025583              -0.000797262               0.999999993               0.000027770              -0.000827001               0.999999993               0.000028824              -0.000857231               0.999999993               0.000028364              -0.000887817               0.999999993               0.000025836              -0.000918673               0.999999993               0.000009665              -0.000600349               0.999999993               0.000001744              -0.000602619               0.999999993              -0.000001526              -0.000605463               0.999999993              -0.000002498              -0.000612030               0.999999993              -0.000002135              -0.000622806               0.999999993              -0.000000908              -0.000637515               0.999999993               0.000000929              -0.000655688               0.999999993               0.000002890              -0.000676710               0.999999993               0.000004918              -0.000700032               0.999999993               0.000006859              -0.000725369               0.999999993               0.000008747              -0.000752263               0.999999993               0.000010486              -0.000780481               0.999999993               0.000011972              -0.000809740               0.999999993               0.000013032              -0.000839753               0.999999993               0.000013302              -0.000870310               0.999999993               0.000012419              -0.000901206               0.999999993               0.000009994              -0.000932179               0.999999993              -0.000000000              -0.000603354               0.999999993               0.000000000              -0.000607015               0.999999993              -0.000000000              -0.000610578               0.999999993               0.000000000              -0.000617418               0.999999993              -0.000000000              -0.000628212               0.999999993              -0.000000000              -0.000642826               0.999999993              -0.000000000              -0.000660814               0.999999993              -0.000000000              -0.000681664               0.999999993              -0.000000000              -0.000704812               0.999999993               0.000000000              -0.000729867               0.999999993               0.000000000              -0.000756671               0.999999993              -0.000000000              -0.000784923               0.999999993              -0.000000000              -0.000814342               0.999999993              -0.000000000              -0.000844720               0.999999993              -0.000000000              -0.000875719               0.999999993               0.000000000              -0.000907052               0.999999993               0.000000000              -0.000938246               0.999999993               0.000103614              -0.000000000               0.999999993               0.000127384              -0.000000000               0.999999993               0.000138572              -0.000000000               0.999999993               0.000145001              -0.000000000               0.999999993               0.000149822               0.000000000               0.999999993               0.000154438              -0.000000000               0.999999993               0.000159535               0.000000000               0.999999993               0.000165367              -0.000000000               0.999999993               0.000172051               0.000000000               0.999999993               0.000179614               0.000000000               0.999999993               0.000188110               0.000000000               0.999999993               0.000197449               0.000000000               0.999999993               0.000207597              -0.000000000               0.999999993               0.000218585              -0.000000000               0.999999993               0.000230359              -0.000000000               0.999999993               0.000242793               0.000000000               0.999999993               0.000255777               0.000000000               0.999999993               0.000103016               0.000059594               0.999999993               0.000125609               0.000051861               0.999999993               0.000136068               0.000049469               0.999999993               0.000142067               0.000049995               0.999999993               0.000146665               0.000052126               0.999999993               0.000151196               0.000055468               0.999999993               0.000156311               0.000059614               0.999999993               0.000162259               0.000064296               0.999999993               0.000169036               0.000069223               0.999999993               0.000176623               0.000074361               0.999999993               0.000185088               0.000079644               0.999999993               0.000194406               0.000084954               0.999999993               0.000204559               0.000090232               0.999999993               0.000215534               0.000095425               0.999999993               0.000227264               0.000100430               0.999999993               0.000239686               0.000105056               0.999999993               0.000252697               0.000108857               0.999999993               0.000101241               0.000118587               0.999999993               0.000120367               0.000103170               0.999999993               0.000128833               0.000098721               0.999999993               0.000133797               0.000100072               0.999999993               0.000137964               0.000104719               0.999999993               0.000142468               0.000111622               0.999999993               0.000147732               0.000120020               0.999999993               0.000153889               0.000129270               0.999999993               0.000160893               0.000139056               0.999999993               0.000168687               0.000149272               0.999999993               0.000177285               0.000159808               0.999999993               0.000186665               0.000170510               0.999999993               0.000196841               0.000181253               0.999999993               0.000207861               0.000191967               0.999999993               0.000219629               0.000202493               0.999999993               0.000232038               0.000212428               0.999999993               0.000245034               0.000221345               0.999999993               0.000098262               0.000176358               0.999999993               0.000111872               0.000153476               0.999999993               0.000117543               0.000147628               0.999999993               0.000121282               0.000150363               0.999999993               0.000125147               0.000157955               0.999999993               0.000129882               0.000168618               0.999999993               0.000135633               0.000181248               0.999999993               0.000142344               0.000195059               0.999999993               0.000149932               0.000209684               0.999999993               0.000158300               0.000224866               0.999999993               0.000167479               0.000240634               0.999999993               0.000177410               0.000256721               0.999999993               0.000188068               0.000273036               0.999999993               0.000199481               0.000289537               0.999999993               0.000211516               0.000305840               0.999999993               0.000224052               0.000321581               0.999999993               0.000237022               0.000336433               0.999999993               0.000094036               0.000232291               0.999999993               0.000100531               0.000202522               0.999999993               0.000103164               0.000196088               0.999999993               0.000105932               0.000200790               0.999999993               0.000109948               0.000211561               0.999999993               0.000115367               0.000226081               0.999999993               0.000122049               0.000243002               0.999999993               0.000129770               0.000261367               0.999999993               0.000138394               0.000280695               0.999999993               0.000147755               0.000300801               0.999999993               0.000157846               0.000321674               0.999999993               0.000168602               0.000343056               0.999999993               0.000179978               0.000364886               0.999999993               0.000191877               0.000387030               0.999999993               0.000204236               0.000408994               0.999999993               0.000216918               0.000430529               0.999999993               0.000229819               0.000451270               0.999999993               0.000088667               0.000285753               0.999999993               0.000087115               0.000250127               0.999999993               0.000087158               0.000243833               0.999999993               0.000089695               0.000250832               0.999999993               0.000094469               0.000264994               0.999999993               0.000101067               0.000283431               0.999999993               0.000108974               0.000304618               0.999999993               0.000117997               0.000327473               0.999999993               0.000127899               0.000351390               0.999999993               0.000138436               0.000376296               0.999999993               0.000149605               0.000402063               0.999999993               0.000161292               0.000428510               0.999999993               0.000173461               0.000455612               0.999999993               0.000186023               0.000482988               0.999999993               0.000198791               0.000510263               0.999999993               0.000211713               0.000537047               0.999999993               0.000224721               0.000563350               0.999999993               0.000082496               0.000336102               0.999999993               0.000072660               0.000295999               0.999999993               0.000070889               0.000290531               0.999999993               0.000073987               0.000300079               0.999999993               0.000080023               0.000317649               0.999999993               0.000088104               0.000339967               0.999999993               0.000097656               0.000365325               0.999999993               0.000108231               0.000392543               0.999999993               0.000119463               0.000421008               0.999999993               0.000131224               0.000450425               0.999999993               0.000143470               0.000480829               0.999999993               0.000156183               0.000512031               0.999999993               0.000169262               0.000543854               0.999999993               0.000182561               0.000575982               0.999999993               0.000195907               0.000607843               0.999999993               0.000209178               0.000639259               0.999999993               0.000222246               0.000670188               0.999999993               0.000075638               0.000382890               0.999999993               0.000057951               0.000339983               0.999999993               0.000055341               0.000335806               0.999999993               0.000059643               0.000348039               0.999999993               0.000067414               0.000368918               0.999999993               0.000077407               0.000395048               0.999999993               0.000088746               0.000424333               0.999999993               0.000100786               0.000455731               0.999999993               0.000113335               0.000488460               0.999999993               0.000126255               0.000522214               0.999999993               0.000139651               0.000557023               0.999999993               0.000153414               0.000592588               0.999999993               0.000167389               0.000628751               0.999999993               0.000181297               0.000665059               0.999999993               0.000194970               0.000700938               0.999999993               0.000208270               0.000736300               0.999999993               0.000221080               0.000770920               0.999999993               0.000068485               0.000425335               0.999999993               0.000043477               0.000382068               0.999999993               0.000041372               0.000379225               0.999999993               0.000047394               0.000394034               0.999999993               0.000057227               0.000418173               0.999999993               0.000069236               0.000447923               0.999999993               0.000082124               0.000481009               0.999999993               0.000095469               0.000516379               0.999999993               0.000109123               0.000553236               0.999999993               0.000123183               0.000591238               0.999999993               0.000137560               0.000630290               0.999999993               0.000152151               0.000670047               0.999999993               0.000166657               0.000710084               0.999999993               0.000180796               0.000749959               0.999999993               0.000194440               0.000789285               0.999999993               0.000207672               0.000827988               0.999999993               0.000220600               0.000866068               0.999999993               0.000061701               0.000464896               0.999999993               0.000032439               0.000426309               0.999999993               0.000028297               0.000419861               0.999999993               0.000033109               0.000430465               0.999999993               0.000041758               0.000450502               0.999999993               0.000052643               0.000476447               0.999999993               0.000064442               0.000506011               0.999999993               0.000076600               0.000538016               0.999999993               0.000088884               0.000571736               0.999999993               0.000101276               0.000606783               0.999999993               0.000113821               0.000642874               0.999999993               0.000126620               0.000679749               0.999999993               0.000139447               0.000717169               0.999999993               0.000152032               0.000754744               0.999999993               0.000164229               0.000792243               0.999999993               0.000176031               0.000829323               0.999999993               0.000187760               0.000865960               0.999999993               0.000054061               0.000500440               0.999999993               0.000023357               0.000468352               0.999999993               0.000017212               0.000460667               0.999999993               0.000020281               0.000467990               0.999999993               0.000027420               0.000484553               0.999999993               0.000036912               0.000507110               0.999999993               0.000047539               0.000533493               0.999999993               0.000058385               0.000562437               0.999999993               0.000069250               0.000593206               0.999999993               0.000079997               0.000625420               0.999999993               0.000090686               0.000658780               0.999999993               0.000101456               0.000693012               0.999999993               0.000112264               0.000727850               0.999999993               0.000122958               0.000762995               0.999999993               0.000133152               0.000798276               0.999999993               0.000142775               0.000833522               0.999999993               0.000152048               0.000868646               0.999999993               0.000045915               0.000531187               0.999999993               0.000016172               0.000507050               0.999999993               0.000008498               0.000500075               0.999999993               0.000009713               0.000505337               0.999999993               0.000015101               0.000519169               0.999999993               0.000022956               0.000538925               0.999999993               0.000032187               0.000562617               0.999999993               0.000041614               0.000588980               0.999999993               0.000050948               0.000617271               0.999999993               0.000060023               0.000647062               0.999999993               0.000068799               0.000678050               0.999999993               0.000077455               0.000709966               0.999999993               0.000086149               0.000742500               0.999999993               0.000094637               0.000775421               0.999999993               0.000102505               0.000808578               0.999999993               0.000109424               0.000841885               0.999999993               0.000115453               0.000875277               0.999999993               0.000037369               0.000556752               0.999999993               0.000010752               0.000540966               0.999999993               0.000002454               0.000536140               0.999999993               0.000002068               0.000540772               0.999999993               0.000005696               0.000552719               0.999999993               0.000011804               0.000570250               0.999999993               0.000019278               0.000591806               0.999999993               0.000027093               0.000616200               0.999999993               0.000034795               0.000642598               0.999999993               0.000042142               0.000670564               0.999999993               0.000049130               0.000699740               0.999999993               0.000055906               0.000729763               0.999999993               0.000062409               0.000760461               0.999999993               0.000068519               0.000791662               0.999999993               0.000073815               0.000823213               0.999999993               0.000077799               0.000854999               0.999999993               0.000080125               0.000887014               0.999999993               0.000028439               0.000576928               0.999999993               0.000006766               0.000568906               0.999999993              -0.000000976               0.000566899               0.999999993              -0.000002333               0.000571892               0.999999993              -0.000000266               0.000582919               0.999999993               0.000004059               0.000598965               0.999999993               0.000009669               0.000618864               0.999999993               0.000015675               0.000641678               0.999999993               0.000021625               0.000666660               0.999999993               0.000027300               0.000693331               0.999999993               0.000032630               0.000721259               0.999999993               0.000037638               0.000750099               0.999999993               0.000042185               0.000779651               0.999999993               0.000046044               0.000809769               0.999999993               0.000048834               0.000840416               0.999999993               0.000050186               0.000871410               0.999999993               0.000049374               0.000902616               0.999999993               0.000019177               0.000591502               0.999999993               0.000003881               0.000589743               0.999999993              -0.000002114               0.000590539               0.999999993              -0.000003640               0.000596340               0.999999993              -0.000002640               0.000607119               0.999999993               0.000000022               0.000622264               0.999999993               0.000003728               0.000641021               0.999999993               0.000007720               0.000662726               0.999999993               0.000011728               0.000686682               0.999999993               0.000015636               0.000712474               0.999999993               0.000019289               0.000739726               0.999999993               0.000022638               0.000768116               0.999999993               0.000025583               0.000797262               0.999999993               0.000027770               0.000827001               0.999999993               0.000028824               0.000857231               0.999999993               0.000028364               0.000887817               0.999999993               0.000025836               0.000918673               0.999999993               0.000009665               0.000600349               0.999999993               0.000001744               0.000602619               0.999999993              -0.000001526               0.000605463               0.999999993              -0.000002498               0.000612030               0.999999993              -0.000002135               0.000622806               0.999999993              -0.000000908               0.000637515               0.999999993               0.000000929               0.000655688               0.999999993               0.000002890               0.000676710               0.999999993               0.000004918               0.000700032               0.999999993               0.000006859               0.000725369               0.999999993               0.000008747               0.000752263               0.999999993               0.000010486               0.000780481               0.999999993               0.000011972               0.000809740               0.999999993               0.000013032               0.000839753               0.999999993               0.000013302               0.000870310               0.999999993               0.000012419               0.000901206               0.999999993               0.000009994               0.000932179               0.999999993              -0.000000000               0.000603354               0.999999993               0.000000000               0.000607015               0.999999993              -0.000000000               0.000610578               0.999999993               0.000000000               0.000617418               0.999999993               0.000000000               0.000628212               0.999999993               0.000000000               0.000642826               0.999999993               0.000000000               0.000660814               0.999999993               0.000000000               0.000681664               0.999999993               0.000000000               0.000704812               0.999999993               0.000000000               0.000729867               0.999999993               0.000000000               0.000756671               0.999999993              -0.000000000               0.000784923               0.999999993              -0.000000000               0.000814342               0.999999993              -0.000000000               0.000844720               0.999999993               0.000000000               0.000875719               0.999999993               0.000000000               0.000907052               0.999999993               0.000000000               0.000938246               0.999999993 </DataArray>
<DataArray type="Float64"                                    Name="stress"                                                      NumberOfComponents="10" format="ascii">
              0.000981050               0.011100941              -0.000000000              -0.001019722               0.004040184               0.003020462               0.000000000               0.000000000               0.000000000               0.000000000               0.001060785               0.009053981              -0.000000000              -0.000733952               0.003262614               0.002528663               0.000000000               0.000000000               0.000000000               0.000000000               0.001469900               0.007411145               0.000000000              -0.000375180               0.002595417               0.002220237               0.000000000               0.000000000               0.000000000               0.000000000               0.001517838               0.006508478              -0.000000000              -0.000244370               0.002250928               0.002006558               0.000000000               0.000000000               0.000000000               0.000000000               0.001433230               0.005968387              -0.000000000              -0.000208586               0.002058971               0.001850385               0.000000000               0.000000000               0.000000000               0.000000000               0.001301521               0.005636181              -0.000000000              -0.000216452               0.001950859               0.001734407               0.000000000               0.000000000               0.000000000               0.000000000               0.001157877               0.005425896               0.000000000              -0.000244032               0.001889958               0.001645926               0.000000000               0.000000000               0.000000000               0.000000000               0.001019306               0.005286998              -0.000000000              -0.000278634               0.001855193               0.001576559               0.000000000               0.000000000               0.000000000               0.000000000               0.000888039               0.005185894               0.000000000              -0.000315221               0.001833688               0.001518466               0.000000000               0.000000000               0.000000000               0.000000000               0.000759951               0.005107910               0.000000000              -0.000353506               0.001820455               0.001466949               0.000000000               0.000000000               0.000000000               0.000000000               0.000637413               0.005044984              -0.000000000              -0.000391592               0.001812175               0.001420583               0.000000000               0.000000000               0.000000000               0.000000000               0.000522913               0.004989722               0.000000000              -0.000427622               0.001805765               0.001378143               0.000000000               0.000000000               0.000000000               0.000000000               0.000409238               0.004935153               0.000000000              -0.000463429               0.001799511               0.001336082               0.000000000               0.000000000               0.000000000               0.000000000               0.000297228               0.004878407               0.000000000              -0.000498339               0.001792233               0.001293894               0.000000000               0.000000000               0.000000000               0.000000000               0.000193160               0.004816858               0.000000000              -0.000529671               0.001782160               0.001252489               0.000000000               0.000000000               0.000000000               0.000000000               0.000096896               0.004741798              -0.000000000              -0.000556387               0.001766046               0.001209659               0.000000000               0.000000000               0.000000000               0.000000000               0.000045158               0.004682562              -0.000000000              -0.000568385               0.001750300               0.001181915               0.000000000               0.000000000               0.000000000               0.000000000               0.001036128               0.010904588              -0.000812760              -0.000974523               0.003959668               0.002985144               0.000000000               0.000000000               0.000000000               0.000000000               0.001069526               0.008917473              -0.000487671              -0.000713610               0.003210331               0.002496721               0.000000000               0.000000000               0.000000000               0.000000000               0.001430234               0.007342494              -0.000154442              -0.000381473               0.002574631               0.002193158               0.000000000               0.000000000               0.000000000               0.000000000               0.001457937               0.006478014              -0.000003962              -0.000263025               0.002246991               0.001983967               0.000000000               0.000000000               0.000000000               0.000000000               0.001367530               0.005964064               0.000067352              -0.000232684               0.002065563               0.001832879               0.000000000               0.000000000               0.000000000               0.000000000               0.001235697               0.005645216               0.000102230              -0.000242265               0.001962475               0.001720210               0.000000000               0.000000000               0.000000000               0.000000000               0.001093148               0.005438236               0.000115677              -0.000269848               0.001902677               0.001632828               0.000000000               0.000000000               0.000000000               0.000000000               0.000957702               0.005295547               0.000116419              -0.000302804               0.001866099               0.001563295               0.000000000               0.000000000               0.000000000               0.000000000               0.000834571               0.005192435               0.000112651              -0.000336089               0.001842824               0.001506735               0.000000000               0.000000000               0.000000000               0.000000000               0.000715833               0.005113910               0.000109166              -0.000370800               0.001828220               0.001457419               0.000000000               0.000000000               0.000000000               0.000000000               0.000599923               0.005051049               0.000104538              -0.000406409               0.001819136               0.001412727               0.000000000               0.000000000               0.000000000               0.000000000               0.000489113               0.004997778               0.000098035              -0.000441304               0.001813011               0.001371707               0.000000000               0.000000000               0.000000000               0.000000000               0.000379586               0.004948220               0.000090257              -0.000476182               0.001808118               0.001331936               0.000000000               0.000000000               0.000000000               0.000000000               0.000274086               0.004900384               0.000080273              -0.000509764               0.001803366               0.001293602               0.000000000               0.000000000               0.000000000               0.000000000               0.000176487               0.004851146               0.000065082              -0.000540209               0.001797102               0.001256893               0.000000000               0.000000000               0.000000000               0.000000000               0.000085682               0.004792619               0.000038764              -0.000566945               0.001786506               0.001219560               0.000000000               0.000000000               0.000000000               0.000000000               0.000039245               0.004749942               0.000021947              -0.000579024               0.001776306               0.001197282               0.000000000               0.000000000               0.000000000               0.000000000               0.001182371               0.010338288              -0.001531898              -0.000848896               0.003729027               0.002880131               0.000000000               0.000000000               0.000000000               0.000000000               0.001085756               0.008528946              -0.000920456              -0.000658958               0.003062606               0.002403648               0.000000000               0.000000000               0.000000000               0.000000000               0.001310914               0.007151327              -0.000300893              -0.000402322               0.002517859               0.002115537               0.000000000               0.000000000               0.000000000               0.000000000               0.001285781               0.006393731              -0.000028251              -0.000317048               0.002236905               0.001919857               0.000000000               0.000000000               0.000000000               0.000000000               0.001180270               0.005941990               0.000096869              -0.000300147               0.002080692               0.001780546               0.000000000               0.000000000               0.000000000               0.000000000               0.001051379               0.005652123               0.000155083              -0.000312248               0.001988105               0.001675857               0.000000000               0.000000000               0.000000000               0.000000000               0.000921606               0.005453049               0.000176171              -0.000336028               0.001929674               0.001593646               0.000000000               0.000000000               0.000000000               0.000000000               0.000801713               0.005308465               0.000178044              -0.000362915               0.001890442               0.001527527               0.000000000               0.000000000               0.000000000               0.000000000               0.000696343               0.005203130               0.000173079              -0.000389262               0.001864113               0.001474852               0.000000000               0.000000000               0.000000000               0.000000000               0.000596811               0.005122401               0.000167027              -0.000416495               0.001846282               0.001429787               0.000000000               0.000000000               0.000000000               0.000000000               0.000500525               0.005060842               0.000158537              -0.000444907               0.001835233               0.001390326               0.000000000               0.000000000               0.000000000               0.000000000               0.000406962               0.005012305               0.000147046              -0.000473926               0.001828727               0.001354801               0.000000000               0.000000000               0.000000000               0.000000000               0.000311469               0.004972132               0.000134331              -0.000504715               0.001825599               0.001320884               0.000000000               0.000000000               0.000000000               0.000000000               0.000220228               0.004939754               0.000118185              -0.000534883               0.001824862               0.001289980               0.000000000               0.000000000               0.000000000               0.000000000               0.000139617               0.004911196               0.000092786              -0.000561542               0.001824229               0.001262688               0.000000000               0.000000000               0.000000000               0.000000000               0.000066505               0.004882420               0.000053419              -0.000585362               0.001822578               0.001237216               0.000000000               0.000000000               0.000000000               0.000000000               0.000032073               0.004867477               0.000029716              -0.000596406               0.001821278               0.001224872               0.000000000               0.000000000               0.000000000               0.000000000               0.001367971               0.009468409              -0.002081276              -0.000670562               0.003379625               0.002709063               0.000000000               0.000000000               0.000000000               0.000000000               0.001086865               0.007946475              -0.001257636              -0.000585734               0.002844043               0.002258309               0.000000000               0.000000000               0.000000000               0.000000000               0.001118861               0.006870416              -0.000433305              -0.000439228               0.002436525               0.001997297               0.000000000               0.000000000               0.000000000               0.000000000               0.001027367               0.006262183              -0.000083897              -0.000397509               0.002219877               0.001822367               0.000000000               0.000000000               0.000000000               0.000000000               0.000907392               0.005881577               0.000071530              -0.000394924               0.002092148               0.001697223               0.000000000               0.000000000               0.000000000               0.000000000               0.000788945               0.005623567               0.000141079              -0.000407091               0.002010200               0.001603110               0.000000000               0.000000000               0.000000000               0.000000000               0.000684004               0.005438288               0.000165824              -0.000423284               0.001953839               0.001530556               0.000000000               0.000000000               0.000000000               0.000000000               0.000592773               0.005300190               0.000168668              -0.000440233               0.001913456               0.001473224               0.000000000               0.000000000               0.000000000               0.000000000               0.000513932               0.005195535               0.000163224              -0.000456716               0.001884066               0.001427350               0.000000000               0.000000000               0.000000000               0.000000000               0.000438857               0.005114407               0.000157607              -0.000474729               0.001863028               0.001388300               0.000000000               0.000000000               0.000000000               0.000000000               0.000365004               0.005052650               0.000150261              -0.000494703               0.001849101               0.001354397               0.000000000               0.000000000               0.000000000               0.000000000               0.000294235               0.005006077               0.000139333              -0.000515420               0.001840482               0.001325062               0.000000000               0.000000000               0.000000000               0.000000000               0.000222296               0.004971617               0.000128637              -0.000538090               0.001836552               0.001298463               0.000000000               0.000000000               0.000000000               0.000000000               0.000153588               0.004946337               0.000112867              -0.000560695               0.001835661               0.001274966               0.000000000               0.000000000               0.000000000               0.000000000               0.000095279               0.004926566               0.000086031              -0.000580090               0.001835535               0.001255446               0.000000000               0.000000000               0.000000000               0.000000000               0.000045725               0.004913193               0.000047646              -0.000597001               0.001836715               0.001239714               0.000000000               0.000000000               0.000000000               0.000000000               0.000023787               0.004910355               0.000025400              -0.000604873               0.001838393               0.001233520               0.000000000               0.000000000               0.000000000               0.000000000               0.001532052               0.008390172              -0.002423324              -0.000474253               0.002954780               0.002480527               0.000000000               0.000000000               0.000000000               0.000000000               0.001056293               0.007242424              -0.001488709              -0.000509193               0.002583848               0.002074655               0.000000000               0.000000000               0.000000000               0.000000000               0.000879572               0.006526368              -0.000562067              -0.000485955               0.002337419               0.001851464               0.000000000               0.000000000               0.000000000               0.000000000               0.000731262               0.006077284              -0.000184535              -0.000485436               0.002187553               0.001702117               0.000000000               0.000000000               0.000000000               0.000000000               0.000610997               0.005771095              -0.000018220              -0.000492262               0.002087766               0.001595505               0.000000000               0.000000000               0.000000000               0.000000000               0.000516121               0.005550205               0.000058736              -0.000500229               0.002016793               0.001516564               0.000000000               0.000000000               0.000000000               0.000000000               0.000441375               0.005384330               0.000090443              -0.000507524               0.001963934               0.001456409               0.000000000               0.000000000               0.000000000               0.000000000               0.000380301               0.005254944               0.000098029              -0.000514254               0.001923048               0.001408795               0.000000000               0.000000000               0.000000000               0.000000000               0.000330185               0.005152420               0.000098285              -0.000520232               0.001890867               0.001370635               0.000000000               0.000000000               0.000000000               0.000000000               0.000282937               0.005073095               0.000099851              -0.000528034               0.001867026               0.001338992               0.000000000               0.000000000               0.000000000               0.000000000               0.000233015               0.005008971               0.000100784              -0.000538740               0.001849220               0.001310481               0.000000000               0.000000000               0.000000000               0.000000000               0.000184089               0.004959664               0.000099712              -0.000550923               0.001836846               0.001285923               0.000000000               0.000000000               0.000000000               0.000000000               0.000137240               0.004923464               0.000097759              -0.000563967               0.001829127               0.001265160               0.000000000               0.000000000               0.000000000               0.000000000               0.000093443               0.004893110               0.000087763              -0.000576596               0.001823219               0.001246623               0.000000000               0.000000000               0.000000000               0.000000000               0.000055972               0.004868117               0.000066767              -0.000587524               0.001818531               0.001231007               0.000000000               0.000000000               0.000000000               0.000000000               0.000026919               0.004850324               0.000036674              -0.000596194               0.001815490               0.001219296               0.000000000               0.000000000               0.000000000               0.000000000               0.000015343               0.004845418               0.000019019              -0.000599922               0.001815097               0.001215175               0.000000000               0.000000000               0.000000000               0.000000000               0.001632729               0.007204832              -0.002561697              -0.000288333               0.002497697               0.002209364               0.000000000               0.000000000               0.000000000               0.000000000               0.000991206               0.006478440              -0.001625542              -0.000438103               0.002305492               0.001867389               0.000000000               0.000000000               0.000000000               0.000000000               0.000626572               0.006141363              -0.000698916              -0.000532705               0.002224669               0.001691964               0.000000000               0.000000000               0.000000000               0.000000000               0.000450914               0.005849763              -0.000327208              -0.000562126               0.002137277               0.001575150               0.000000000               0.000000000               0.000000000               0.000000000               0.000350230               0.005619012              -0.000156340              -0.000571039               0.002063331               0.001492293               0.000000000               0.000000000               0.000000000               0.000000000               0.000288341               0.005437118              -0.000070037              -0.000571510               0.002002858               0.001431348               0.000000000               0.000000000               0.000000000               0.000000000               0.000247451               0.005291361              -0.000027714              -0.000568625               0.001953311               0.001384686               0.000000000               0.000000000               0.000000000               0.000000000               0.000214707               0.005171524              -0.000009853              -0.000565924               0.001912466               0.001346542               0.000000000               0.000000000               0.000000000               0.000000000               0.000189945               0.005074299               0.000002499              -0.000563057               0.001879102               0.001316045               0.000000000               0.000000000               0.000000000               0.000000000               0.000163737               0.004992551               0.000017376              -0.000562666               0.001851723               0.001289056               0.000000000               0.000000000               0.000000000               0.000000000               0.000132400               0.004922778               0.000031584              -0.000565696               0.001829475               0.001263779               0.000000000               0.000000000               0.000000000               0.000000000               0.000101208               0.004865564               0.000044310              -0.000570241               0.001811919               0.001241678               0.000000000               0.000000000               0.000000000               0.000000000               0.000070956               0.004816601               0.000052845              -0.000575465               0.001797339               0.001221874               0.000000000               0.000000000               0.000000000               0.000000000               0.000047621               0.004772778               0.000050294              -0.000578738               0.001783823               0.001205085               0.000000000               0.000000000               0.000000000               0.000000000               0.000029809               0.004732346               0.000036803              -0.000580363               0.001770887               0.001190524               0.000000000               0.000000000               0.000000000               0.000000000               0.000015034               0.004697192               0.000018592              -0.000581510               0.001759552               0.001178042               0.000000000               0.000000000               0.000000000               0.000000000               0.000007633               0.004679051               0.000010420              -0.000582018               0.001753674               0.001171656               0.000000000               0.000000000               0.000000000               0.000000000               0.001639283               0.006014878              -0.002520876              -0.000137131               0.002050649               0.001913517               0.000000000               0.000000000               0.000000000               0.000000000               0.000894954               0.005715699              -0.001680091              -0.000378855               0.002031499               0.001652643               0.000000000               0.000000000               0.000000000               0.000000000               0.000392764               0.005742800              -0.000835911              -0.000570562               0.002104435               0.001533872               0.000000000               0.000000000               0.000000000               0.000000000               0.000219327               0.005598609              -0.000488363              -0.000617577               0.002072043               0.001454466               0.000000000               0.000000000               0.000000000               0.000000000               0.000154298               0.005437201              -0.000313878              -0.000621787               0.002019644               0.001397857               0.000000000               0.000000000               0.000000000               0.000000000               0.000125960               0.005290810              -0.000217189              -0.000614115               0.001968291               0.001354176               0.000000000               0.000000000               0.000000000               0.000000000               0.000114824               0.005160714              -0.000160276              -0.000602029               0.001920897               0.001318868               0.000000000               0.000000000               0.000000000               0.000000000               0.000109631               0.005049779              -0.000124535              -0.000590109               0.001879946               0.001289837               0.000000000               0.000000000               0.000000000               0.000000000               0.000104284               0.004954910              -0.000096818              -0.000580256               0.001845039               0.001264783               0.000000000               0.000000000               0.000000000               0.000000000               0.000090300               0.004869357              -0.000067794              -0.000574806               0.001814705               0.001239899               0.000000000               0.000000000               0.000000000               0.000000000               0.000068985               0.004793261              -0.000039611              -0.000573287               0.001788833               0.001215546               0.000000000               0.000000000               0.000000000               0.000000000               0.000046637               0.004724353              -0.000015188              -0.000573054               0.001765787               0.001192733               0.000000000               0.000000000               0.000000000               0.000000000               0.000028204               0.004660136               0.000003700              -0.000571939               0.001744009               0.001172070               0.000000000               0.000000000               0.000000000               0.000000000               0.000016262               0.004598544               0.000010219              -0.000568718               0.001722406               0.001153687               0.000000000               0.000000000               0.000000000               0.000000000               0.000009487               0.004538069               0.000007175              -0.000563700               0.001700575               0.001136875               0.000000000               0.000000000               0.000000000               0.000000000               0.000006789               0.004482458               0.000002678              -0.000557760               0.001680058               0.001122298               0.000000000               0.000000000               0.000000000               0.000000000               0.000000380               0.004444795               0.000004615              -0.000555455               0.001666735               0.001111280               0.000000000               0.000000000               0.000000000               0.000000000               0.001544308               0.004895930              -0.002333291              -0.000032879               0.001642919               0.001610040               0.000000000               0.000000000               0.000000000               0.000000000               0.000767317               0.005005020              -0.001667468              -0.000337884               0.001780951               0.001443067               0.000000000               0.000000000               0.000000000               0.000000000               0.000203422               0.005346471              -0.000967296              -0.000592025               0.001979481               0.001387456               0.000000000               0.000000000               0.000000000               0.000000000               0.000058697               0.005327194              -0.000649294              -0.000643886               0.001990342               0.001346456               0.000000000               0.000000000               0.000000000               0.000000000               0.000030791               0.005229287              -0.000471281              -0.000642113               0.001957116               0.001315003               0.000000000               0.000000000               0.000000000               0.000000000               0.000034544               0.005115202              -0.000361065              -0.000626445               0.001913865               0.001287420               0.000000000               0.000000000               0.000000000               0.000000000               0.000046577               0.004999636              -0.000282422              -0.000607487               0.001869024               0.001261538               0.000000000               0.000000000               0.000000000               0.000000000               0.000055412               0.004894253              -0.000223554              -0.000591001               0.001828402               0.001237401               0.000000000               0.000000000               0.000000000               0.000000000               0.000055559               0.004799182              -0.000178198              -0.000579062               0.001792732               0.001213670               0.000000000               0.000000000               0.000000000               0.000000000               0.000045145               0.004714166              -0.000136271              -0.000572340               0.001762153               0.001189813               0.000000000               0.000000000               0.000000000               0.000000000               0.000025485               0.004634353              -0.000097128              -0.000569736               0.001734681               0.001164945               0.000000000               0.000000000               0.000000000               0.000000000               0.000006669               0.004556838              -0.000062601              -0.000567102               0.001707965               0.001140863               0.000000000               0.000000000               0.000000000               0.000000000              -0.000005066               0.004478375              -0.000033163              -0.000561695               0.001680009               0.001118313               0.000000000               0.000000000               0.000000000               0.000000000              -0.000010317               0.004397432              -0.000015349              -0.000553547               0.001650312               0.001096765               0.000000000               0.000000000               0.000000000               0.000000000              -0.000012251               0.004318119              -0.000005751              -0.000544358               0.001620811               0.001076453               0.000000000               0.000000000               0.000000000               0.000000000              -0.000007966               0.004244871              -0.000000323              -0.000533595               0.001592808               0.001059213               0.000000000               0.000000000               0.000000000               0.000000000              -0.000010058               0.004197132               0.000005282              -0.000528412               0.001575167               0.001046755               0.000000000               0.000000000               0.000000000               0.000000000               0.001392730               0.003924190              -0.002050243               0.000031747               0.001297467               0.001329214               0.000000000               0.000000000               0.000000000               0.000000000               0.000653998               0.004365874              -0.001622477              -0.000300486               0.001555438               0.001254952               0.000000000               0.000000000               0.000000000               0.000000000               0.000089972               0.004968565              -0.001113730              -0.000587330               0.001851948               0.001264618               0.000000000               0.000000000               0.000000000               0.000000000              -0.000018774               0.005071726              -0.000817956              -0.000641004               0.001904226               0.001263222               0.000000000               0.000000000               0.000000000               0.000000000              -0.000025540               0.005040800              -0.000631081              -0.000639676               0.001893475               0.001253799               0.000000000               0.000000000               0.000000000               0.000000000              -0.000003023               0.004963731              -0.000501338              -0.000621599               0.001861760               0.001240161               0.000000000               0.000000000               0.000000000               0.000000000               0.000023930               0.004869594              -0.000400382              -0.000599724               0.001823090               0.001223366               0.000000000               0.000000000               0.000000000               0.000000000               0.000039705               0.004772741              -0.000320146              -0.000581702               0.001784798               0.001203097               0.000000000               0.000000000               0.000000000               0.000000000               0.000039075               0.004680692              -0.000256916              -0.000570432               0.001750359               0.001179927               0.000000000               0.000000000               0.000000000               0.000000000               0.000027000               0.004600892              -0.000202999              -0.000564985               0.001721944               0.001156958               0.000000000               0.000000000               0.000000000               0.000000000               0.000006884               0.004523648              -0.000154350              -0.000562873               0.001695492               0.001132619               0.000000000               0.000000000               0.000000000               0.000000000              -0.000012002               0.004442272              -0.000111707              -0.000559783               0.001667337               0.001107554               0.000000000               0.000000000               0.000000000               0.000000000              -0.000025628               0.004352017              -0.000073092              -0.000553611               0.001635195               0.001081584               0.000000000               0.000000000               0.000000000               0.000000000              -0.000035975               0.004253368              -0.000041462              -0.000545160               0.001599495               0.001054335               0.000000000               0.000000000               0.000000000               0.000000000              -0.000046170               0.004155381              -0.000018148              -0.000536735               0.001564025               0.001027290               0.000000000               0.000000000               0.000000000               0.000000000              -0.000054926               0.004063624              -0.000002775              -0.000528549               0.001530711               0.001002162               0.000000000               0.000000000               0.000000000               0.000000000              -0.000057461               0.004014273               0.000003943              -0.000523331               0.001512521               0.000989191               0.000000000               0.000000000               0.000000000               0.000000000               0.001172299               0.002990964              -0.001725402               0.000065739               0.000975064               0.001040803               0.000000000               0.000000000               0.000000000               0.000000000               0.000585403               0.003618113              -0.001563364              -0.000232739               0.001283605               0.001050865               0.000000000               0.000000000               0.000000000               0.000000000               0.000076083               0.004408788              -0.001279830              -0.000522567               0.001643770               0.001121203               0.000000000               0.000000000               0.000000000               0.000000000              -0.000022742               0.004669551              -0.001009809              -0.000592221               0.001753908               0.001161687               0.000000000               0.000000000               0.000000000               0.000000000              -0.000027817               0.004742007              -0.000811788              -0.000603181               0.001781713               0.001178532               0.000000000               0.000000000               0.000000000               0.000000000              -0.000006488               0.004734770              -0.000664662              -0.000594278               0.001776334               0.001182056               0.000000000               0.000000000               0.000000000               0.000000000               0.000024390               0.004687448              -0.000545969              -0.000576784               0.001754728               0.001177945               0.000000000               0.000000000               0.000000000               0.000000000               0.000043725               0.004622120              -0.000446265              -0.000561367               0.001727813               0.001166447               0.000000000               0.000000000               0.000000000               0.000000000               0.000047571               0.004553767              -0.000363044              -0.000551381               0.001701701               0.001150320               0.000000000               0.000000000               0.000000000               0.000000000               0.000035552               0.004490391              -0.000292642              -0.000547966               0.001679437               0.001131472               0.000000000               0.000000000               0.000000000               0.000000000               0.000011351               0.004425378              -0.000233466              -0.000548914               0.001658083               0.001109168               0.000000000               0.000000000               0.000000000               0.000000000              -0.000017029               0.004355317              -0.000181607              -0.000550799               0.001635358               0.001084558               0.000000000               0.000000000               0.000000000               0.000000000              -0.000044481               0.004274669              -0.000132252              -0.000551013               0.001608546               0.001057534               0.000000000               0.000000000               0.000000000               0.000000000              -0.000070086               0.004184120              -0.000085608              -0.000549296               0.001577791               0.001028496               0.000000000               0.000000000               0.000000000               0.000000000              -0.000098514               0.004086832              -0.000044336              -0.000547795               0.001544862               0.000997067               0.000000000               0.000000000               0.000000000               0.000000000              -0.000130737               0.003989433              -0.000014577              -0.000547704               0.001512366               0.000964662               0.000000000               0.000000000               0.000000000               0.000000000              -0.000148342               0.003939370              -0.000002005              -0.000548048               0.001495793               0.000947745               0.000000000               0.000000000               0.000000000               0.000000000               0.000837288               0.002121588              -0.001371587               0.000048782               0.000690927               0.000739710               0.000000000               0.000000000               0.000000000               0.000000000               0.000506346               0.002865073              -0.001458473              -0.000168256               0.001011099               0.000842844               0.000000000               0.000000000               0.000000000               0.000000000               0.000117385               0.003774146              -0.001401744              -0.000427749               0.001400619               0.000972870               0.000000000               0.000000000               0.000000000               0.000000000               0.000023474               0.004183446              -0.001185129              -0.000514127               0.001565843               0.001051716               0.000000000               0.000000000               0.000000000               0.000000000               0.000012789               0.004375221              -0.000991408              -0.000542106               0.001639094               0.001096988               0.000000000               0.000000000               0.000000000               0.000000000               0.000027565               0.004455920              -0.000838784              -0.000546652               0.001667509               0.001120857               0.000000000               0.000000000               0.000000000               0.000000000               0.000056600               0.004473259              -0.000709504              -0.000537931               0.001670382               0.001132450               0.000000000               0.000000000               0.000000000               0.000000000               0.000076819               0.004456289              -0.000595258              -0.000528228               0.001661491               0.001133263               0.000000000               0.000000000               0.000000000               0.000000000               0.000083008               0.004426146              -0.000496591              -0.000522139               0.001649414               0.001127275               0.000000000               0.000000000               0.000000000               0.000000000               0.000074626               0.004391798              -0.000410861              -0.000520989               0.001637581               0.001116592               0.000000000               0.000000000               0.000000000               0.000000000               0.000050149               0.004350150              -0.000338975              -0.000524962               0.001625023               0.001100061               0.000000000               0.000000000               0.000000000               0.000000000               0.000014201               0.004297887              -0.000277719              -0.000531909               0.001609918               0.001078009               0.000000000               0.000000000               0.000000000               0.000000000              -0.000025263               0.004230988              -0.000220765              -0.000538346               0.001589764               0.001051418               0.000000000               0.000000000               0.000000000               0.000000000              -0.000066028               0.004153818              -0.000161276              -0.000543986               0.001565921               0.001021935               0.000000000               0.000000000               0.000000000               0.000000000              -0.000113177               0.004070274              -0.000098857              -0.000551224               0.001540486               0.000989262               0.000000000               0.000000000               0.000000000               0.000000000              -0.000172156               0.003984804              -0.000043280              -0.000562658               0.001515807               0.000953149               0.000000000               0.000000000               0.000000000               0.000000000              -0.000216661               0.003933447              -0.000013397              -0.000572927               0.001502112               0.000929184               0.000000000               0.000000000               0.000000000               0.000000000               0.000416524               0.001376520              -0.001004214              -0.000015870               0.000464125               0.000448255               0.000000000               0.000000000               0.000000000               0.000000000               0.000381955               0.002151917              -0.001281555              -0.000125758               0.000759217               0.000633459               0.000000000               0.000000000               0.000000000               0.000000000               0.000181417               0.003077385              -0.001418603              -0.000316642               0.001131331               0.000814689               0.000000000               0.000000000               0.000000000               0.000000000               0.000123485               0.003595810              -0.001282533              -0.000403169               0.001332981               0.000929811               0.000000000               0.000000000               0.000000000               0.000000000               0.000113620               0.003900704              -0.001114537              -0.000444980               0.001448548               0.001003568               0.000000000               0.000000000               0.000000000               0.000000000               0.000118344               0.004075421              -0.000968748              -0.000465048               0.001513476               0.001048428               0.000000000               0.000000000               0.000000000               0.000000000               0.000132060               0.004167221              -0.000837304              -0.000471379               0.001546186               0.001074807               0.000000000               0.000000000               0.000000000               0.000000000               0.000145894               0.004211804              -0.000717092              -0.000471764               0.001561175               0.001089411               0.000000000               0.000000000               0.000000000               0.000000000               0.000150122               0.004231487              -0.000611403              -0.000472639               0.001568028               0.001095389               0.000000000               0.000000000               0.000000000               0.000000000               0.000143182               0.004237479              -0.000517634              -0.000475991               0.001571142               0.001095152               0.000000000               0.000000000               0.000000000               0.000000000               0.000122853               0.004228317              -0.000437771              -0.000482469               0.001570248               0.001087779               0.000000000               0.000000000               0.000000000               0.000000000               0.000089069               0.004200094              -0.000371048              -0.000491610               0.001563887               0.001072278               0.000000000               0.000000000               0.000000000               0.000000000               0.000044401               0.004154253              -0.000308839              -0.000502630               0.001552280               0.001049650               0.000000000               0.000000000               0.000000000               0.000000000              -0.000007203               0.004097892              -0.000240443              -0.000514936               0.001537596               0.001022660               0.000000000               0.000000000               0.000000000               0.000000000              -0.000066192               0.004036225              -0.000162211              -0.000529349               0.001521845               0.000992496               0.000000000               0.000000000               0.000000000               0.000000000              -0.000140773               0.003970712              -0.000080373              -0.000549127               0.001506600               0.000957473               0.000000000               0.000000000               0.000000000               0.000000000              -0.000201864               0.003924848              -0.000033229              -0.000566304               0.001497038               0.000930734               0.000000000               0.000000000               0.000000000               0.000000000              -0.000057752               0.000799979              -0.000663667              -0.000121655               0.000307208               0.000185553               0.000000000               0.000000000               0.000000000               0.000000000               0.000217567               0.001518788              -0.001049964              -0.000108262               0.000542344               0.000434083               0.000000000               0.000000000               0.000000000               0.000000000               0.000255525               0.002377229              -0.001318032              -0.000201333               0.000859512               0.000658179               0.000000000               0.000000000               0.000000000               0.000000000               0.000264846               0.002952749              -0.001266689              -0.000269777               0.001074165               0.000804388               0.000000000               0.000000000               0.000000000               0.000000000               0.000265538               0.003344480              -0.001142935              -0.000318483               0.001220976               0.000902493               0.000000000               0.000000000               0.000000000               0.000000000               0.000262689               0.003610404              -0.001015991              -0.000352792               0.001321053               0.000968261               0.000000000               0.000000000               0.000000000               0.000000000               0.000258375               0.003782585              -0.000891846              -0.000375932               0.001386160               0.001010227               0.000000000               0.000000000               0.000000000               0.000000000               0.000256691               0.003892840              -0.000775119              -0.000390345               0.001427715               0.001037370               0.000000000               0.000000000               0.000000000               0.000000000               0.000253371               0.003966774              -0.000670766              -0.000400832               0.001455855               0.001055023               0.000000000               0.000000000               0.000000000               0.000000000               0.000246631               0.004018507              -0.000579047              -0.000409826               0.001476098               0.001066271               0.000000000               0.000000000               0.000000000               0.000000000               0.000231826               0.004044708              -0.000501728              -0.000418653               0.001487773               0.001069120               0.000000000               0.000000000               0.000000000               0.000000000               0.000205673               0.004048875              -0.000434313              -0.000428981               0.001492605               0.001063624               0.000000000               0.000000000               0.000000000               0.000000000               0.000165947               0.004038131              -0.000368617              -0.000442535               0.001493542               0.001051007               0.000000000               0.000000000               0.000000000               0.000000000               0.000114690               0.004016160              -0.000296251              -0.000459010               0.001491710               0.001032700               0.000000000               0.000000000               0.000000000               0.000000000               0.000054206               0.003985838              -0.000210827              -0.000477901               0.001487900               0.001009999               0.000000000               0.000000000               0.000000000               0.000000000              -0.000017885               0.003949799              -0.000111668              -0.000500430               0.001483397               0.000982966               0.000000000               0.000000000               0.000000000               0.000000000              -0.000077490               0.003919494              -0.000052901              -0.000518994               0.001479483               0.000960489               0.000000000               0.000000000               0.000000000               0.000000000              -0.000534462               0.000395348              -0.000386081              -0.000249842               0.000215061              -0.000034780               0.000000000               0.000000000               0.000000000               0.000000000               0.000031209               0.001000169              -0.000789648              -0.000113318               0.000371158               0.000257840               0.000000000               0.000000000               0.000000000               0.000000000               0.000321189               0.001736205              -0.001105500              -0.000096581               0.000610922               0.000514341               0.000000000               0.000000000               0.000000000               0.000000000               0.000422729               0.002322505              -0.001116339              -0.000131791               0.000818090               0.000686300               0.000000000               0.000000000               0.000000000               0.000000000               0.000449897               0.002771128              -0.001040995              -0.000177680               0.000982926               0.000805246               0.000000000               0.000000000               0.000000000               0.000000000               0.000442260               0.003106441              -0.000944322              -0.000222458               0.001109622               0.000887165               0.000000000               0.000000000               0.000000000               0.000000000               0.000421982               0.003348874              -0.000839208              -0.000260366               0.001203069               0.000942703               0.000000000               0.000000000               0.000000000               0.000000000               0.000399724               0.003523306              -0.000735749              -0.000290516               0.001271262               0.000980746               0.000000000               0.000000000               0.000000000               0.000000000               0.000381593               0.003653270              -0.000642967              -0.000313561               0.001322265               0.001008704               0.000000000               0.000000000               0.000000000               0.000000000               0.000369544               0.003752950              -0.000562798              -0.000330539               0.001361150               0.001030611               0.000000000               0.000000000               0.000000000               0.000000000               0.000356265               0.003822547              -0.000495476              -0.000344219               0.001388909               0.001044691               0.000000000               0.000000000               0.000000000               0.000000000               0.000337537               0.003868125              -0.000436126              -0.000356939               0.001408342               0.001051403               0.000000000               0.000000000               0.000000000               0.000000000               0.000312958               0.003897050              -0.000375404              -0.000369771               0.001422261               0.001052490               0.000000000               0.000000000               0.000000000               0.000000000               0.000281014               0.003916414              -0.000305573              -0.000384170               0.001433515               0.001049345               0.000000000               0.000000000               0.000000000               0.000000000               0.000241915               0.003925008              -0.000222800              -0.000399907               0.001441625               0.001041718               0.000000000               0.000000000               0.000000000               0.000000000               0.000195865               0.003919877              -0.000120991              -0.000416534               0.001445457               0.001028923               0.000000000               0.000000000               0.000000000               0.000000000               0.000160043               0.003907752              -0.000060676              -0.000428452               0.001445388               0.001016936               0.000000000               0.000000000               0.000000000               0.000000000              -0.000946154               0.000139694              -0.000190761              -0.000372269               0.000170653              -0.000201616               0.000000000               0.000000000               0.000000000               0.000000000              -0.000140514               0.000619192              -0.000521473              -0.000130092               0.000249759               0.000119667               0.000000000               0.000000000               0.000000000               0.000000000               0.000372000               0.001219671              -0.000797605              -0.000012960               0.000410872               0.000397913               0.000000000               0.000000000               0.000000000               0.000000000               0.000566938               0.001786923              -0.000836094              -0.000010765               0.000599223               0.000588458               0.000000000               0.000000000               0.000000000               0.000000000               0.000627962               0.002261672              -0.000797688              -0.000047224               0.000769624               0.000722400               0.000000000               0.000000000               0.000000000               0.000000000               0.000621622               0.002641152              -0.000734555              -0.000097036               0.000912720               0.000815684               0.000000000               0.000000000               0.000000000               0.000000000               0.000589065               0.002939885              -0.000659181              -0.000146586               0.001028814               0.000882227               0.000000000               0.000000000               0.000000000               0.000000000               0.000549474               0.003169681              -0.000581219              -0.000190157               0.001119935               0.000929778               0.000000000               0.000000000               0.000000000               0.000000000               0.000515698               0.003350744              -0.000511985              -0.000225456               0.001192055               0.000966599               0.000000000               0.000000000               0.000000000               0.000000000               0.000491554               0.003498554              -0.000452742              -0.000252986               0.001250502               0.000997516               0.000000000               0.000000000               0.000000000               0.000000000               0.000475283               0.003616212              -0.000402582              -0.000273795               0.001296657               0.001022862               0.000000000               0.000000000               0.000000000               0.000000000               0.000461848               0.003704133              -0.000359300              -0.000289823               0.001331306               0.001041483               0.000000000               0.000000000               0.000000000               0.000000000               0.000451224               0.003768002              -0.000314644              -0.000301791               0.001356585               0.001054794               0.000000000               0.000000000               0.000000000               0.000000000               0.000446720               0.003820129              -0.000260194              -0.000309995               0.001376695               0.001066700               0.000000000               0.000000000               0.000000000               0.000000000               0.000446694               0.003860008              -0.000192284              -0.000314990               0.001391653               0.001076663               0.000000000               0.000000000               0.000000000               0.000000000               0.000450397               0.003886046              -0.000106021              -0.000316856               0.001400955               0.001084099               0.000000000               0.000000000               0.000000000               0.000000000               0.000455946               0.003895448              -0.000056495              -0.000315950               0.001403787               0.001087836               0.000000000               0.000000000               0.000000000               0.000000000              -0.001228363               0.000001162              -0.000073799              -0.000460781               0.000153980              -0.000306801               0.000000000               0.000000000               0.000000000               0.000000000              -0.000261202               0.000387503              -0.000258951              -0.000146389               0.000177962               0.000031574               0.000000000               0.000000000               0.000000000               0.000000000               0.000404817               0.000883505              -0.000418457               0.000041367               0.000280709               0.000322077               0.000000000               0.000000000               0.000000000               0.000000000               0.000666961               0.001422303              -0.000448292               0.000072322               0.000449989               0.000522310               0.000000000               0.000000000               0.000000000               0.000000000               0.000754240               0.001905194              -0.000432782               0.000044690               0.000620162               0.000664851               0.000000000               0.000000000               0.000000000               0.000000000               0.000755487               0.002313495              -0.000402788              -0.000005880               0.000773117               0.000767237               0.000000000               0.000000000               0.000000000               0.000000000               0.000716856               0.002647251              -0.000364180              -0.000062085               0.000903103               0.000841018               0.000000000               0.000000000               0.000000000               0.000000000               0.000669058               0.002913060              -0.000323051              -0.000113236               0.001008756               0.000895520               0.000000000               0.000000000               0.000000000               0.000000000               0.000626759               0.003132223              -0.000285930              -0.000156493               0.001096228               0.000939735               0.000000000               0.000000000               0.000000000               0.000000000               0.000593526               0.003315687              -0.000253699              -0.000191888               0.001169181               0.000977292               0.000000000               0.000000000               0.000000000               0.000000000               0.000570198               0.003467536              -0.000227598              -0.000219617               0.001229039               0.001009422               0.000000000               0.000000000               0.000000000               0.000000000               0.000556489               0.003592563              -0.000205013              -0.000240387               0.001277638               0.001037251               0.000000000               0.000000000               0.000000000               0.000000000               0.000552653               0.003691158              -0.000183129              -0.000254149               0.001315090               0.001060941               0.000000000               0.000000000               0.000000000               0.000000000               0.000565521               0.003769896              -0.000155868              -0.000259166               0.001343008               0.001083842               0.000000000               0.000000000               0.000000000               0.000000000               0.000601196               0.003832467              -0.000118164              -0.000253609               0.001362013               0.001108403               0.000000000               0.000000000               0.000000000               0.000000000               0.000663410               0.003876219              -0.000067152              -0.000235748               0.001370643               0.001134895               0.000000000               0.000000000               0.000000000               0.000000000               0.000720882               0.003898678              -0.000038116              -0.000217003               0.001371881               0.001154877               0.000000000               0.000000000               0.000000000               0.000000000              -0.001329670              -0.000043046               0.000000000              -0.000493245               0.000150065              -0.000343180               0.000000000               0.000000000               0.000000000               0.000000000              -0.000304758               0.000308823              -0.000000000              -0.000152887               0.000153902               0.000001015               0.000000000               0.000000000               0.000000000               0.000000000               0.000415861               0.000765059              -0.000000000               0.000060315               0.000234912               0.000295227               0.000000000               0.000000000               0.000000000               0.000000000               0.000702487               0.001291423               0.000000000               0.000102004               0.000396469               0.000498472               0.000000000               0.000000000               0.000000000               0.000000000               0.000800826               0.001777713              -0.000000000               0.000078095               0.000566534               0.000644628               0.000000000               0.000000000               0.000000000               0.000000000               0.000806634               0.002196361               0.000000000               0.000027942               0.000722799               0.000750741               0.000000000               0.000000000               0.000000000               0.000000000               0.000766383               0.002542269               0.000000000              -0.000030390               0.000857545               0.000827155               0.000000000               0.000000000               0.000000000               0.000000000               0.000716728               0.002821604               0.000000000              -0.000083927               0.000968501               0.000884574               0.000000000               0.000000000               0.000000000               0.000000000               0.000669781               0.003049568               0.000000000              -0.000130028               0.001059855               0.000929827               0.000000000               0.000000000               0.000000000               0.000000000               0.000634674               0.003246332               0.000000000              -0.000167788               0.001138029               0.000970241               0.000000000               0.000000000               0.000000000               0.000000000               0.000609153               0.003415846              -0.000000000              -0.000198548               0.001204786               0.001006239               0.000000000               0.000000000               0.000000000               0.000000000               0.000593364               0.003556620              -0.000000000              -0.000222065               0.001259550               0.001037485               0.000000000               0.000000000               0.000000000               0.000000000               0.000591064               0.003672444              -0.000000000              -0.000237406               0.001303271               0.001065865               0.000000000               0.000000000               0.000000000               0.000000000               0.000608511               0.003764479               0.000000000              -0.000242368               0.001335603               0.001093235               0.000000000               0.000000000               0.000000000               0.000000000               0.000657629               0.003835028              -0.000000000              -0.000232767               0.001355919               0.001123152               0.000000000               0.000000000               0.000000000               0.000000000               0.000747669               0.003880582               0.000000000              -0.000204696               0.001361746               0.001157050               0.000000000               0.000000000               0.000000000               0.000000000               0.000833168               0.003905326               0.000000000              -0.000175727               0.001360338               0.001184611               0.000000000               0.000000000               0.000000000               0.000000000               0.000000000               0.000000000               0.000000000               0.000000000               0.000000000               0.000000000               0.000000000               0.000000000               0.000000000               0.000000000               0.000000000               0.000000000               0.000000000               0.000000000               0.000000000               0.000000000               0.000000000               0.000000000               0.000000000               0.000000000               0.000000000               0.000000000               0.000000000               0.000000000               0.000000000               0.000000000               0.000000000               0.000000000               0.000000000               0.000000000               0.000000000               0.000000000               0.000000000               0.000000000               0.000000000               0.000000000               0.000000000               0.000000000               0.000000000               0.000000000               0.000000000               0.000000000               0.000000000               0.000000000               0.000000000               0.000000000               0.000000000               0.000000000               0.000000000               0.000000000               0.000000000               0.000000000               0.000000000               0.000000000               0.000000000               0.000000000               0.000000000               0.000000000               0.000000000               0.000000000               0.000000000               0.000000000               0.000000000               0.000000000               0.000000000               0.000000000               0.000000000               0.000000000               0.000000000               0.000000000               0.000000000               0.000000000               0.000000000               0.000000000               0.000000000               0.000000000               0.000000000               0.000000000               0.000000000               0.000000000               0.000000000               0.000000000               0.000000000               0.000000000               0.000000000               0.000000000               0.000000000               0.000000000               0.000000000               0.000000000               0.000000000               0.000000000               0.000000000               0.000000000               0.000000000               0.000000000               0.000000000               0.000000000               0.000000000               0.000000000               0.000000000               0.000000000               0.000000000               0.000000000               0.000000000               0.000000000               0.000000000               0.000000000               0.000000000               0.000000000               0.000000000               0.000000000               0.000000000               0.000000000               0.000000000               0.000000000               0.000000000               0.000000000               0.000000000               0.000000000               0.000000000               0.000000000               0.000000000               0.000000000               0.000000000               0.000000000               0.000000000               0.000000000               0.000000000               0.000000000               0.000000000               0.000000000               0.000000000               0.000000000               0.000000000               0.000000000               0.000000000               0.000000000               0.000000000               0.000000000               0.000000000               0.000000000               0.000000000               0.000000000               0.000000000               0.000000000               0.000000000               0.000000000               0.000000000               0.000000000               0.000000000               0.000000000               0.000000000               0.000000000               0.000000000               0.000000000               0.000000000               0.000000000               0.000000000               0.000000000               0.000000000               0.000000000               0.000000000               0.000000000               0.000000000               0.000000000               0.000000000               0.000000000               0.000000000               0.000000000               0.001036128               0.010904588               0.000812760              -0.000974523               0.003959668               0.002985144               0.000000000               0.000000000               0.000000000               0.000000000               0.001069526               0.008917473               0.000487671              -0.000713610               0.003210331               0.002496721               0.000000000               0.000000000               0.000000000               0.000000000               0.001430234               0.007342494               0.000154442              -0.000381473               0.002574631               0.002193158               0.000000000               0.000000000               0.000000000               0.000000000               0.001457937               0.006478014               0.000003962              -0.000263025               0.002246991               0.001983967               0.000000000               0.000000000               0.000000000               0.000000000               0.001367530               0.005964064              -0.000067352              -0.000232684               0.002065563               0.001832879               0.000000000               0.000000000               0.000000000               0.000000000               0.001235697               0.005645216              -0.000102230              -0.000242265               0.001962475               0.001720210               0.000000000               0.000000000               0.000000000               0.000000000               0.001093148               0.005438236              -0.000115677              -0.000269848               0.001902677               0.001632828               0.000000000               0.000000000               0.000000000               0.000000000               0.000957702               0.005295547              -0.000116419              -0.000302804               0.001866099               0.001563295               0.000000000               0.000000000               0.000000000               0.000000000               0.000834571               0.005192435              -0.000112651              -0.000336089               0.001842824               0.001506735               0.000000000               0.000000000               0.000000000               0.000000000               0.000715833               0.005113910              -0.000109166              -0.000370800               0.001828220               0.001457419               0.000000000               0.000000000               0.000000000               0.000000000               0.000599923               0.005051049              -0.000104538              -0.000406409               0.001819136               0.001412727               0.000000000               0.000000000               0.000000000               0.000000000               0.000489113               0.004997778              -0.000098035              -0.000441304               0.001813011               0.001371707               0.000000000               0.000000000               0.000000000               0.000000000               0.000379586               0.004948220              -0.000090257              -0.000476182               0.001808118               0.001331936               0.000000000               0.000000000               0.000000000               0.000000000               0.000274086               0.004900384              -0.000080273              -0.000509764               0.001803366               0.001293602               0.000000000               0.000000000               0.000000000               0.000000000               0.000176487               0.004851146              -0.000065082              -0.000540209               0.001797102               0.001256893               0.000000000               0.000000000               0.000000000               0.000000000               0.000085682               0.004792619              -0.000038764              -0.000566945               0.001786506               0.001219560               0.000000000               0.000000000               0.000000000               0.000000000               0.000039245               0.004749942              -0.000021947              -0.000579024               0.001776306               0.001197282               0.000000000               0.000000000               0.000000000               0.000000000               0.001182371               0.010338288               0.001531898              -0.000848896               0.003729027               0.002880131               0.000000000               0.000000000               0.000000000               0.000000000               0.001085756               0.008528946               0.000920456              -0.000658958               0.003062606               0.002403648               0.000000000               0.000000000               0.000000000               0.000000000               0.001310914               0.007151327               0.000300893              -0.000402322               0.002517859               0.002115537               0.000000000               0.000000000               0.000000000               0.000000000               0.001285781               0.006393731               0.000028251              -0.000317048               0.002236905               0.001919857               0.000000000               0.000000000               0.000000000               0.000000000               0.001180270               0.005941990              -0.000096869              -0.000300147               0.002080692               0.001780546               0.000000000               0.000000000               0.000000000               0.000000000               0.001051379               0.005652123              -0.000155083              -0.000312248               0.001988105               0.001675857               0.000000000               0.000000000               0.000000000               0.000000000               0.000921606               0.005453049              -0.000176171              -0.000336028               0.001929674               0.001593646               0.000000000               0.000000000               0.000000000               0.000000000               0.000801713               0.005308465              -0.000178044              -0.000362915               0.001890442               0.001527527               0.000000000               0.000000000               0.000000000               0.000000000               0.000696343               0.005203130              -0.000173079              -0.000389262               0.001864113               0.001474852               0.000000000               0.000000000               0.000000000               0.000000000               0.000596811               0.005122401              -0.000167027              -0.000416495               0.001846282               0.001429787               0.000000000               0.000000000               0.000000000               0.000000000               0.000500525               0.005060842              -0.000158537              -0.000444907               0.001835233               0.001390326               0.000000000               0.000000000               0.000000000               0.000000000               0.000406962               0.005012305              -0.000147046              -0.000473926               0.001828727               0.001354801               0.000000000               0.000000000               0.000000000               0.000000000               0.000311469               0.004972132              -0.000134331              -0.000504715               0.001825599               0.001320884               0.000000000               0.000000000               0.000000000               0.000000000               0.000220228               0.004939754              -0.000118185              -0.000534883               0.001824862               0.001289980               0.000000000               0.000000000               0.000000000               0.000000000               0.000139617               0.004911196              -0.000092786              -0.000561542               0.001824229               0.001262688               0.000000000               0.000000000               0.000000000               0.000000000               0.000066505               0.004882420              -0.000053419              -0.000585362               0.001822578               0.001237216               0.000000000               0.000000000               0.000000000               0.000000000               0.000032073               0.004867477              -0.000029716              -0.000596406               0.001821278               0.001224872               0.000000000               0.000000000               0.000000000               0.000000000               0.001367971               0.009468409               0.002081276              -0.000670562               0.003379625               0.002709063               0.000000000               0.000000000               0.000000000               0.000000000               0.001086865               0.007946475               0.001257636              -0.000585734               0.002844043               0.002258309               0.000000000               0.000000000               0.000000000               0.000000000               0.001118861               0.006870416               0.000433305              -0.000439228               0.002436525               0.001997297               0.000000000               0.000000000               0.000000000               0.000000000               0.001027367               0.006262183               0.000083897              -0.000397509               0.002219877               0.001822367               0.000000000               0.000000000               0.000000000               0.000000000               0.000907392               0.005881577              -0.000071530              -0.000394924               0.002092148               0.001697223               0.000000000               0.000000000               0.000000000               0.000000000               0.000788945               0.005623567              -0.000141079              -0.000407091               0.002010200               0.001603110               0.000000000               0.000000000               0.000000000               0.000000000               0.000684004               0.005438288              -0.000165824              -0.000423284               0.001953839               0.001530556               0.000000000               0.000000000               0.000000000               0.000000000               0.000592773               0.005300190              -0.000168668              -0.000440233               0.001913456               0.001473224               0.000000000               0.000000000               0.000000000               0.000000000               0.000513932               0.005195535              -0.000163224              -0.000456716               0.001884066               0.001427350               0.000000000               0.000000000               0.000000000               0.000000000               0.000438857               0.005114407              -0.000157607              -0.000474729               0.001863028               0.001388300               0.000000000               0.000000000               0.000000000               0.000000000               0.000365004               0.005052650              -0.000150261              -0.000494703               0.001849101               0.001354397               0.000000000               0.000000000               0.000000000               0.000000000               0.000294235               0.005006077              -0.000139333              -0.000515420               0.001840482               0.001325062               0.000000000               0.000000000               0.000000000               0.000000000               0.000222296               0.004971617              -0.000128637              -0.000538090               0.001836552               0.001298463               0.000000000               0.000000000               0.000000000               0.000000000               0.000153588               0.004946337              -0.000112867              -0.000560695               0.001835661               0.001274966               0.000000000               0.000000000               0.000000000               0.000000000               0.000095279               0.004926566              -0.000086031              -0.000580090               0.001835535               0.001255446               0.000000000               0.000000000               0.000000000               0.000000000               0.000045725               0.004913193              -0.000047646              -0.000597001               0.001836715               0.001239714               0.000000000               0.000000000               0.000000000               0.000000000               0.000023787               0.004910355              -0.000025400              -0.000604873               0.001838393               0.001233520               0.000000000               0.000000000               0.000000000               0.000000000               0.001532052               0.008390172               0.002423324              -0.000474253               0.002954780               0.002480527               0.000000000               0.000000000               0.000000000               0.000000000               0.001056293               0.007242424               0.001488709              -0.000509193               0.002583848               0.002074655               0.000000000               0.000000000               0.000000000               0.000000000               0.000879572               0.006526368               0.000562067              -0.000485955               0.002337419               0.001851464               0.000000000               0.000000000               0.000000000               0.000000000               0.000731262               0.006077284               0.000184535              -0.000485436               0.002187553               0.001702117               0.000000000               0.000000000               0.000000000               0.000000000               0.000610997               0.005771095               0.000018220              -0.000492262               0.002087766               0.001595505               0.000000000               0.000000000               0.000000000               0.000000000               0.000516121               0.005550205              -0.000058736              -0.000500229               0.002016793               0.001516564               0.000000000               0.000000000               0.000000000               0.000000000               0.000441375               0.005384330              -0.000090443              -0.000507524               0.001963934               0.001456409               0.000000000               0.000000000               0.000000000               0.000000000               0.000380301               0.005254944              -0.000098029              -0.000514254               0.001923048               0.001408795               0.000000000               0.000000000               0.000000000               0.000000000               0.000330185               0.005152420              -0.000098285              -0.000520232               0.001890867               0.001370635               0.000000000               0.000000000               0.000000000               0.000000000               0.000282937               0.005073095              -0.000099851              -0.000528034               0.001867026               0.001338992               0.000000000               0.000000000               0.000000000               0.000000000               0.000233015               0.005008971              -0.000100784              -0.000538740               0.001849220               0.001310481               0.000000000               0.000000000               0.000000000               0.000000000               0.000184089               0.004959664              -0.000099712              -0.000550923               0.001836846               0.001285923               0.000000000               0.000000000               0.000000000               0.000000000               0.000137240               0.004923464              -0.000097759              -0.000563967               0.001829127               0.001265160               0.000000000               0.000000000               0.000000000               0.000000000               0.000093443               0.004893110              -0.000087763              -0.000576596               0.001823219               0.001246623               0.000000000               0.000000000               0.000000000               0.000000000               0.000055972               0.004868117              -0.000066767              -0.000587524               0.001818531               0.001231007               0.000000000               0.000000000               0.000000000               0.000000000               0.000026919               0.004850324              -0.000036674              -0.000596194               0.001815490               0.001219296               0.000000000               0.000000000               0.000000000               0.000000000               0.000015343               0.004845418              -0.000019019              -0.000599922               0.001815097               0.001215175               0.000000000               0.000000000               0.000000000               0.000000000               0.001632729               0.007204832               0.002561697              -0.000288333               0.002497697               0.002209364               0.000000000               0.000000000               0.000000000               0.000000000               0.000991206               0.006478440               0.001625542              -0.000438103               0.002305492               0.001867389               0.000000000               0.000000000               0.000000000               0.000000000               0.000626572               0.006141363               0.000698916              -0.000532705               0.002224669               0.001691964               0.000000000               0.000000000               0.000000000               0.000000000               0.000450914               0.005849763               0.000327208              -0.000562126               0.002137277               0.001575150               0.000000000               0.000000000               0.000000000               0.000000000               0.000350230               0.005619012               0.000156340              -0.000571039               0.002063331               0.001492293               0.000000000               0.000000000               0.000000000               0.000000000               0.000288341               0.005437118               0.000070037              -0.000571510               0.002002858               0.001431348               0.000000000               0.000000000               0.000000000               0.000000000               0.000247451               0.005291361               0.000027714              -0.000568625               0.001953311               0.001384686               0.000000000               0.000000000               0.000000000               0.000000000               0.000214707               0.005171524               0.000009853              -0.000565924               0.001912466               0.001346542               0.000000000               0.000000000               0.000000000               0.000000000               0.000189945               0.005074299              -0.000002499              -0.000563057               0.001879102               0.001316045               0.000000000               0.000000000               0.000000000               0.000000000               0.000163737               0.004992551              -0.000017376              -0.000562666               0.001851723               0.001289056               0.000000000               0.000000000               0.000000000               0.000000000               0.000132400               0.004922778              -0.000031584              -0.000565696               0.001829475               0.001263779               0.000000000               0.000000000               0.000000000               0.000000000               0.000101208               0.004865564              -0.000044310              -0.000570241               0.001811919               0.001241678               0.000000000               0.000000000               0.000000000               0.000000000               0.000070956               0.004816601              -0.000052845              -0.000575465               0.001797339               0.001221874               0.000000000               0.000000000               0.000000000               0.000000000               0.000047621               0.004772778              -0.000050294              -0.000578738               0.001783823               0.001205085               0.000000000               0.000000000               0.000000000               0.000000000               0.000029809               0.004732346              -0.000036803              -0.000580363               0.001770887               0.001190524               0.000000000               0.000000000               0.000000000               0.000000000               0.000015034               0.004697192              -0.000018592              -0.000581510               0.001759552               0.001178042               0.000000000               0.000000000               0.000000000               0.000000000               0.000007633               0.004679051              -0.000010420              -0.000582018               0.001753674               0.001171656               0.000000000               0.000000000               0.000000000               0.000000000               0.001639283               0.006014878               0.002520876              -0.000137131               0.002050649               0.001913517               0.000000000               0.000000000               0.000000000               0.000000000               0.000894954               0.005715699               0.001680091              -0.000378855               0.002031499               0.001652643               0.000000000               0.000000000               0.000000000               0.000000000               0.000392764               0.005742800               0.000835911              -0.000570562               0.002104435               0.001533872               0.000000000               0.000000000               0.000000000               0.000000000               0.000219327               0.005598609               0.000488363              -0.000617577               0.002072043               0.001454466               0.000000000               0.000000000               0.000000000               0.000000000               0.000154298               0.005437201               0.000313878              -0.000621787               0.002019644               0.001397857               0.000000000               0.000000000               0.000000000               0.000000000               0.000125960               0.005290810               0.000217189              -0.000614115               0.001968291               0.001354176               0.000000000               0.000000000               0.000000000               0.000000000               0.000114824               0.005160714               0.000160276              -0.000602029               0.001920897               0.001318868               0.000000000               0.000000000               0.000000000               0.000000000               0.000109631               0.005049779               0.000124535              -0.000590109               0.001879946               0.001289837               0.000000000               0.000000000               0.000000000               0.000000000               0.000104284               0.004954910               0.000096818              -0.000580256               0.001845039               0.001264783               0.000000000               0.000000000               0.000000000               0.000000000               0.000090300               0.004869357               0.000067794              -0.000574806               0.001814705               0.001239899               0.000000000               0.000000000               0.000000000               0.000000000               0.000068985               0.004793261               0.000039611              -0.000573287               0.001788833               0.001215546               0.000000000               0.000000000               0.000000000               0.000000000               0.000046637               0.004724353               0.000015188              -0.000573054               0.001765787               0.001192733               0.000000000               0.000000000               0.000000000               0.000000000               0.000028204               0.004660136              -0.000003700              -0.000571939               0.001744009               0.001172070               0.000000000               0.000000000               0.000000000               0.000000000               0.000016262               0.004598544              -0.000010219              -0.000568718               0.001722406               0.001153687               0.000000000               0.000000000               0.000000000               0.000000000               0.000009487               0.004538069              -0.000007175              -0.000563700               0.001700575               0.001136875               0.000000000               0.000000000               0.000000000               0.000000000               0.000006789               0.004482458              -0.000002678              -0.000557760               0.001680058               0.001122298               0.000000000               0.000000000               0.000000000               0.000000000               0.000000380               0.004444795              -0.000004615              -0.000555455               0.001666735               0.001111280               0.000000000               0.000000000               0.000000000               0.000000000               0.001544308               0.004895930               0.002333291              -0.000032879               0.001642919               0.001610040               0.000000000               0.000000000               0.000000000               0.000000000               0.000767317               0.005005020               0.001667468              -0.000337884               0.001780951               0.001443067               0.000000000               0.000000000               0.000000000               0.000000000               0.000203422               0.005346471               0.000967296              -0.000592025               0.001979481               0.001387456               0.000000000               0.000000000               0.000000000               0.000000000               0.000058697               0.005327194               0.000649294              -0.000643886               0.001990342               0.001346456               0.000000000               0.000000000               0.000000000               0.000000000               0.000030791               0.005229287               0.000471281              -0.000642113               0.001957116               0.001315003               0.000000000               0.000000000               0.000000000               0.000000000               0.000034544               0.005115202               0.000361065              -0.000626445               0.001913865               0.001287420               0.000000000               0.000000000               0.000000000               0.000000000               0.000046577               0.004999636               0.000282422              -0.000607487               0.001869024               0.001261538               0.000000000               0.000000000               0.000000000               0.000000000               0.000055412               0.004894253               0.000223554              -0.000591001               0.001828402               0.001237401               0.000000000               0.000000000               0.000000000               0.000000000               0.000055559               0.004799182               0.000178198              -0.000579062               0.001792732               0.001213670               0.000000000               0.000000000               0.000000000               0.000000000               0.000045145               0.004714166               0.000136271              -0.000572340               0.001762153               0.001189813               0.000000000               0.000000000               0.000000000               0.000000000               0.000025485               0.004634353               0.000097128              -0.000569736               0.001734681               0.001164945               0.000000000               0.000000000               0.000000000               0.000000000               0.000006669               0.004556838               0.000062601              -0.000567102               0.001707965               0.001140863               0.000000000               0.000000000               0.000000000               0.000000000              -0.000005066               0.004478375               0.000033163              -0.000561695               0.001680009               0.001118313               0.000000000               0.000000000               0.000000000               0.000000000              -0.000010317               0.004397432               0.000015349              -0.000553547               0.001650312               0.001096765               0.000000000               0.000000000               0.000000000               0.000000000              -0.000012251               0.004318119               0.000005751              -0.000544358               0.001620811               0.001076453               0.000000000               0.000000000               0.000000000               0.000000000              -0.000007966               0.004244871               0.000000323              -0.000533595               0.001592808               0.001059213               0.000000000               0.000000000               0.000000000               0.000000000              -0.000010058               0.004197132              -0.000005282              -0.000528412               0.001575167               0.001046755               0.000000000               0.000000000               0.000000000               0.000000000               0.001392730               0.003924190               0.002050243               0.000031747               0.001297467               0.001329214               0.000000000               0.000000000               0.000000000               0.000000000               0.000653998               0.004365874               0.001622477              -0.000300486               0.001555438               0.001254952               0.000000000               0.000000000               0.000000000               0.000000000               0.000089972               0.004968565               0.001113730              -0.000587330               0.001851948               0.001264618               0.000000000               0.000000000               0.000000000               0.000000000              -0.000018774               0.005071726               0.000817956              -0.000641004               0.001904226               0.001263222               0.000000000               0.000000000               0.000000000               0.000000000              -0.000025540               0.005040800               0.000631081              -0.000639676               0.001893475               0.001253799               0.000000000               0.000000000               0.000000000               0.000000000              -0.000003023               0.004963731               0.000501338              -0.000621599               0.001861760               0.001240161               0.000000000               0.000000000               0.000000000               0.000000000               0.000023930               0.004869594               0.000400382              -0.000599724               0.001823090               0.001223366               0.000000000               0.000000000               0.000000000               0.000000000               0.000039705               0.004772741               0.000320146              -0.000581702               0.001784798               0.001203097               0.000000000               0.000000000               0.000000000               0.000000000               0.000039075               0.004680692               0.000256916              -0.000570432               0.001750359               0.001179927               0.000000000               0.000000000               0.000000000               0.000000000               0.000027000               0.004600892               0.000202999              -0.000564985               0.001721944               0.001156958               0.000000000               0.000000000               0.000000000               0.000000000               0.000006884               0.004523648               0.000154350              -0.000562873               0.001695492               0.001132619               0.000000000               0.000000000               0.000000000               0.000000000              -0.000012002               0.004442272               0.000111707              -0.000559783               0.001667337               0.001107554               0.000000000               0.000000000               0.000000000               0.000000000              -0.000025628               0.004352017               0.000073092              -0.000553611               0.001635195               0.001081584               0.000000000               0.000000000               0.000000000               0.000000000              -0.000035975               0.004253368               0.000041462              -0.000545160               0.001599495               0.001054335               0.000000000               0.000000000               0.000000000               0.000000000              -0.000046170               0.004155381               0.000018148              -0.000536735               0.001564025               0.001027290               0.000000000               0.000000000               0.000000000               0.000000000              -0.000054926               0.004063624               0.000002775              -0.000528549               0.001530711               0.001002162               0.000000000               0.000000000               0.000000000               0.000000000              -0.000057461               0.004014273              -0.000003943              -0.000523331               0.001512521               0.000989191               0.000000000               0.000000000               0.000000000               0.000000000               0.001172299               0.002990964               0.001725402               0.000065739               0.000975064               0.001040803               0.000000000               0.000000000               0.000000000               0.000000000               0.000585403               0.003618113               0.001563364              -0.000232739               0.001283605               0.001050865               0.000000000               0.000000000               0.000000000               0.000000000               0.000076083               0.004408788               0.001279830              -0.000522567               0.001643770               0.001121203               0.000000000               0.000000000               0.000000000               0.000000000              -0.000022742               0.004669551               0.001009809              -0.000592221               0.001753908               0.001161687               0.000000000               0.000000000               0.000000000               0.000000000              -0.000027817               0.004742007               0.000811788              -0.000603181               0.001781713               0.001178532               0.000000000               0.000000000               0.000000000               0.000000000              -0.000006488               0.004734770               0.000664662              -0.000594278               0.001776334               0.001182056               0.000000000               0.000000000               0.000000000               0.000000000               0.000024390               0.004687448               0.000545969              -0.000576784               0.001754728               0.001177945               0.000000000               0.000000000               0.000000000               0.000000000               0.000043725               0.004622120               0.000446265              -0.000561367               0.001727813               0.001166447               0.000000000               0.000000000               0.000000000               0.000000000               0.000047571               0.004553767               0.000363044              -0.000551381               0.001701701               0.001150320               0.000000000               0.000000000               0.000000000               0.000000000               0.000035552               0.004490391               0.000292642              -0.000547966               0.001679437               0.001131472               0.000000000               0.000000000               0.000000000               0.000000000               0.000011351               0.004425378               0.000233466              -0.000548914               0.001658083               0.001109168               0.000000000               0.000000000               0.000000000               0.000000000              -0.000017029               0.004355317               0.000181607              -0.000550799               0.001635358               0.001084558               0.000000000               0.000000000               0.000000000               0.000000000              -0.000044481               0.004274669               0.000132252              -0.000551013               0.001608546               0.001057534               0.000000000               0.000000000               0.000000000               0.000000000              -0.000070086               0.004184120               0.000085608              -0.000549296               0.001577791               0.001028496               0.000000000               0.000000000               0.000000000               0.000000000              -0.000098514               0.004086832               0.000044336              -0.000547795               0.001544862               0.000997067               0.000000000               0.000000000               0.000000000               0.000000000              -0.000130737               0.003989433               0.000014577              -0.000547704               0.001512366               0.000964662               0.000000000               0.000000000               0.000000000               0.000000000              -0.000148342               0.003939370               0.000002005              -0.000548048               0.001495793               0.000947745               0.000000000               0.000000000               0.000000000               0.000000000               0.000837288               0.002121588               0.001371587               0.000048782               0.000690927               0.000739710               0.000000000               0.000000000               0.000000000               0.000000000               0.000506346               0.002865073               0.001458473              -0.000168256               0.001011099               0.000842844               0.000000000               0.000000000               0.000000000               0.000000000               0.000117385               0.003774146               0.001401744              -0.000427749               0.001400619               0.000972870               0.000000000               0.000000000               0.000000000               0.000000000               0.000023474               0.004183446               0.001185129              -0.000514127               0.001565843               0.001051716               0.000000000               0.000000000               0.000000000               0.000000000               0.000012789               0.004375221               0.000991408              -0.000542106               0.001639094               0.001096988               0.000000000               0.000000000               0.000000000               0.000000000               0.000027565               0.004455920               0.000838784              -0.000546652               0.001667509               0.001120857               0.000000000               0.000000000               0.000000000               0.000000000               0.000056600               0.004473259               0.000709504              -0.000537931               0.001670382               0.001132450               0.000000000               0.000000000               0.000000000               0.000000000               0.000076819               0.004456289               0.000595258              -0.000528228               0.001661491               0.001133263               0.000000000               0.000000000               0.000000000               0.000000000               0.000083008               0.004426146               0.000496591              -0.000522139               0.001649414               0.001127275               0.000000000               0.000000000               0.000000000               0.000000000               0.000074626               0.004391798               0.000410861              -0.000520989               0.001637581               0.001116592               0.000000000               0.000000000               0.000000000               0.000000000               0.000050149               0.004350150               0.000338975              -0.000524962               0.001625023               0.001100061               0.000000000               0.000000000               0.000000000               0.000000000               0.000014201               0.004297887               0.000277719              -0.000531909               0.001609918               0.001078009               0.000000000               0.000000000               0.000000000               0.000000000              -0.000025263               0.004230988               0.000220765              -0.000538346               0.001589764               0.001051418               0.000000000               0.000000000               0.000000000               0.000000000              -0.000066028               0.004153818               0.000161276              -0.000543986               0.001565921               0.001021935               0.000000000               0.000000000               0.000000000               0.000000000              -0.000113177               0.004070274               0.000098857              -0.000551224               0.001540486               0.000989262               0.000000000               0.000000000               0.000000000               0.000000000              -0.000172156               0.003984804               0.000043280              -0.000562658               0.001515807               0.000953149               0.000000000               0.000000000               0.000000000               0.000000000              -0.000216661               0.003933447               0.000013397              -0.000572927               0.001502112               0.000929184               0.000000000               0.000000000               0.000000000               0.000000000               0.000416524               0.001376520               0.001004214              -0.000015870               0.000464125               0.000448255               0.000000000               0.000000000               0.000000000               0.000000000               0.000381955               0.002151917               0.001281555              -0.000125758               0.000759217               0.000633459               0.000000000               0.000000000               0.000000000               0.000000000               0.000181417               0.003077385               0.001418603              -0.000316642               0.001131331               0.000814689               0.000000000               0.000000000               0.000000000               0.000000000               0.000123485               0.003595810               0.001282533              -0.000403169               0.001332981               0.000929811               0.000000000               0.000000000               0.000000000               0.000000000               0.000113620               0.003900704               0.001114537              -0.000444980               0.001448548               0.001003568               0.000000000               0.000000000               0.000000000               0.000000000               0.000118344               0.004075421               0.000968748              -0.000465048               0.001513476               0.001048428               0.000000000               0.000000000               0.000000000               0.000000000               0.000132060               0.004167221               0.000837304              -0.000471379               0.001546186               0.001074807               0.000000000               0.000000000               0.000000000               0.000000000               0.000145894               0.004211804               0.000717092              -0.000471764               0.001561175               0.001089411               0.000000000               0.000000000               0.000000000               0.000000000               0.000150122               0.004231487               0.000611403              -0.000472639               0.001568028               0.001095389               0.000000000               0.000000000               0.000000000               0.000000000               0.000143182               0.004237479               0.000517634              -0.000475991               0.001571142               0.001095152               0.000000000               0.000000000               0.000000000               0.000000000               0.000122853               0.004228317               0.000437771              -0.000482469               0.001570248               0.001087779               0.000000000               0.000000000               0.000000000               0.000000000               0.000089069               0.004200094               0.000371048              -0.000491610               0.001563887               0.001072278               0.000000000               0.000000000               0.000000000               0.000000000               0.000044401               0.004154253               0.000308839              -0.000502630               0.001552280               0.001049650               0.000000000               0.000000000               0.000000000               0.000000000              -0.000007203               0.004097892               0.000240443              -0.000514936               0.001537596               0.001022660               0.000000000               0.000000000               0.000000000               0.000000000              -0.000066192               0.004036225               0.000162211              -0.000529349               0.001521845               0.000992496               0.000000000               0.000000000               0.000000000               0.000000000              -0.000140773               0.003970712               0.000080373              -0.000549127               0.001506600               0.000957473               0.000000000               0.000000000               0.000000000               0.000000000              -0.000201864               0.003924848               0.000033229              -0.000566304               0.001497038               0.000930734               0.000000000               0.000000000               0.000000000               0.000000000              -0.000057752               0.000799979               0.000663667              -0.000121655               0.000307208               0.000185553               0.000000000               0.000000000               0.000000000               0.000000000               0.000217567               0.001518788               0.001049964              -0.000108262               0.000542344               0.000434083               0.000000000               0.000000000               0.000000000               0.000000000               0.000255525               0.002377229               0.001318032              -0.000201333               0.000859512               0.000658179               0.000000000               0.000000000               0.000000000               0.000000000               0.000264846               0.002952749               0.001266689              -0.000269777               0.001074165               0.000804388               0.000000000               0.000000000               0.000000000               0.000000000               0.000265538               0.003344480               0.001142935              -0.000318483               0.001220976               0.000902493               0.000000000               0.000000000               0.000000000               0.000000000               0.000262689               0.003610404               0.001015991              -0.000352792               0.001321053               0.000968261               0.000000000               0.000000000               0.000000000               0.000000000               0.000258375               0.003782585               0.000891846              -0.000375932               0.001386160               0.001010227               0.000000000               0.000000000               0.000000000               0.000000000               0.000256691               0.003892840               0.000775119              -0.000390345               0.001427715               0.001037370               0.000000000               0.000000000               0.000000000               0.000000000               0.000253371               0.003966774               0.000670766              -0.000400832               0.001455855               0.001055023               0.000000000               0.000000000               0.000000000               0.000000000               0.000246631               0.004018507               0.000579047              -0.000409826               0.001476098               0.001066271               0.000000000               0.000000000               0.000000000               0.000000000               0.000231826               0.004044708               0.000501728              -0.000418653               0.001487773               0.001069120               0.000000000               0.000000000               0.000000000               0.000000000               0.000205673               0.004048875               0.000434313              -0.000428981               0.001492605               0.001063624               0.000000000               0.000000000               0.000000000               0.000000000               0.000165947               0.004038131               0.000368617              -0.000442535               0.001493542               0.001051007               0.000000000               0.000000000               0.000000000               0.000000000               0.000114690               0.004016160               0.000296251              -0.000459010               0.001491710               0.001032700               0.000000000               0.000000000               0.000000000               0.000000000               0.000054206               0.003985838               0.000210827              -0.000477901               0.001487900               0.001009999               0.000000000               0.000000000               0.000000000               0.000000000              -0.000017885               0.003949799               0.000111668              -0.000500430               0.001483397               0.000982966               0.000000000               0.000000000               0.000000000               0.000000000              -0.000077490               0.003919494               0.000052901              -0.000518994               0.001479483               0.000960489               0.000000000               0.000000000               0.000000000               0.000000000              -0.000534462               0.000395348               0.000386081              -0.000249842               0.000215061              -0.000034780               0.000000000               0.000000000               0.000000000               0.000000000               0.000031209               0.001000169               0.000789648              -0.000113318               0.000371158               0.000257840               0.000000000               0.000000000               0.000000000               0.000000000               0.000321189               0.001736205               0.001105500              -0.000096581               0.000610922               0.000514341               0.000000000               0.000000000               0.000000000               0.000000000               0.000422729               0.002322505               0.001116339              -0.000131791               0.000818090               0.000686300               0.000000000               0.000000000               0.000000000               0.000000000               0.000449897               0.002771128               0.001040995              -0.000177680               0.000982926               0.000805246               0.000000000               0.000000000               0.000000000               0.000000000               0.000442260               0.003106441               0.000944322              -0.000222458               0.001109622               0.000887165               0.000000000               0.000000000               0.000000000               0.000000000               0.000421982               0.003348874               0.000839208              -0.000260366               0.001203069               0.000942703               0.000000000               0.000000000               0.000000000               0.000000000               0.000399724               0.003523306               0.000735749              -0.000290516               0.001271262               0.000980746               0.000000000               0.000000000               0.000000000               0.000000000               0.000381593               0.003653270               0.000642967              -0.000313561               0.001322265               0.001008704               0.000000000               0.000000000               0.000000000               0.000000000               0.000369544               0.003752950               0.000562798              -0.000330539               0.001361150               0.001030611               0.000000000               0.000000000               0.000000000               0.000000000               0.000356265               0.003822547               0.000495476              -0.000344219               0.001388909               0.001044691               0.000000000               0.000000000               0.000000000               0.000000000               0.000337537               0.003868125               0.000436126              -0.000356939               0.001408342               0.001051403               0.000000000               0.000000000               0.000000000               0.000000000               0.000312958               0.003897050               0.000375404              -0.000369771               0.001422261               0.001052490               0.000000000               0.000000000               0.000000000               0.000000000               0.000281014               0.003916414               0.000305573              -0.000384170               0.001433515               0.001049345               0.000000000               0.000000000               0.000000000               0.000000000               0.000241915               0.003925008               0.000222800              -0.000399907               0.001441625               0.001041718               0.000000000               0.000000000               0.000000000               0.000000000               0.000195865               0.003919877               0.000120991              -0.000416534               0.001445457               0.001028923               0.000000000               0.000000000               0.000000000               0.000000000               0.000160043               0.003907752               0.000060676              -0.000428452               0.001445388               0.001016936               0.000000000               0.000000000               0.000000000               0.000000000              -0.000946154               0.000139694               0.000190761              -0.000372269               0.000170653              -0.000201616               0.000000000               0.000000000               0.000000000               0.000000000              -0.000140514               0.000619192               0.000521473              -0.000130092               0.000249759               0.000119667               0.000000000               0.000000000               0.000000000               0.000000000               0.000372000               0.001219671               0.000797605              -0.000012960               0.000410872               0.000397913               0.000000000               0.000000000               0.000000000               0.000000000               0.000566938               0.001786923               0.000836094              -0.000010765               0.000599223               0.000588458               0.000000000               0.000000000               0.000000000               0.000000000               0.000627962               0.002261672               0.000797688              -0.000047224               0.000769624               0.000722400               0.000000000               0.000000000               0.000000000               0.000000000               0.000621622               0.002641152               0.000734555              -0.000097036               0.000912720               0.000815684               0.000000000               0.000000000               0.000000000               0.000000000               0.000589065               0.002939885               0.000659181              -0.000146586               0.001028814               0.000882227               0.000000000               0.000000000               0.000000000               0.000000000               0.000549474               0.003169681               0.000581219              -0.000190157               0.001119935               0.000929778               0.000000000               0.000000000               0.000000000               0.000000000               0.000515698               0.003350744               0.000511985              -0.000225456               0.001192055               0.000966599               0.000000000               0.000000000               0.000000000               0.000000000               0.000491554               0.003498554               0.000452742              -0.000252986               0.001250502               0.000997516               0.000000000               0.000000000               0.000000000               0.000000000               0.000475283               0.003616212               0.000402582              -0.000273795               0.001296657               0.001022862               0.000000000               0.000000000               0.000000000               0.000000000               0.000461848               0.003704133               0.000359300              -0.000289823               0.001331306               0.001041483               0.000000000               0.000000000               0.000000000               0.000000000               0.000451224               0.003768002               0.000314644              -0.000301791               0.001356585               0.001054794               0.000000000               0.000000000               0.000000000               0.000000000               0.000446720               0.003820129               0.000260194              -0.000309995               0.001376695               0.001066700               0.000000000               0.000000000               0.000000000               0.000000000               0.000446694               0.003860008               0.000192284              -0.000314990               0.001391653               0.001076663               0.000000000               0.000000000               0.000000000               0.000000000               0.000450397               0.003886046               0.000106021              -0.000316856               0.001400955               0.001084099               0.000000000               0.000000000               0.000000000               0.000000000               0.000455946               0.003895448               0.000056495              -0.000315950               0.001403787               0.001087836               0.000000000               0.000000000               0.000000000               0.000000000              -0.001228363               0.000001162               0.000073799              -0.000460781               0.000153980              -0.000306801               0.000000000               0.000000000               0.000000000               0.000000000              -0.000261202               0.000387503               0.000258951              -0.000146389               0.000177962               0.000031574               0.000000000               0.000000000               0.000000000               0.000000000               0.000404817               0.000883505               0.000418457               0.000041367               0.000280709               0.000322077               0.000000000               0.000000000               0.000000000               0.000000000               0.000666961               0.001422303               0.000448292               0.000072322               0.000449989               0.000522310               0.000000000               0.000000000               0.000000000               0.000000000               0.000754240               0.001905194               0.000432782               0.000044690               0.000620162               0.000664851               0.000000000               0.000000000               0.000000000               0.000000000               0.000755487               0.002313495               0.000402788              -0.000005880               0.000773117               0.000767237               0.000000000               0.000000000               0.000000000               0.000000000               0.000716856               0.002647251               0.000364180              -0.000062085               0.000903103               0.000841018               0.000000000               0.000000000               0.000000000               0.000000000               0.000669058               0.002913060               0.000323051              -0.000113236               0.001008756               0.000895520               0.000000000               0.000000000               0.000000000               0.000000000               0.000626759               0.003132223               0.000285930              -0.000156493               0.001096228               0.000939735               0.000000000               0.000000000               0.000000000               0.000000000               0.000593526               0.003315687               0.000253699              -0.000191888               0.001169181               0.000977292               0.000000000               0.000000000               0.000000000               0.000000000               0.000570198               0.003467536               0.000227598              -0.000219617               0.001229039               0.001009422               0.000000000               0.000000000               0.000000000               0.000000000               0.000556489               0.003592563               0.000205013              -0.000240387               0.001277638               0.001037251               0.000000000               0.000000000               0.000000000               0.000000000               0.000552653               0.003691158               0.000183129              -0.000254149               0.001315090               0.001060941               0.000000000               0.000000000               0.000000000               0.000000000               0.000565521               0.003769896               0.000155868              -0.000259166               0.001343008               0.001083842               0.000000000               0.000000000               0.000000000               0.000000000               0.000601196               0.003832467               0.000118164              -0.000253609               0.001362013               0.001108403               0.000000000               0.000000000               0.000000000               0.000000000               0.000663410               0.003876219               0.000067152              -0.000235748               0.001370643               0.001134895               0.000000000               0.000000000               0.000000000               0.000000000               0.000720882               0.003898678               0.000038116              -0.000217003               0.001371881               0.001154877               0.000000000               0.000000000               0.000000000               0.000000000              -0.001329670              -0.000043046              -0.000000000              -0.000493245               0.000150065              -0.000343180               0.000000000               0.000000000               0.000000000               0.000000000              -0.000304758               0.000308823               0.000000000              -0.000152887               0.000153902               0.000001015               0.000000000               0.000000000               0.000000000               0.000000000               0.000415861               0.000765059              -0.000000000               0.000060315               0.000234912               0.000295227               0.000000000               0.000000000               0.000000000               0.000000000               0.000702487               0.001291423              -0.000000000               0.000102004               0.000396469               0.000498472               0.000000000               0.000000000               0.000000000               0.000000000               0.000800826               0.001777713               0.000000000               0.000078095               0.000566534               0.000644628               0.000000000               0.000000000               0.000000000               0.000000000               0.000806634               0.002196361               0.000000000               0.000027942               0.000722799               0.000750741               0.000000000               0.000000000               0.000000000               0.000000000               0.000766383               0.002542269               0.000000000              -0.000030390               0.000857545               0.000827155               0.000000000               0.000000000               0.000000000               0.000000000               0.000716728               0.002821604               0.000000000              -0.000083927               0.000968501               0.000884574               0.000000000               0.000000000               0.000000000               0.000000000               0.000669781               0.003049568               0.000000000              -0.000130028               0.001059855               0.000929827               0.000000000               0.000000000               0.000000000               0.000000000               0.000634674               0.003246332              -0.000000000              -0.000167788               0.001138029               0.000970241               0.000000000               0.000000000               0.000000000               0.000000000               0.000609153               0.003415846               0.000000000              -0.000198548               0.001204786               0.001006239               0.000000000               0.000000000               0.000000000               0.000000000               0.000593364               0.003556620               0.000000000              -0.000222065               0.001259550               0.001037485               0.000000000               0.000000000               0.000000000               0.000000000               0.000591064               0.003672444               0.000000000              -0.000237406               0.001303271               0.001065865               0.000000000               0.000000000               0.000000000               0.000000000               0.000608511               0.003764479               0.000000000              -0.000242368               0.001335603               0.001093235               0.000000000               0.000000000               0.000000000               0.000000000               0.000657629               0.003835028               0.000000000              -0.000232767               0.001355919               0.001123152               0.000000000               0.000000000               0.000000000               0.000000000               0.000747669               0.003880582              -0.000000000              -0.000204696               0.001361746               0.001157050               0.000000000               0.000000000               0.000000000               0.000000000               0.000833168               0.003905326              -0.000000000              -0.000175727               0.001360338               0.001184611               0.000000000               0.000000000               0.000000000               0.000000000               0.000981050               0.011100941              -0.000000000              -0.001019722               0.004040184               0.003020462               0.000000000               0.000000000               0.000000000               0.000000000               0.001060785               0.009053981              -0.000000000              -0.000733952               0.003262614               0.002528663               0.000000000               0.000000000               0.000000000               0.000000000               0.001469900               0.007411145              -0.000000000              -0.000375180               0.002595417               0.002220237               0.000000000               0.000000000               0.000000000               0.000000000               0.001517838               0.006508478               0.000000000              -0.000244370               0.002250928               0.002006558               0.000000000               0.000000000               0.000000000               0.000000000               0.001433230               0.005968387               0.000000000              -0.000208586               0.002058971               0.001850385               0.000000000               0.000000000               0.000000000               0.000000000               0.001301521               0.005636181               0.000000000              -0.000216452               0.001950859               0.001734407               0.000000000               0.000000000               0.000000000               0.000000000               0.001157877               0.005425896              -0.000000000              -0.000244032               0.001889958               0.001645926               0.000000000               0.000000000               0.000000000               0.000000000               0.001019306               0.005286998              -0.000000000              -0.000278634               0.001855193               0.001576559               0.000000000               0.000000000               0.000000000               0.000000000               0.000888039               0.005185894              -0.000000000              -0.000315221               0.001833688               0.001518466               0.000000000               0.000000000               0.000000000               0.000000000               0.000759951               0.005107910               0.000000000              -0.000353506               0.001820455               0.001466949               0.000000000               0.000000000               0.000000000               0.000000000               0.000637413               0.005044984              -0.000000000              -0.000391592               0.001812175               0.001420583               0.000000000               0.000000000               0.000000000               0.000000000               0.000522913               0.004989722               0.000000000              -0.000427622               0.001805765               0.001378143               0.000000000               0.000000000               0.000000000               0.000000000               0.000409238               0.004935153               0.000000000              -0.000463429               0.001799511               0.001336082               0.000000000               0.000000000               0.000000000               0.000000000               0.000297228               0.004878407              -0.000000000              -0.000498339               0.001792233               0.001293894               0.000000000               0.000000000               0.000000000               0.000000000               0.000193160               0.004816858              -0.000000000              -0.000529671               0.001782160               0.001252489               0.000000000               0.000000000               0.000000000               0.000000000               0.000096896               0.004741798              -0.000000000              -0.000556387               0.001766046               0.001209659               0.000000000               0.000000000               0.000000000               0.000000000               0.000045158               0.004682562              -0.000000000              -0.000568385               0.001750300               0.001181915               0.000000000               0.000000000               0.000000000               0.000000000               0.001036128               0.010904588              -0.000812760              -0.000974523               0.003959668               0.002985144               0.000000000               0.000000000               0.000000000               0.000000000               0.001069526               0.008917473              -0.000487671              -0.000713610               0.003210331               0.002496721               0.000000000               0.000000000               0.000000000               0.000000000               0.001430234               0.007342494              -0.000154442              -0.000381473               0.002574631               0.002193158               0.000000000               0.000000000               0.000000000               0.000000000               0.001457937               0.006478014              -0.000003962              -0.000263025               0.002246991               0.001983967               0.000000000               0.000000000               0.000000000               0.000000000               0.001367530               0.005964064               0.000067352              -0.000232684               0.002065563               0.001832879               0.000000000               0.000000000               0.000000000               0.000000000               0.001235697               0.005645216               0.000102230              -0.000242265               0.001962475               0.001720210               0.000000000               0.000000000               0.000000000               0.000000000               0.001093148               0.005438236               0.000115677              -0.000269848               0.001902677               0.001632828               0.000000000               0.000000000               0.000000000               0.000000000               0.000957702               0.005295547               0.000116419              -0.000302804               0.001866099               0.001563295               0.000000000               0.000000000               0.000000000               0.000000000               0.000834571               0.005192435               0.000112651              -0.000336089               0.001842824               0.001506735               0.000000000               0.000000000               0.000000000               0.000000000               0.000715833               0.005113910               0.000109166              -0.000370800               0.001828220               0.001457419               0.000000000               0.000000000               0.000000000               0.000000000               0.000599923               0.005051049               0.000104538              -0.000406409               0.001819136               0.001412727               0.000000000               0.000000000               0.000000000               0.000000000               0.000489113               0.004997778               0.000098035              -0.000441304               0.001813011               0.001371707               0.000000000               0.000000000               0.000000000               0.000000000               0.000379586               0.004948220               0.000090257              -0.000476182               0.001808118               0.001331936               0.000000000               0.000000000               0.000000000               0.000000000               0.000274086               0.004900384               0.000080273              -0.000509764               0.001803366               0.001293602               0.000000000               0.000000000               0.000000000               0.000000000               0.000176487               0.004851146               0.000065082              -0.000540209               0.001797102               0.001256893               0.000000000               0.000000000               0.000000000               0.000000000               0.000085682               0.004792619               0.000038764              -0.000566945               0.001786506               0.001219560               0.000000000               0.000000000               0.000000000               0.000000000               0.000039245               0.004749942               0.000021947              -0.000579024               0.001776306               0.001197282               0.000000000               0.000000000               0.000000000               0.000000000               0.001182371               0.010338288              -0.001531898              -0.000848896               0.003729027               0.002880131               0.000000000               0.000000000               0.000000000               0.000000000               0.001085756               0.008528946              -0.000920456              -0.000658958               0.003062606               0.002403648               0.000000000               0.000000000               0.000000000               0.000000000               0.001310914               0.007151327              -0.000300893              -0.000402322               0.002517859               0.002115537               0.000000000               0.000000000               0.000000000               0.000000000               0.001285781               0.006393731              -0.000028251              -0.000317048               0.002236905               0.001919857               0.000000000               0.000000000               0.000000000               0.000000000               0.001180270               0.005941990               0.000096869              -0.000300147               0.002080692               0.001780546               0.000000000               0.000000000               0.000000000               0.000000000               0.001051379               0.005652123               0.000155083              -0.000312248               0.001988105               0.001675857               0.000000000               0.000000000               0.000000000               0.000000000               0.000921606               0.005453049               0.000176171              -0.000336028               0.001929674               0.001593646               0.000000000               0.000000000               0.000000000               0.000000000               0.000801713               0.005308465               0.000178044              -0.000362915               0.001890442               0.001527527               0.000000000               0.000000000               0.000000000               0.000000000               0.000696343               0.005203130               0.000173079              -0.000389262               0.001864113               0.001474852               0.000000000               0.000000000               0.000000000               0.000000000               0.000596811               0.005122401               0.000167027              -0.000416495               0.001846282               0.001429787               0.000000000               0.000000000               0.000000000               0.000000000               0.000500525               0.005060842               0.000158537              -0.000444907               0.001835233               0.001390326               0.000000000               0.000000000               0.000000000               0.000000000               0.000406962               0.005012305               0.000147046              -0.000473926               0.001828727               0.001354801               0.000000000               0.000000000               0.000000000               0.000000000               0.000311469               0.004972132               0.000134331              -0.000504715               0.001825599               0.001320884               0.000000000               0.000000000               0.000000000               0.000000000               0.000220228               0.004939754               0.000118185              -0.000534883               0.001824862               0.001289980               0.000000000               0.000000000               0.000000000               0.000000000               0.000139617               0.004911196               0.000092786              -0.000561542               0.001824229               0.001262688               0.000000000               0.000000000               0.000000000               0.000000000               0.000066505               0.004882420               0.000053419              -0.000585362               0.001822578               0.001237216               0.000000000               0.000000000               0.000000000               0.000000000               0.000032073               0.004867477               0.000029716              -0.000596406               0.001821278               0.001224872               0.000000000               0.000000000               0.000000000               0.000000000               0.001367971               0.009468409              -0.002081276              -0.000670562               0.003379625               0.002709063               0.000000000               0.000000000               0.000000000               0.000000000               0.001086865               0.007946475              -0.001257636              -0.000585734               0.002844043               0.002258309               0.000000000               0.000000000               0.000000000               0.000000000               0.001118861               0.006870416              -0.000433305              -0.000439228               0.002436525               0.001997297               0.000000000               0.000000000               0.000000000               0.000000000               0.001027367               0.006262183              -0.000083897              -0.000397509               0.002219877               0.001822367               0.000000000               0.000000000               0.000000000               0.000000000               0.000907392               0.005881577               0.000071530              -0.000394924               0.002092148               0.001697223               0.000000000               0.000000000               0.000000000               0.000000000               0.000788945               0.005623567               0.000141079              -0.000407091               0.002010200               0.001603110               0.000000000               0.000000000               0.000000000               0.000000000               0.000684004               0.005438288               0.000165824              -0.000423284               0.001953839               0.001530556               0.000000000               0.000000000               0.000000000               0.000000000               0.000592773               0.005300190               0.000168668              -0.000440233               0.001913456               0.001473224               0.000000000               0.000000000               0.000000000               0.000000000               0.000513932               0.005195535               0.000163224              -0.000456716               0.001884066               0.001427350               0.000000000               0.000000000               0.000000000               0.000000000               0.000438857               0.005114407               0.000157607              -0.000474729               0.001863028               0.001388300               0.000000000               0.000000000               0.000000000               0.000000000               0.000365004               0.005052650               0.000150261              -0.000494703               0.001849101               0.001354397               0.000000000               0.000000000               0.000000000               0.000000000               0.000294235               0.005006077               0.000139333              -0.000515420               0.001840482               0.001325062               0.000000000               0.000000000               0.000000000               0.000000000               0.000222296               0.004971617               0.000128637              -0.000538090               0.001836552               0.001298463               0.000000000               0.000000000               0.000000000               0.000000000               0.000153588               0.004946337               0.000112867              -0.000560695               0.001835661               0.001274966               0.000000000               0.000000000               0.000000000               0.000000000               0.000095279               0.004926566               0.000086031              -0.000580090               0.001835535               0.001255446               0.000000000               0.000000000               0.000000000               0.000000000               0.000045725               0.004913193               0.000047646              -0.000597001               0.001836715               0.001239714               0.000000000               0.000000000               0.000000000               0.000000000               0.000023787               0.004910355               0.000025400              -0.000604873               0.001838393               0.001233520               0.000000000               0.000000000               0.000000000               0.000000000               0.001532052               0.008390172              -0.002423324              -0.000474253               0.002954780               0.002480527               0.000000000               0.000000000               0.000000000               0.000000000               0.001056293               0.007242424              -0.001488709              -0.000509193               0.002583848               0.002074655               0.000000000               0.000000000               0.000000000               0.000000000               0.000879572               0.006526368              -0.000562067              -0.000485955               0.002337419               0.001851464               0.000000000               0.000000000               0.000000000               0.000000000               0.000731262               0.006077284              -0.000184535              -0.000485436               0.002187553               0.001702117               0.000000000               0.000000000               0.000000000               0.000000000               0.000610997               0.005771095              -0.000018220              -0.000492262               0.002087766               0.001595505               0.000000000               0.000000000               0.000000000               0.000000000               0.000516121               0.005550205               0.000058736              -0.000500229               0.002016793               0.001516564               0.000000000               0.000000000               0.000000000               0.000000000               0.000441375               0.005384330               0.000090443              -0.000507524               0.001963934               0.001456409               0.000000000               0.000000000               0.000000000               0.000000000               0.000380301               0.005254944               0.000098029              -0.000514254               0.001923048               0.001408795               0.000000000               0.000000000               0.000000000               0.000000000               0.000330185               0.005152420               0.000098285              -0.000520232               0.001890867               0.001370635               0.000000000               0.000000000               0.000000000               0.000000000               0.000282937               0.005073095               0.000099851              -0.000528034               0.001867026               0.001338992               0.000000000               0.000000000               0.000000000               0.000000000               0.000233015               0.005008971               0.000100784              -0.000538740               0.001849220               0.001310481               0.000000000               0.000000000               0.000000000               0.000000000               0.000184089               0.004959664               0.000099712              -0.000550923               0.001836846               0.001285923               0.000000000               0.000000000               0.000000000               0.000000000               0.000137240               0.004923464               0.000097759              -0.000563967               0.001829127               0.001265160               0.000000000               0.000000000               0.000000000               0.000000000               0.000093443               0.004893110               0.000087763              -0.000576596               0.001823219               0.001246623               0.000000000               0.000000000               0.000000000               0.000000000               0.000055972               0.004868117               0.000066767              -0.000587524               0.001818531               0.001231007               0.000000000               0.000000000               0.000000000               0.000000000               0.000026919               0.004850324               0.000036674              -0.000596194               0.001815490               0.001219296               0.000000000               0.000000000               0.000000000               0.000000000               0.000015343               0.004845418               0.000019019              -0.000599922               0.001815097               0.001215175               0.000000000               0.000000000               0.000000000               0.000000000               0.001632729               0.007204832              -0.002561697              -0.000288333               0.002497697               0.002209364               0.000000000               0.000000000               0.000000000               0.000000000               0.000991206               0.006478440              -0.001625542              -0.000438103               0.002305492               0.001867389               0.000000000               0.000000000               0.000000000               0.000000000               0.000626572               0.006141363              -0.000698916              -0.000532705               0.002224669               0.001691964               0.000000000               0.000000000               0.000000000               0.000000000               0.000450914               0.005849763              -0.000327208              -0.000562126               0.002137277               0.001575150               0.000000000               0.000000000               0.000000000               0.000000000               0.000350230               0.005619012              -0.000156340              -0.000571039               0.002063331               0.001492293               0.000000000               0.000000000               0.000000000               0.000000000               0.000288341               0.005437118              -0.000070037              -0.000571510               0.002002858               0.001431348               0.000000000               0.000000000               0.000000000               0.000000000               0.000247451               0.005291361              -0.000027714              -0.000568625               0.001953311               0.001384686               0.000000000               0.000000000               0.000000000               0.000000000               0.000214707               0.005171524              -0.000009853              -0.000565924               0.001912466               0.001346542               0.000000000               0.000000000               0.000000000               0.000000000               0.000189945               0.005074299               0.000002499              -0.000563057               0.001879102               0.001316045               0.000000000               0.000000000               0.000000000               0.000000000               0.000163737               0.004992551               0.000017376              -0.000562666               0.001851723               0.001289056               0.000000000               0.000000000               0.000000000               0.000000000               0.000132400               0.004922778               0.000031584              -0.000565696               0.001829475               0.001263779               0.000000000               0.000000000               0.000000000               0.000000000               0.000101208               0.004865564               0.000044310              -0.000570241               0.001811919               0.001241678               0.000000000               0.000000000               0.000000000               0.000000000               0.000070956               0.004816601               0.000052845              -0.000575465               0.001797339               0.001221874               0.000000000               0.000000000               0.000000000               0.000000000               0.000047621               0.004772778               0.000050294              -0.000578738               0.001783823               0.001205085               0.000000000               0.000000000               0.000000000               0.000000000               0.000029809               0.004732346               0.000036803              -0.000580363               0.001770887               0.001190524               0.000000000               0.000000000               0.000000000               0.000000000               0.000015034               0.004697192               0.000018592              -0.000581510               0.001759552               0.001178042               0.000000000               0.000000000               0.000000000               0.000000000               0.000007633               0.004679051               0.000010420              -0.000582018               0.001753674               0.001171656               0.000000000               0.000000000               0.000000000               0.000000000               0.001639283               0.006014878              -0.002520876              -0.000137131               0.002050649               0.001913517               0.000000000               0.000000000               0.000000000               0.000000000               0.000894954               0.005715699              -0.001680091              -0.000378855               0.002031499               0.001652643               0.000000000               0.000000000               0.000000000               0.000000000               0.000392764               0.005742800              -0.000835911              -0.000570562               0.002104435               0.001533872               0.000000000               0.000000000               0.000000000               0.000000000               0.000219327               0.005598609              -0.000488363              -0.000617577               0.002072043               0.001454466               0.000000000               0.000000000               0.000000000               0.000000000               0.000154298               0.005437201              -0.000313878              -0.000621787               0.002019644               0.001397857               0.000000000               0.000000000               0.000000000               0.000000000               0.000125960               0.005290810              -0.000217189              -0.000614115               0.001968291               0.001354176               0.000000000               0.000000000               0.000000000               0.000000000               0.000114824               0.005160714              -0.000160276              -0.000602029               0.001920897               0.001318868               0.000000000               0.000000000               0.000000000               0.000000000               0.000109631               0.005049779              -0.000124535              -0.000590109               0.001879946               0.001289837               0.000000000               0.000000000               0.000000000               0.000000000               0.000104284               0.004954910              -0.000096818              -0.000580256               0.001845039               0.001264783               0.000000000               0.000000000               0.000000000               0.000000000               0.000090300               0.004869357              -0.000067794              -0.000574806               0.001814705               0.001239899               0.000000000               0.000000000               0.000000000               0.000000000               0.000068985               0.004793261              -0.000039611              -0.000573287               0.001788833               0.001215546               0.000000000               0.000000000               0.000000000               0.000000000               0.000046637               0.004724353              -0.000015188              -0.000573054               0.001765787               0.001192733               0.000000000               0.000000000               0.000000000               0.000000000               0.000028204               0.004660136               0.000003700              -0.000571939               0.001744009               0.001172070               0.000000000               0.000000000               0.000000000               0.000000000               0.000016262               0.004598544               0.000010219              -0.000568718               0.001722406               0.001153687               0.000000000               0.000000000               0.000000000               0.000000000               0.000009487               0.004538069               0.000007175              -0.000563700               0.001700575               0.001136875               0.000000000               0.000000000               0.000000000               0.000000000               0.000006789               0.004482458               0.000002678              -0.000557760               0.001680058               0.001122298               0.000000000               0.000000000               0.000000000               0.000000000               0.000000380               0.004444795               0.000004615              -0.000555455               0.001666735               0.001111280               0.000000000               0.000000000               0.000000000               0.000000000               0.001544308               0.004895930              -0.002333291              -0.000032879               0.001642919               0.001610040               0.000000000               0.000000000               0.000000000               0.000000000               0.000767317               0.005005020              -0.001667468              -0.000337884               0.001780951               0.001443067               0.000000000               0.000000000               0.000000000               0.000000000               0.000203422               0.005346471              -0.000967296              -0.000592025               0.001979481               0.001387456               0.000000000               0.000000000               0.000000000               0.000000000               0.000058697               0.005327194              -0.000649294              -0.000643886               0.001990342               0.001346456               0.000000000               0.000000000               0.000000000               0.000000000               0.000030791               0.005229287              -0.000471281              -0.000642113               0.001957116               0.001315003               0.000000000               0.000000000               0.000000000               0.000000000               0.000034544               0.005115202              -0.000361065              -0.000626445               0.001913865               0.001287420               0.000000000               0.000000000               0.000000000               0.000000000               0.000046577               0.004999636              -0.000282422              -0.000607487               0.001869024               0.001261538               0.000000000               0.000000000               0.000000000               0.000000000               0.000055412               0.004894253              -0.000223554              -0.000591001               0.001828402               0.001237401               0.000000000               0.000000000               0.000000000               0.000000000               0.000055559               0.004799182              -0.000178198              -0.000579062               0.001792732               0.001213670               0.000000000               0.000000000               0.000000000               0.000000000               0.000045145               0.004714166              -0.000136271              -0.000572340               0.001762153               0.001189813               0.000000000               0.000000000               0.000000000               0.000000000               0.000025485               0.004634353              -0.000097128              -0.000569736               0.001734681               0.001164945               0.000000000               0.000000000               0.000000000               0.000000000               0.000006669               0.004556838              -0.000062601              -0.000567102               0.001707965               0.001140863               0.000000000               0.000000000               0.000000000               0.000000000              -0.000005066               0.004478375              -0.000033163              -0.000561695               0.001680009               0.001118313               0.000000000               0.000000000               0.000000000               0.000000000              -0.000010317               0.004397432              -0.000015349              -0.000553547               0.001650312               0.001096765               0.000000000               0.000000000               0.000000000               0.000000000              -0.000012251               0.004318119              -0.000005751              -0.000544358               0.001620811               0.001076453               0.000000000               0.000000000               0.000000000               0.000000000              -0.000007966               0.004244871              -0.000000323              -0.000533595               0.001592808               0.001059213               0.000000000               0.000000000               0.000000000               0.000000000              -0.000010058               0.004197132               0.000005282              -0.000528412               0.001575167               0.001046755               0.000000000               0.000000000               0.000000000               0.000000000               0.001392730               0.003924190              -0.002050243               0.000031747               0.001297467               0.001329214               0.000000000               0.000000000               0.000000000               0.000000000               0.000653998               0.004365874              -0.001622477              -0.000300486               0.001555438               0.001254952               0.000000000               0.000000000               0.000000000               0.000000000               0.000089972               0.004968565              -0.001113730              -0.000587330               0.001851948               0.001264618               0.000000000               0.000000000               0.000000000               0.000000000              -0.000018774               0.005071726              -0.000817956              -0.000641004               0.001904226               0.001263222               0.000000000               0.000000000               0.000000000               0.000000000              -0.000025540               0.005040800              -0.000631081              -0.000639676               0.001893475               0.001253799               0.000000000               0.000000000               0.000000000               0.000000000              -0.000003023               0.004963731              -0.000501338              -0.000621599               0.001861760               0.001240161               0.000000000               0.000000000               0.000000000               0.000000000               0.000023930               0.004869594              -0.000400382              -0.000599724               0.001823090               0.001223366               0.000000000               0.000000000               0.000000000               0.000000000               0.000039705               0.004772741              -0.000320146              -0.000581702               0.001784798               0.001203097               0.000000000               0.000000000               0.000000000               0.000000000               0.000039075               0.004680692              -0.000256916              -0.000570432               0.001750359               0.001179927               0.000000000               0.000000000               0.000000000               0.000000000               0.000027000               0.004600892              -0.000202999              -0.000564985               0.001721944               0.001156958               0.000000000               0.000000000               0.000000000               0.000000000               0.000006884               0.004523648              -0.000154350              -0.000562873               0.001695492               0.001132619               0.000000000               0.000000000               0.000000000               0.000000000              -0.000012002               0.004442272              -0.000111707              -0.000559783               0.001667337               0.001107554               0.000000000               0.000000000               0.000000000               0.000000000              -0.000025628               0.004352017              -0.000073092              -0.000553611               0.001635195               0.001081584               0.000000000               0.000000000               0.000000000               0.000000000              -0.000035975               0.004253368              -0.000041462              -0.000545160               0.001599495               0.001054335               0.000000000               0.000000000               0.000000000               0.000000000              -0.000046170               0.004155381              -0.000018148              -0.000536735               0.001564025               0.001027290               0.000000000               0.000000000               0.000000000               0.000000000              -0.000054926               0.004063624              -0.000002775              -0.000528549               0.001530711               0.001002162               0.000000000               0.000000000               0.000000000               0.000000000              -0.000057461               0.004014273               0.000003943              -0.000523331               0.001512521               0.000989191               0.000000000               0.000000000               0.000000000               0.000000000               0.001172299               0.002990964              -0.001725402               0.000065739               0.000975064               0.001040803               0.000000000               0.000000000               0.000000000               0.000000000               0.000585403               0.003618113              -0.001563364              -0.000232739               0.001283605               0.001050865               0.000000000               0.000000000               0.000000000               0.000000000               0.000076083               0.004408788              -0.001279830              -0.000522567               0.001643770               0.001121203               0.000000000               0.000000000               0.000000000               0.000000000              -0.000022742               0.004669551              -0.001009809              -0.000592221               0.001753908               0.001161687               0.000000000               0.000000000               0.000000000               0.000000000              -0.000027817               0.004742007              -0.000811788              -0.000603181               0.001781713               0.001178532               0.000000000               0.000000000               0.000000000               0.000000000              -0.000006488               0.004734770              -0.000664662              -0.000594278               0.001776334               0.001182056               0.000000000               0.000000000               0.000000000               0.000000000               0.000024390               0.004687448              -0.000545969              -0.000576784               0.001754728               0.001177945               0.000000000               0.000000000               0.000000000               0.000000000               0.000043725               0.004622120              -0.000446265              -0.000561367               0.001727813               0.001166447               0.000000000               0.000000000               0.000000000               0.000000000               0.000047571               0.004553767              -0.000363044              -0.000551381               0.001701701               0.001150320               0.000000000               0.000000000               0.000000000               0.000000000               0.000035552               0.004490391              -0.000292642              -0.000547966               0.001679437               0.001131472               0.000000000               0.000000000               0.000000000               0.000000000               0.000011351               0.004425378              -0.000233466              -0.000548914               0.001658083               0.001109168               0.000000000               0.000000000               0.000000000               0.000000000              -0.000017029               0.004355317              -0.000181607              -0.000550799               0.001635358               0.001084558               0.000000000               0.000000000               0.000000000               0.000000000              -0.000044481               0.004274669              -0.000132252              -0.000551013               0.001608546               0.001057534               0.000000000               0.000000000               0.000000000               0.000000000              -0.000070086               0.004184120              -0.000085608              -0.000549296               0.001577791               0.001028496               0.000000000               0.000000000               0.000000000               0.000000000              -0.000098514               0.004086832              -0.000044336              -0.000547795               0.001544862               0.000997067               0.000000000               0.000000000               0.000000000               0.000000000              -0.000130737               0.003989433              -0.000014577              -0.000547704               0.001512366               0.000964662               0.000000000               0.000000000               0.000000000               0.000000000              -0.000148342               0.003939370              -0.000002005              -0.000548048               0.001495793               0.000947745               0.000000000               0.000000000               0.000000000               0.000000000               0.000837288               0.002121588              -0.001371587               0.000048782               0.000690927               0.000739710               0.000000000               0.000000000               0.000000000               0.000000000               0.000506346               0.002865073              -0.001458473              -0.000168256               0.001011099               0.000842844               0.000000000               0.000000000               0.000000000               0.000000000               0.000117385               0.003774146              -0.001401744              -0.000427749               0.001400619               0.000972870               0.000000000               0.000000000               0.000000000               0.000000000               0.000023474               0.004183446              -0.001185129              -0.000514127               0.001565843               0.001051716               0.000000000               0.000000000               0.000000000               0.000000000               0.000012789               0.004375221              -0.000991408              -0.000542106               0.001639094               0.001096988               0.000000000               0.000000000               0.000000000               0.000000000               0.000027565               0.004455920              -0.000838784              -0.000546652               0.001667509               0.001120857               0.000000000               0.000000000               0.000000000               0.000000000               0.000056600               0.004473259              -0.000709504              -0.000537931               0.001670382               0.001132450               0.000000000               0.000000000               0.000000000               0.000000000               0.000076819               0.004456289              -0.000595258              -0.000528228               0.001661491               0.001133263               0.000000000               0.000000000               0.000000000               0.000000000               0.000083008               0.004426146              -0.000496591              -0.000522139               0.001649414               0.001127275               0.000000000               0.000000000               0.000000000               0.000000000               0.000074626               0.004391798              -0.000410861              -0.000520989               0.001637581               0.001116592               0.000000000               0.000000000               0.000000000               0.000000000               0.000050149               0.004350150              -0.000338975              -0.000524962               0.001625023               0.001100061               0.000000000               0.000000000               0.000000000               0.000000000               0.000014201               0.004297887              -0.000277719              -0.000531909               0.001609918               0.001078009               0.000000000               0.000000000               0.000000000               0.000000000              -0.000025263               0.004230988              -0.000220765              -0.000538346               0.001589764               0.001051418               0.000000000               0.000000000               0.000000000               0.000000000              -0.000066028               0.004153818              -0.000161276              -0.000543986               0.001565921               0.001021935               0.000000000               0.000000000               0.000000000               0.000000000              -0.000113177               0.004070274              -0.000098857              -0.000551224               0.001540486               0.000989262               0.000000000               0.000000000               0.000000000               0.000000000              -0.000172156               0.003984804              -0.000043280              -0.000562658               0.001515807               0.000953149               0.000000000               0.000000000               0.000000000               0.000000000              -0.000216661               0.003933447              -0.000013397              -0.000572927               0.001502112               0.000929184               0.000000000               0.000000000               0.000000000               0.000000000               0.000416524               0.001376520              -0.001004214              -0.000015870               0.000464125               0.000448255               0.000000000               0.000000000               0.000000000               0.000000000               0.000381955               0.002151917              -0.001281555              -0.000125758               0.000759217               0.000633459               0.000000000               0.000000000               0.000000000               0.000000000               0.000181417               0.003077385              -0.001418603              -0.000316642               0.001131331               0.000814689               0.000000000               0.000000000               0.000000000               0.000000000               0.000123485               0.003595810              -0.001282533              -0.000403169               0.001332981               0.000929811               0.000000000               0.000000000               0.000000000               0.000000000               0.000113620               0.003900704              -0.001114537              -0.000444980               0.001448548               0.001003568               0.000000000               0.000000000               0.000000000               0.000000000               0.000118344               0.004075421              -0.000968748              -0.000465048               0.001513476               0.001048428               0.000000000               0.000000000               0.000000000               0.000000000               0.000132060               0.004167221              -0.000837304              -0.000471379               0.001546186               0.001074807               0.000000000               0.000000000               0.000000000               0.000000000               0.000145894               0.004211804              -0.000717092              -0.000471764               0.001561175               0.001089411               0.000000000               0.000000000               0.000000000               0.000000000               0.000150122               0.004231487              -0.000611403              -0.000472639               0.001568028               0.001095389               0.000000000               0.000000000               0.000000000               0.000000000               0.000143182               0.004237479              -0.000517634              -0.000475991               0.001571142               0.001095152               0.000000000               0.000000000               0.000000000               0.000000000               0.000122853               0.004228317              -0.000437771              -0.000482469               0.001570248               0.001087779               0.000000000               0.000000000               0.000000000               0.000000000               0.000089069               0.004200094              -0.000371048              -0.000491610               0.001563887               0.001072278               0.000000000               0.000000000               0.000000000               0.000000000               0.000044401               0.004154253              -0.000308839              -0.000502630               0.001552280               0.001049650               0.000000000               0.000000000               0.000000000               0.000000000              -0.000007203               0.004097892              -0.000240443              -0.000514936               0.001537596               0.001022660               0.000000000               0.000000000               0.000000000               0.000000000              -0.000066192               0.004036225              -0.000162211              -0.000529349               0.001521845               0.000992496               0.000000000               0.000000000               0.000000000               0.000000000              -0.000140773               0.003970712              -0.000080373              -0.000549127               0.001506600               0.000957473               0.000000000               0.000000000               0.000000000               0.000000000              -0.000201864               0.003924848              -0.000033229              -0.000566304               0.001497038               0.000930734               0.000000000               0.000000000               0.000000000               0.000000000              -0.000057752               0.000799979              -0.000663667              -0.000121655               0.000307208               0.000185553               0.000000000               0.000000000               0.000000000               0.000000000               0.000217567               0.001518788              -0.001049964              -0.000108262               0.000542344               0.000434083               0.000000000               0.000000000               0.000000000               0.000000000               0.000255525               0.002377229              -0.001318032              -0.000201333               0.000859512               0.000658179               0.000000000               0.000000000               0.000000000               0.000000000               0.000264846               0.002952749              -0.001266689              -0.000269777               0.001074165               0.000804388               0.000000000               0.000000000               0.000000000               0.000000000               0.000265538               0.003344480              -0.001142935              -0.000318483               0.001220976               0.000902493               0.000000000               0.000000000               0.000000000               0.000000000               0.000262689               0.003610404              -0.001015991              -0.000352792               0.001321053               0.000968261               0.000000000               0.000000000               0.000000000               0.000000000               0.000258375               0.003782585              -0.000891846              -0.000375932               0.001386160               0.001010227               0.000000000               0.000000000               0.000000000               0.000000000               0.000256691               0.003892840              -0.000775119              -0.000390345               0.001427715               0.001037370               0.000000000               0.000000000               0.000000000               0.000000000               0.000253371               0.003966774              -0.000670766              -0.000400832               0.001455855               0.001055023               0.000000000               0.000000000               0.000000000               0.000000000               0.000246631               0.004018507              -0.000579047              -0.000409826               0.001476098               0.001066271               0.000000000               0.000000000               0.000000000               0.000000000               0.000231826               0.004044708              -0.000501728              -0.000418653               0.001487773               0.001069120               0.000000000               0.000000000               0.000000000               0.000000000               0.000205673               0.004048875              -0.000434313              -0.000428981               0.001492605               0.001063624               0.000000000               0.000000000               0.000000000               0.000000000               0.000165947               0.004038131              -0.000368617              -0.000442535               0.001493542               0.001051007               0.000000000               0.000000000               0.000000000               0.000000000               0.000114690               0.004016160              -0.000296251              -0.000459010               0.001491710               0.001032700               0.000000000               0.000000000               0.000000000               0.000000000               0.000054206               0.003985838              -0.000210827              -0.000477901               0.001487900               0.001009999               0.000000000               0.000000000               0.000000000               0.000000000              -0.000017885               0.003949799              -0.000111668              -0.000500430               0.001483397               0.000982966               0.000000000               0.000000000               0.000000000               0.000000000              -0.000077490               0.003919494              -0.000052901              -0.000518994               0.001479483               0.000960489               0.000000000               0.000000000               0.000000000               0.000000000              -0.000534462               0.000395348              -0.000386081              -0.000249842               0.000215061              -0.000034780               0.000000000               0.000000000               0.000000000               0.000000000               0.000031209               0.001000169              -0.000789648              -0.000113318               0.000371158               0.000257840               0.000000000               0.000000000               0.000000000               0.000000000               0.000321189               0.001736205              -0.001105500              -0.000096581               0.000610922               0.000514341               0.000000000               0.000000000               0.000000000               0.000000000               0.000422729               0.002322505              -0.001116339              -0.000131791               0.000818090               0.000686300               0.000000000               0.000000000               0.000000000               0.000000000               0.000449897               0.002771128              -0.001040995              -0.000177680               0.000982926               0.000805246               0.000000000               0.000000000               0.000000000               0.000000000               0.000442260               0.003106441              -0.000944322              -0.000222458               0.001109622               0.000887165               0.000000000               0.000000000               0.000000000               0.000000000               0.000421982               0.003348874              -0.000839208              -0.000260366               0.001203069               0.000942703               0.000000000               0.000000000               0.000000000               0.000000000               0.000399724               0.003523306              -0.000735749              -0.000290516               0.001271262               0.000980746               0.000000000               0.000000000               0.000000000               0.000000000               0.000381593               0.003653270              -0.000642967              -0.000313561               0.001322265               0.001008704               0.000000000               0.000000000               0.000000000               0.000000000               0.000369544               0.003752950              -0.000562798              -0.000330539               0.001361150               0.001030611               0.000000000               0.000000000               0.000000000               0.000000000               0.000356265               0.003822547              -0.000495476              -0.000344219               0.001388909               0.001044691               0.000000000               0.000000000               0.000000000               0.000000000               0.000337537               0.003868125              -0.000436126              -0.000356939               0.001408342               0.001051403               0.000000000               0.000000000               0.000000000               0.000000000               0.000312958               0.003897050              -0.000375404              -0.000369771               0.001422261               0.001052490               0.000000000               0.000000000               0.000000000               0.000000000               0.000281014               0.003916414              -0.000305573              -0.000384170               0.001433515               0.001049345               0.000000000               0.000000000               0.000000000               0.000000000               0.000241915               0.003925008              -0.000222800              -0.000399907               0.001441625               0.001041718               0.000000000               0.000000000               0.000000000               0.000000000               0.000195865               0.003919877              -0.000120991              -0.000416534               0.001445457               0.001028923               0.000000000               0.000000000               0.000000000               0.000000000               0.000160043               0.003907752              -0.000060676              -0.000428452               0.001445388               0.001016936               0.000000000               0.000000000               0.000000000               0.000000000              -0.000946154               0.000139694              -0.000190761              -0.000372269               0.000170653              -0.000201616               0.000000000               0.000000000               0.000000000               0.000000000              -0.000140514               0.000619192              -0.000521473              -0.000130092               0.000249759               0.000119667               0.000000000               0.000000000               0.000000000               0.000000000               0.000372000               0.001219671              -0.000797605              -0.000012960               0.000410872               0.000397913               0.000000000               0.000000000               0.000000000               0.000000000               0.000566938               0.001786923              -0.000836094              -0.000010765               0.000599223               0.000588458               0.000000000               0.000000000               0.000000000               0.000000000               0.000627962               0.002261672              -0.000797688              -0.000047224               0.000769624               0.000722400               0.000000000               0.000000000               0.000000000               0.000000000               0.000621622               0.002641152              -0.000734555              -0.000097036               0.000912720               0.000815684               0.000000000               0.000000000               0.000000000               0.000000000               0.000589065               0.002939885              -0.000659181              -0.000146586               0.001028814               0.000882227               0.000000000               0.000000000               0.000000000               0.000000000               0.000549474               0.003169681              -0.000581219              -0.000190157               0.001119935               0.000929778               0.000000000               0.000000000               0.000000000               0.000000000               0.000515698               0.003350744              -0.000511985              -0.000225456               0.001192055               0.000966599               0.000000000               0.000000000               0.000000000               0.000000000               0.000491554               0.003498554              -0.000452742              -0.000252986               0.001250502               0.000997516               0.000000000               0.000000000               0.000000000               0.000000000               0.000475283               0.003616212              -0.000402582              -0.000273795               0.001296657               0.001022862               0.000000000               0.000000000               0.000000000               0.000000000               0.000461848               0.003704133              -0.000359300              -0.000289823               0.001331306               0.001041483               0.000000000               0.000000000               0.000000000               0.000000000               0.000451224               0.003768002              -0.000314644              -0.000301791               0.001356585               0.001054794               0.000000000               0.000000000               0.000000000               0.000000000               0.000446720               0.003820129              -0.000260194              -0.000309995               0.001376695               0.001066700               0.000000000               0.000000000               0.000000000               0.000000000               0.000446694               0.003860008              -0.000192284              -0.000314990               0.001391653               0.001076663               0.000000000               0.000000000               0.000000000               0.000000000               0.000450397               0.003886046              -0.000106021              -0.000316856               0.001400955               0.001084099               0.000000000               0.000000000               0.000000000               0.000000000               0.000455946               0.003895448              -0.000056495              -0.000315950               0.001403787               0.001087836               0.000000000               0.000000000               0.000000000               0.000000000              -0.001228363               0.000001162              -0.000073799              -0.000460781               0.000153980              -0.000306801               0.000000000               0.000000000               0.000000000               0.000000000              -0.000261202               0.000387503              -0.000258951              -0.000146389               0.000177962               0.000031574               0.000000000               0.000000000               0.000000000               0.000000000               0.000404817               0.000883505              -0.000418457               0.000041367               0.000280709               0.000322077               0.000000000               0.000000000               0.000000000               0.000000000               0.000666961               0.001422303              -0.000448292               0.000072322               0.000449989               0.000522310               0.000000000               0.000000000               0.000000000               0.000000000               0.000754240               0.001905194              -0.000432782               0.000044690               0.000620162               0.000664851               0.000000000               0.000000000               0.000000000               0.000000000               0.000755487               0.002313495              -0.000402788              -0.000005880               0.000773117               0.000767237               0.000000000               0.000000000               0.000000000               0.000000000               0.000716856               0.002647251              -0.000364180              -0.000062085               0.000903103               0.000841018               0.000000000               0.000000000               0.000000000               0.000000000               0.000669058               0.002913060              -0.000323051              -0.000113236               0.001008756               0.000895520               0.000000000               0.000000000               0.000000000               0.000000000               0.000626759               0.003132223              -0.000285930              -0.000156493               0.001096228               0.000939735               0.000000000               0.000000000               0.000000000               0.000000000               0.000593526               0.003315687              -0.000253699              -0.000191888               0.001169181               0.000977292               0.000000000               0.000000000               0.000000000               0.000000000               0.000570198               0.003467536              -0.000227598              -0.000219617               0.001229039               0.001009422               0.000000000               0.000000000               0.000000000               0.000000000               0.000556489               0.003592563              -0.000205013              -0.000240387               0.001277638               0.001037251               0.000000000               0.000000000               0.000000000               0.000000000               0.000552653               0.003691158              -0.000183129              -0.000254149               0.001315090               0.001060941               0.000000000               0.000000000               0.000000000               0.000000000               0.000565521               0.003769896              -0.000155868              -0.000259166               0.001343008               0.001083842               0.000000000               0.000000000               0.000000000               0.000000000               0.000601196               0.003832467              -0.000118164              -0.000253609               0.001362013               0.001108403               0.000000000               0.000000000               0.000000000               0.000000000               0.000663410               0.003876219              -0.000067152              -0.000235748               0.001370643               0.001134895               0.000000000               0.000000000               0.000000000               0.000000000               0.000720882               0.003898678              -0.000038116              -0.000217003               0.001371881               0.001154877               0.000000000               0.000000000               0.000000000               0.000000000               0.000000000               0.000000000               0.000000000               0.000000000               0.000000000               0.000000000               0.000000000               0.000000000               0.000000000               0.000000000               0.000000000               0.000000000               0.000000000               0.000000000               0.000000000               0.000000000               0.000000000               0.000000000               0.000000000               0.000000000               0.000000000               0.000000000               0.000000000               0.000000000               0.000000000               0.000000000               0.000000000               0.000000000               0.000000000               0.000000000               0.000000000               0.000000000               0.000000000               0.000000000               0.000000000               0.000000000               0.000000000               0.000000000               0.000000000               0.000000000               0.000000000               0.000000000               0.000000000               0.000000000               0.000000000               0.000000000               0.000000000               0.000000000               0.000000000               0.000000000               0.000000000               0.000000000               0.000000000               0.000000000               0.000000000               0.000000000               0.000000000               0.000000000               0.000000000               0.000000000               0.000000000               0.000000000               0.000000000               0.000000000               0.000000000               0.000000000               0.000000000               0.000000000               0.000000000               0.000000000               0.000000000               0.000000000               0.000000000               0.000000000               0.000000000               0.000000000               0.000000000               0.000000000               0.000000000               0.000000000               0.000000000               0.000000000               0.000000000               0.000000000               0.000000000               0.000000000               0.000000000               0.000000000               0.000000000               0.000000000               0.000000000               0.000000000               0.000000000               0.000000000               0.000000000               0.000000000               0.000000000               0.000000000               0.000000000               0.000000000               0.000000000               0.000000000               0.000000000               0.000000000               0.000000000               0.000000000               0.000000000               0.000000000               0.000000000               0.000000000               0.000000000               0.000000000               0.000000000               0.000000000               0.000000000               0.000000000               0.000000000               0.000000000               0.000000000               0.000000000               0.000000000               0.000000000               0.000000000               0.000000000               0.000000000               0.000000000               0.000000000               0.000000000               0.000000000               0.000000000               0.000000000               0.000000000               0.000000000               0.000000000               0.000000000               0.000000000               0.000000000               0.000000000               0.000000000               0.000000000               0.000000000               0.000000000               0.000000000               0.000000000               0.000000000               0.000000000               0.000000000               0.000000000               0.000000000               0.000000000               0.000000000               0.000000000               0.000000000               0.000000000               0.000000000               0.000000000               0.000000000               0.000000000               0.000000000               0.000000000               0.000000000               0.000000000               0.000000000               0.000000000               0.000000000               0.000000000               0.000000000               0.000000000               0.000000000               0.000000000               0.000000000               0.000000000               0.000000000               0.000000000               0.000000000               0.000000000               0.000000000               0.000000000               0.000000000               0.000000000               0.000000000               0.000000000               0.000000000               0.000000000               0.000000000               0.000000000               0.000000000               0.000000000               0.000000000               0.000000000               0.000000000               0.000000000               0.000000000               0.000000000               0.000000000               0.000000000               0.000000000               0.000000000               0.000000000               0.000000000               0.000000000               0.000000000               0.000000000               0.000000000               0.000000000               0.000000000               0.000000000               0.000000000               0.000000000               0.000000000               0.000000000               0.000000000               0.000000000               0.000000000               0.000000000               0.000000000               0.000000000               0.000000000               0.000000000               0.000000000               0.000000000               0.000000000               0.000000000               0.000000000               0.000000000               0.000000000               0.000000000               0.000000000               0.000000000               0.000000000               0.000000000               0.000000000               0.000000000               0.000000000               0.000000000               0.000000000               0.000000000               0.000000000               0.000000000               0.000000000               0.000000000               0.000000000               0.000000000               0.000000000               0.000000000               0.000000000               0.000000000               0.000000000               0.000000000               0.000000000               0.000000000               0.000000000               0.000000000               0.000000000               0.000000000               0.000000000               0.000000000               0.000000000               0.000000000               0.000000000               0.000000000               0.000000000               0.000000000               0.000000000               0.000000000               0.000000000               0.000000000               0.000000000               0.000000000               0.000000000               0.000000000               0.000000000               0.000000000               0.000000000               0.000000000               0.000000000               0.000000000               0.000000000               0.000000000               0.000000000               0.000000000               0.000000000               0.000000000               0.000000000               0.000000000               0.000000000               0.000000000               0.000000000               0.000000000               0.000000000               0.000000000               0.000000000               0.000000000               0.000000000               0.000000000               0.000000000               0.000000000               0.000000000               0.000000000               0.000000000               0.000000000               0.000000000               0.000000000               0.000000000               0.000000000               0.000000000               0.000000000               0.000000000               0.000000000               0.000000000               0.000000000               0.000000000               0.000000000               0.000000000               0.000000000               0.000000000               0.000000000               0.000000000               0.000000000               0.000000000               0.000000000               0.000000000               0.000000000               0.000000000               0.000000000               0.000000000               0.000000000               0.000000000               0.000000000               0.000000000               0.000000000               0.000000000               0.000000000               0.000000000               0.000000000               0.000000000               0.000000000               0.000000000               0.000000000               0.000000000               0.001036128               0.010904588               0.000812760              -0.000974523               0.003959668               0.002985144               0.000000000               0.000000000               0.000000000               0.000000000               0.001069526               0.008917473               0.000487671              -0.000713610               0.003210331               0.002496721               0.000000000               0.000000000               0.000000000               0.000000000               0.001430234               0.007342494               0.000154442              -0.000381473               0.002574631               0.002193158               0.000000000               0.000000000               0.000000000               0.000000000               0.001457937               0.006478014               0.000003962              -0.000263025               0.002246991               0.001983967               0.000000000               0.000000000               0.000000000               0.000000000               0.001367530               0.005964064              -0.000067352              -0.000232684               0.002065563               0.001832879               0.000000000               0.000000000               0.000000000               0.000000000               0.001235697               0.005645216              -0.000102230              -0.000242265               0.001962475               0.001720210               0.000000000               0.000000000               0.000000000               0.000000000               0.001093148               0.005438236              -0.000115677              -0.000269848               0.001902677               0.001632828               0.000000000               0.000000000               0.000000000               0.000000000               0.000957702               0.005295547              -0.000116419              -0.000302804               0.001866099               0.001563295               0.000000000               0.000000000               0.000000000               0.000000000               0.000834571               0.005192435              -0.000112651              -0.000336089               0.001842824               0.001506735               0.000000000               0.000000000               0.000000000               0.000000000               0.000715833               0.005113910              -0.000109166              -0.000370800               0.001828220               0.001457419               0.000000000               0.000000000               0.000000000               0.000000000               0.000599923               0.005051049              -0.000104538              -0.000406409               0.001819136               0.001412727               0.000000000               0.000000000               0.000000000               0.000000000               0.000489113               0.004997778              -0.000098035              -0.000441304               0.001813011               0.001371707               0.000000000               0.000000000               0.000000000               0.000000000               0.000379586               0.004948220              -0.000090257              -0.000476182               0.001808118               0.001331936               0.000000000               0.000000000               0.000000000               0.000000000               0.000274086               0.004900384              -0.000080273              -0.000509764               0.001803366               0.001293602               0.000000000               0.000000000               0.000000000               0.000000000               0.000176487               0.004851146              -0.000065082              -0.000540209               0.001797102               0.001256893               0.000000000               0.000000000               0.000000000               0.000000000               0.000085682               0.004792619              -0.000038764              -0.000566945               0.001786506               0.001219560               0.000000000               0.000000000               0.000000000               0.000000000               0.000039245               0.004749942              -0.000021947              -0.000579024               0.001776306               0.001197282               0.000000000               0.000000000               0.000000000               0.000000000               0.001182371               0.010338288               0.001531898              -0.000848896               0.003729027               0.002880131               0.000000000               0.000000000               0.000000000               0.000000000               0.001085756               0.008528946               0.000920456              -0.000658958               0.003062606               0.002403648               0.000000000               0.000000000               0.000000000               0.000000000               0.001310914               0.007151327               0.000300893              -0.000402322               0.002517859               0.002115537               0.000000000               0.000000000               0.000000000               0.000000000               0.001285781               0.006393731               0.000028251              -0.000317048               0.002236905               0.001919857               0.000000000               0.000000000               0.000000000               0.000000000               0.001180270               0.005941990              -0.000096869              -0.000300147               0.002080692               0.001780546               0.000000000               0.000000000               0.000000000               0.000000000               0.001051379               0.005652123              -0.000155083              -0.000312248               0.001988105               0.001675857               0.000000000               0.000000000               0.000000000               0.000000000               0.000921606               0.005453049              -0.000176171              -0.000336028               0.001929674               0.001593646               0.000000000               0.000000000               0.000000000               0.000000000               0.000801713               0.005308465              -0.000178044              -0.000362915               0.001890442               0.001527527               0.000000000               0.000000000               0.000000000               0.000000000               0.000696343               0.005203130              -0.000173079              -0.000389262               0.001864113               0.001474852               0.000000000               0.000000000               0.000000000               0.000000000               0.000596811               0.005122401              -0.000167027              -0.000416495               0.001846282               0.001429787               0.000000000               0.000000000               0.000000000               0.000000000               0.000500525               0.005060842              -0.000158537              -0.000444907               0.001835233               0.001390326               0.000000000               0.000000000               0.000000000               0.000000000               0.000406962               0.005012305              -0.000147046              -0.000473926               0.001828727               0.001354801               0.000000000               0.000000000               0.000000000               0.000000000               0.000311469               0.004972132              -0.000134331              -0.000504715               0.001825599               0.001320884               0.000000000               0.000000000               0.000000000               0.000000000               0.000220228               0.004939754              -0.000118185              -0.000534883               0.001824862               0.001289980               0.000000000               0.000000000               0.000000000               0.000000000               0.000139617               0.004911196              -0.000092786              -0.000561542               0.001824229               0.001262688               0.000000000               0.000000000               0.000000000               0.000000000               0.000066505               0.004882420              -0.000053419              -0.000585362               0.001822578               0.001237216               0.000000000               0.000000000               0.000000000               0.000000000               0.000032073               0.004867477              -0.000029716              -0.000596406               0.001821278               0.001224872               0.000000000               0.000000000               0.000000000               0.000000000               0.001367971               0.009468409               0.002081276              -0.000670562               0.003379625               0.002709063               0.000000000               0.000000000               0.000000000               0.000000000               0.001086865               0.007946475               0.001257636              -0.000585734               0.002844043               0.002258309               0.000000000               0.000000000               0.000000000               0.000000000               0.001118861               0.006870416               0.000433305              -0.000439228               0.002436525               0.001997297               0.000000000               0.000000000               0.000000000               0.000000000               0.001027367               0.006262183               0.000083897              -0.000397509               0.002219877               0.001822367               0.000000000               0.000000000               0.000000000               0.000000000               0.000907392               0.005881577              -0.000071530              -0.000394924               0.002092148               0.001697223               0.000000000               0.000000000               0.000000000               0.000000000               0.000788945               0.005623567              -0.000141079              -0.000407091               0.002010200               0.001603110               0.000000000               0.000000000               0.000000000               0.000000000               0.000684004               0.005438288              -0.000165824              -0.000423284               0.001953839               0.001530556               0.000000000               0.000000000               0.000000000               0.000000000               0.000592773               0.005300190              -0.000168668              -0.000440233               0.001913456               0.001473224               0.000000000               0.000000000               0.000000000               0.000000000               0.000513932               0.005195535              -0.000163224              -0.000456716               0.001884066               0.001427350               0.000000000               0.000000000               0.000000000               0.000000000               0.000438857               0.005114407              -0.000157607              -0.000474729               0.001863028               0.001388300               0.000000000               0.000000000               0.000000000               0.000000000               0.000365004               0.005052650              -0.000150261              -0.000494703               0.001849101               0.001354397               0.000000000               0.000000000               0.000000000               0.000000000               0.000294235               0.005006077              -0.000139333              -0.000515420               0.001840482               0.001325062               0.000000000               0.000000000               0.000000000               0.000000000               0.000222296               0.004971617              -0.000128637              -0.000538090               0.001836552               0.001298463               0.000000000               0.000000000               0.000000000               0.000000000               0.000153588               0.004946337              -0.000112867              -0.000560695               0.001835661               0.001274966               0.000000000               0.000000000               0.000000000               0.000000000               0.000095279               0.004926566              -0.000086031              -0.000580090               0.001835535               0.001255446               0.000000000               0.000000000               0.000000000               0.000000000               0.000045725               0.004913193              -0.000047646              -0.000597001               0.001836715               0.001239714               0.000000000               0.000000000               0.000000000               0.000000000               0.000023787               0.004910355              -0.000025400              -0.000604873               0.001838393               0.001233520               0.000000000               0.000000000               0.000000000               0.000000000               0.001532052               0.008390172               0.002423324              -0.000474253               0.002954780               0.002480527               0.000000000               0.000000000               0.000000000               0.000000000               0.001056293               0.007242424               0.001488709              -0.000509193               0.002583848               0.002074655               0.000000000               0.000000000               0.000000000               0.000000000               0.000879572               0.006526368               0.000562067              -0.000485955               0.002337419               0.001851464               0.000000000               0.000000000               0.000000000               0.000000000               0.000731262               0.006077284               0.000184535              -0.000485436               0.002187553               0.001702117               0.000000000               0.000000000               0.000000000               0.000000000               0.000610997               0.005771095               0.000018220              -0.000492262               0.002087766               0.001595505               0.000000000               0.000000000               0.000000000               0.000000000               0.000516121               0.005550205              -0.000058736              -0.000500229               0.002016793               0.001516564               0.000000000               0.000000000               0.000000000               0.000000000               0.000441375               0.005384330              -0.000090443              -0.000507524               0.001963934               0.001456409               0.000000000               0.000000000               0.000000000               0.000000000               0.000380301               0.005254944              -0.000098029              -0.000514254               0.001923048               0.001408795               0.000000000               0.000000000               0.000000000               0.000000000               0.000330185               0.005152420              -0.000098285              -0.000520232               0.001890867               0.001370635               0.000000000               0.000000000               0.000000000               0.000000000               0.000282937               0.005073095              -0.000099851              -0.000528034               0.001867026               0.001338992               0.000000000               0.000000000               0.000000000               0.000000000               0.000233015               0.005008971              -0.000100784              -0.000538740               0.001849220               0.001310481               0.000000000               0.000000000               0.000000000               0.000000000               0.000184089               0.004959664              -0.000099712              -0.000550923               0.001836846               0.001285923               0.000000000               0.000000000               0.000000000               0.000000000               0.000137240               0.004923464              -0.000097759              -0.000563967               0.001829127               0.001265160               0.000000000               0.000000000               0.000000000               0.000000000               0.000093443               0.004893110              -0.000087763              -0.000576596               0.001823219               0.001246623               0.000000000               0.000000000               0.000000000               0.000000000               0.000055972               0.004868117              -0.000066767              -0.000587524               0.001818531               0.001231007               0.000000000               0.000000000               0.000000000               0.000000000               0.000026919               0.004850324              -0.000036674              -0.000596194               0.001815490               0.001219296               0.000000000               0.000000000               0.000000000               0.000000000               0.000015343               0.004845418              -0.000019019              -0.000599922               0.001815097               0.001215175               0.000000000               0.000000000               0.000000000               0.000000000               0.001632729               0.007204832               0.002561697              -0.000288333               0.002497697               0.002209364               0.000000000               0.000000000               0.000000000               0.000000000               0.000991206               0.006478440               0.001625542              -0.000438103               0.002305492               0.001867389               0.000000000               0.000000000               0.000000000               0.000000000               0.000626572               0.006141363               0.000698916              -0.000532705               0.002224669               0.001691964               0.000000000               0.000000000               0.000000000               0.000000000               0.000450914               0.005849763               0.000327208              -0.000562126               0.002137277               0.001575150               0.000000000               0.000000000               0.000000000               0.000000000               0.000350230               0.005619012               0.000156340              -0.000571039               0.002063331               0.001492293               0.000000000               0.000000000               0.000000000               0.000000000               0.000288341               0.005437118               0.000070037              -0.000571510               0.002002858               0.001431348               0.000000000               0.000000000               0.000000000               0.000000000               0.000247451               0.005291361               0.000027714              -0.000568625               0.001953311               0.001384686               0.000000000               0.000000000               0.000000000               0.000000000               0.000214707               0.005171524               0.000009853              -0.000565924               0.001912466               0.001346542               0.000000000               0.000000000               0.000000000               0.000000000               0.000189945               0.005074299              -0.000002499              -0.000563057               0.001879102               0.001316045               0.000000000               0.000000000               0.000000000               0.000000000               0.000163737               0.004992551              -0.000017376              -0.000562666               0.001851723               0.001289056               0.000000000               0.000000000               0.000000000               0.000000000               0.000132400               0.004922778              -0.000031584              -0.000565696               0.001829475               0.001263779               0.000000000               0.000000000               0.000000000               0.000000000               0.000101208               0.004865564              -0.000044310              -0.000570241               0.001811919               0.001241678               0.000000000               0.000000000               0.000000000               0.000000000               0.000070956               0.004816601              -0.000052845              -0.000575465               0.001797339               0.001221874               0.000000000               0.000000000               0.000000000               0.000000000               0.000047621               0.004772778              -0.000050294              -0.000578738               0.001783823               0.001205085               0.000000000               0.000000000               0.000000000               0.000000000               0.000029809               0.004732346              -0.000036803              -0.000580363               0.001770887               0.001190524               0.000000000               0.000000000               0.000000000               0.000000000               0.000015034               0.004697192              -0.000018592              -0.000581510               0.001759552               0.001178042               0.000000000               0.000000000               0.000000000               0.000000000               0.000007633               0.004679051              -0.000010420              -0.000582018               0.001753674               0.001171656               0.000000000               0.000000000               0.000000000               0.000000000               0.001639283               0.006014878               0.002520876              -0.000137131               0.002050649               0.001913517               0.000000000               0.000000000               0.000000000               0.000000000               0.000894954               0.005715699               0.001680091              -0.000378855               0.002031499               0.001652643               0.000000000               0.000000000               0.000000000               0.000000000               0.000392764               0.005742800               0.000835911              -0.000570562               0.002104435               0.001533872               0.000000000               0.000000000               0.000000000               0.000000000               0.000219327               0.005598609               0.000488363              -0.000617577               0.002072043               0.001454466               0.000000000               0.000000000               0.000000000               0.000000000               0.000154298               0.005437201               0.000313878              -0.000621787               0.002019644               0.001397857               0.000000000               0.000000000               0.000000000               0.000000000               0.000125960               0.005290810               0.000217189              -0.000614115               0.001968291               0.001354176               0.000000000               0.000000000               0.000000000               0.000000000               0.000114824               0.005160714               0.000160276              -0.000602029               0.001920897               0.001318868               0.000000000               0.000000000               0.000000000               0.000000000               0.000109631               0.005049779               0.000124535              -0.000590109               0.001879946               0.001289837               0.000000000               0.000000000               0.000000000               0.000000000               0.000104284               0.004954910               0.000096818              -0.000580256               0.001845039               0.001264783               0.000000000               0.000000000               0.000000000               0.000000000               0.000090300               0.004869357               0.000067794              -0.000574806               0.001814705               0.001239899               0.000000000               0.000000000               0.000000000               0.000000000               0.000068985               0.004793261               0.000039611              -0.000573287               0.001788833               0.001215546               0.000000000               0.000000000               0.000000000               0.000000000               0.000046637               0.004724353               0.000015188              -0.000573054               0.001765787               0.001192733               0.000000000               0.000000000               0.000000000               0.000000000               0.000028204               0.004660136              -0.000003700              -0.000571939               0.001744009               0.001172070               0.000000000               0.000000000               0.000000000               0.000000000               0.000016262               0.004598544              -0.000010219              -0.000568718               0.001722406               0.001153687               0.000000000               0.000000000               0.000000000               0.000000000               0.000009487               0.004538069              -0.000007175              -0.000563700               0.001700575               0.001136875               0.000000000               0.000000000               0.000000000               0.000000000               0.000006789               0.004482458              -0.000002678              -0.000557760               0.001680058               0.001122298               0.000000000               0.000000000               0.000000000               0.000000000               0.000000380               0.004444795              -0.000004615              -0.000555455               0.001666735               0.001111280               0.000000000               0.000000000               0.000000000               0.000000000               0.001544308               0.004895930               0.002333291              -0.000032879               0.001642919               0.001610040               0.000000000               0.000000000               0.000000000               0.000000000               0.000767317               0.005005020               0.001667468              -0.000337884               0.001780951               0.001443067               0.000000000               0.000000000               0.000000000               0.000000000               0.000203422               0.005346471               0.000967296              -0.000592025               0.001979481               0.001387456               0.000000000               0.000000000               0.000000000               0.000000000               0.000058697               0.005327194               0.000649294              -0.000643886               0.001990342               0.001346456               0.000000000               0.000000000               0.000000000               0.000000000               0.000030791               0.005229287               0.000471281              -0.000642113               0.001957116               0.001315003               0.000000000               0.000000000               0.000000000               0.000000000               0.000034544               0.005115202               0.000361065              -0.000626445               0.001913865               0.001287420               0.000000000               0.000000000               0.000000000               0.000000000               0.000046577               0.004999636               0.000282422              -0.000607487               0.001869024               0.001261538               0.000000000               0.000000000               0.000000000               0.000000000               0.000055412               0.004894253               0.000223554              -0.000591001               0.001828402               0.001237401               0.000000000               0.000000000               0.000000000               0.000000000               0.000055559               0.004799182               0.000178198              -0.000579062               0.001792732               0.001213670               0.000000000               0.000000000               0.000000000               0.000000000               0.000045145               0.004714166               0.000136271              -0.000572340               0.001762153               0.001189813               0.000000000               0.000000000               0.000000000               0.000000000               0.000025485               0.004634353               0.000097128              -0.000569736               0.001734681               0.001164945               0.000000000               0.000000000               0.000000000               0.000000000               0.000006669               0.004556838               0.000062601              -0.000567102               0.001707965               0.001140863               0.000000000               0.000000000               0.000000000               0.000000000              -0.000005066               0.004478375               0.000033163              -0.000561695               0.001680009               0.001118313               0.000000000               0.000000000               0.000000000               0.000000000              -0.000010317               0.004397432               0.000015349              -0.000553547               0.001650312               0.001096765               0.000000000               0.000000000               0.000000000               0.000000000              -0.000012251               0.004318119               0.000005751              -0.000544358               0.001620811               0.001076453               0.000000000               0.000000000               0.000000000               0.000000000              -0.000007966               0.004244871               0.000000323              -0.000533595               0.001592808               0.001059213               0.000000000               0.000000000               0.000000000               0.000000000              -0.000010058               0.004197132              -0.000005282              -0.000528412               0.001575167               0.001046755               0.000000000               0.000000000               0.000000000               0.000000000               0.001392730               0.003924190               0.002050243               0.000031747               0.001297467               0.001329214               0.000000000               0.000000000               0.000000000               0.000000000               0.000653998               0.004365874               0.001622477              -0.000300486               0.001555438               0.001254952               0.000000000               0.000000000               0.000000000               0.000000000               0.000089972               0.004968565               0.001113730              -0.000587330               0.001851948               0.001264618               0.000000000               0.000000000               0.000000000               0.000000000              -0.000018774               0.005071726               0.000817956              -0.000641004               0.001904226               0.001263222               0.000000000               0.000000000               0.000000000               0.000000000              -0.000025540               0.005040800               0.000631081              -0.000639676               0.001893475               0.001253799               0.000000000               0.000000000               0.000000000               0.000000000              -0.000003023               0.004963731               0.000501338              -0.000621599               0.001861760               0.001240161               0.000000000               0.000000000               0.000000000               0.000000000               0.000023930               0.004869594               0.000400382              -0.000599724               0.001823090               0.001223366               0.000000000               0.000000000               0.000000000               0.000000000               0.000039705               0.004772741               0.000320146              -0.000581702               0.001784798               0.001203097               0.000000000               0.000000000               0.000000000               0.000000000               0.000039075               0.004680692               0.000256916              -0.000570432               0.001750359               0.001179927               0.000000000               0.000000000               0.000000000               0.000000000               0.000027000               0.004600892               0.000202999              -0.000564985               0.001721944               0.001156958               0.000000000               0.000000000               0.000000000               0.000000000               0.000006884               0.004523648               0.000154350              -0.000562873               0.001695492               0.001132619               0.000000000               0.000000000               0.000000000               0.000000000              -0.000012002               0.004442272               0.000111707              -0.000559783               0.001667337               0.001107554               0.000000000               0.000000000               0.000000000               0.000000000              -0.000025628               0.004352017               0.000073092              -0.000553611               0.001635195               0.001081584               0.000000000               0.000000000               0.000000000               0.000000000              -0.000035975               0.004253368               0.000041462              -0.000545160               0.001599495               0.001054335               0.000000000               0.000000000               0.000000000               0.000000000              -0.000046170               0.004155381               0.000018148              -0.000536735               0.001564025               0.001027290               0.000000000               0.000000000               0.000000000               0.000000000              -0.000054926               0.004063624               0.000002775              -0.000528549               0.001530711               0.001002162               0.000000000               0.000000000               0.000000000               0.000000000              -0.000057461               0.004014273              -0.000003943              -0.000523331               0.001512521               0.000989191               0.000000000               0.000000000               0.000000000               0.000000000               0.001172299               0.002990964               0.001725402               0.000065739               0.000975064               0.001040803               0.000000000               0.000000000               0.000000000               0.000000000               0.000585403               0.003618113               0.001563364              -0.000232739               0.001283605               0.001050865               0.000000000               0.000000000               0.000000000               0.000000000               0.000076083               0.004408788               0.001279830              -0.000522567               0.001643770               0.001121203               0.000000000               0.000000000               0.000000000               0.000000000              -0.000022742               0.004669551               0.001009809              -0.000592221               0.001753908               0.001161687               0.000000000               0.000000000               0.000000000               0.000000000              -0.000027817               0.004742007               0.000811788              -0.000603181               0.001781713               0.001178532               0.000000000               0.000000000               0.000000000               0.000000000              -0.000006488               0.004734770               0.000664662              -0.000594278               0.001776334               0.001182056               0.000000000               0.000000000               0.000000000               0.000000000               0.000024390               0.004687448               0.000545969              -0.000576784               0.001754728               0.001177945               0.000000000               0.000000000               0.000000000               0.000000000               0.000043725               0.004622120               0.000446265              -0.000561367               0.001727813               0.001166447               0.000000000               0.000000000               0.000000000               0.000000000               0.000047571               0.004553767               0.000363044              -0.000551381               0.001701701               0.001150320               0.000000000               0.000000000               0.000000000               0.000000000               0.000035552               0.004490391               0.000292642              -0.000547966               0.001679437               0.001131472               0.000000000               0.000000000               0.000000000               0.000000000               0.000011351               0.004425378               0.000233466              -0.000548914               0.001658083               0.001109168               0.000000000               0.000000000               0.000000000               0.000000000              -0.000017029               0.004355317               0.000181607              -0.000550799               0.001635358               0.001084558               0.000000000               0.000000000               0.000000000               0.000000000              -0.000044481               0.004274669               0.000132252              -0.000551013               0.001608546               0.001057534               0.000000000               0.000000000               0.000000000               0.000000000              -0.000070086               0.004184120               0.000085608              -0.000549296               0.001577791               0.001028496               0.000000000               0.000000000               0.000000000               0.000000000              -0.000098514               0.004086832               0.000044336              -0.000547795               0.001544862               0.000997067               0.000000000               0.000000000               0.000000000               0.000000000              -0.000130737               0.003989433               0.000014577              -0.000547704               0.001512366               0.000964662               0.000000000               0.000000000               0.000000000               0.000000000              -0.000148342               0.003939370               0.000002005              -0.000548048               0.001495793               0.000947745               0.000000000               0.000000000               0.000000000               0.000000000               0.000837288               0.002121588               0.001371587               0.000048782               0.000690927               0.000739710               0.000000000               0.000000000               0.000000000               0.000000000               0.000506346               0.002865073               0.001458473              -0.000168256               0.001011099               0.000842844               0.000000000               0.000000000               0.000000000               0.000000000               0.000117385               0.003774146               0.001401744              -0.000427749               0.001400619               0.000972870               0.000000000               0.000000000               0.000000000               0.000000000               0.000023474               0.004183446               0.001185129              -0.000514127               0.001565843               0.001051716               0.000000000               0.000000000               0.000000000               0.000000000               0.000012789               0.004375221               0.000991408              -0.000542106               0.001639094               0.001096988               0.000000000               0.000000000               0.000000000               0.000000000               0.000027565               0.004455920               0.000838784              -0.000546652               0.001667509               0.001120857               0.000000000               0.000000000               0.000000000               0.000000000               0.000056600               0.004473259               0.000709504              -0.000537931               0.001670382               0.001132450               0.000000000               0.000000000               0.000000000               0.000000000               0.000076819               0.004456289               0.000595258              -0.000528228               0.001661491               0.001133263               0.000000000               0.000000000               0.000000000               0.000000000               0.000083008               0.004426146               0.000496591              -0.000522139               0.001649414               0.001127275               0.000000000               0.000000000               0.000000000               0.000000000               0.000074626               0.004391798               0.000410861              -0.000520989               0.001637581               0.001116592               0.000000000               0.000000000               0.000000000               0.000000000               0.000050149               0.004350150               0.000338975              -0.000524962               0.001625023               0.001100061               0.000000000               0.000000000               0.000000000               0.000000000               0.000014201               0.004297887               0.000277719              -0.000531909               0.001609918               0.001078009               0.000000000               0.000000000               0.000000000               0.000000000              -0.000025263               0.004230988               0.000220765              -0.000538346               0.001589764               0.001051418               0.000000000               0.000000000               0.000000000               0.000000000              -0.000066028               0.004153818               0.000161276              -0.000543986               0.001565921               0.001021935               0.000000000               0.000000000               0.000000000               0.000000000              -0.000113177               0.004070274               0.000098857              -0.000551224               0.001540486               0.000989262               0.000000000               0.000000000               0.000000000               0.000000000              -0.000172156               0.003984804               0.000043280              -0.000562658               0.001515807               0.000953149               0.000000000               0.000000000               0.000000000               0.000000000              -0.000216661               0.003933447               0.000013397              -0.000572927               0.001502112               0.000929184               0.000000000               0.000000000               0.000000000               0.000000000               0.000416524               0.001376520               0.001004214              -0.000015870               0.000464125               0.000448255               0.000000000               0.000000000               0.000000000               0.000000000               0.000381955               0.002151917               0.001281555              -0.000125758               0.000759217               0.000633459               0.000000000               0.000000000               0.000000000               0.000000000               0.000181417               0.003077385               0.001418603              -0.000316642               0.001131331               0.000814689               0.000000000               0.000000000               0.000000000               0.000000000               0.000123485               0.003595810               0.001282533              -0.000403169               0.001332981               0.000929811               0.000000000               0.000000000               0.000000000               0.000000000               0.000113620               0.003900704               0.001114537              -0.000444980               0.001448548               0.001003568               0.000000000               0.000000000               0.000000000               0.000000000               0.000118344               0.004075421               0.000968748              -0.000465048               0.001513476               0.001048428               0.000000000               0.000000000               0.000000000               0.000000000               0.000132060               0.004167221               0.000837304              -0.000471379               0.001546186               0.001074807               0.000000000               0.000000000               0.000000000               0.000000000               0.000145894               0.004211804               0.000717092              -0.000471764               0.001561175               0.001089411               0.000000000               0.000000000               0.000000000               0.000000000               0.000150122               0.004231487               0.000611403              -0.000472639               0.001568028               0.001095389               0.000000000               0.000000000               0.000000000               0.000000000               0.000143182               0.004237479               0.000517634              -0.000475991               0.001571142               0.001095152               0.000000000               0.000000000               0.000000000               0.000000000               0.000122853               0.004228317               0.000437771              -0.000482469               0.001570248               0.001087779               0.000000000               0.000000000               0.000000000               0.000000000               0.000089069               0.004200094               0.000371048              -0.000491610               0.001563887               0.001072278               0.000000000               0.000000000               0.000000000               0.000000000               0.000044401               0.004154253               0.000308839              -0.000502630               0.001552280               0.001049650               0.000000000               0.000000000               0.000000000               0.000000000              -0.000007203               0.004097892               0.000240443              -0.000514936               0.001537596               0.001022660               0.000000000               0.000000000               0.000000000               0.000000000              -0.000066192               0.004036225               0.000162211              -0.000529349               0.001521845               0.000992496               0.000000000               0.000000000               0.000000000               0.000000000              -0.000140773               0.003970712               0.000080373              -0.000549127               0.001506600               0.000957473               0.000000000               0.000000000               0.000000000               0.000000000              -0.000201864               0.003924848               0.000033229              -0.000566304               0.001497038               0.000930734               0.000000000               0.000000000               0.000000000               0.000000000              -0.000057752               0.000799979               0.000663667              -0.000121655               0.000307208               0.000185553               0.000000000               0.000000000               0.000000000               0.000000000               0.000217567               0.001518788               0.001049964              -0.000108262               0.000542344               0.000434083               0.000000000               0.000000000               0.000000000               0.000000000               0.000255525               0.002377229               0.001318032              -0.000201333               0.000859512               0.000658179               0.000000000               0.000000000               0.000000000               0.000000000               0.000264846               0.002952749               0.001266689              -0.000269777               0.001074165               0.000804388               0.000000000               0.000000000               0.000000000               0.000000000               0.000265538               0.003344480               0.001142935              -0.000318483               0.001220976               0.000902493               0.000000000               0.000000000               0.000000000               0.000000000               0.000262689               0.003610404               0.001015991              -0.000352792               0.001321053               0.000968261               0.000000000               0.000000000               0.000000000               0.000000000               0.000258375               0.003782585               0.000891846              -0.000375932               0.001386160               0.001010227               0.000000000               0.000000000               0.000000000               0.000000000               0.000256691               0.003892840               0.000775119              -0.000390345               0.001427715               0.001037370               0.000000000               0.000000000               0.000000000               0.000000000               0.000253371               0.003966774               0.000670766              -0.000400832               0.001455855               0.001055023               0.000000000               0.000000000               0.000000000               0.000000000               0.000246631               0.004018507               0.000579047              -0.000409826               0.001476098               0.001066271               0.000000000               0.000000000               0.000000000               0.000000000               0.000231826               0.004044708               0.000501728              -0.000418653               0.001487773               0.001069120               0.000000000               0.000000000               0.000000000               0.000000000               0.000205673               0.004048875               0.000434313              -0.000428981               0.001492605               0.001063624               0.000000000               0.000000000               0.000000000               0.000000000               0.000165947               0.004038131               0.000368617              -0.000442535               0.001493542               0.001051007               0.000000000               0.000000000               0.000000000               0.000000000               0.000114690               0.004016160               0.000296251              -0.000459010               0.001491710               0.001032700               0.000000000               0.000000000               0.000000000               0.000000000               0.000054206               0.003985838               0.000210827              -0.000477901               0.001487900               0.001009999               0.000000000               0.000000000               0.000000000               0.000000000              -0.000017885               0.003949799               0.000111668              -0.000500430               0.001483397               0.000982966               0.000000000               0.000000000               0.000000000               0.000000000              -0.000077490               0.003919494               0.000052901              -0.000518994               0.001479483               0.000960489               0.000000000               0.000000000               0.000000000               0.000000000              -0.000534462               0.000395348               0.000386081              -0.000249842               0.000215061              -0.000034780               0.000000000               0.000000000               0.000000000               0.000000000               0.000031209               0.001000169               0.000789648              -0.000113318               0.000371158               0.000257840               0.000000000               0.000000000               0.000000000               0.000000000               0.000321189               0.001736205               0.001105500              -0.000096581               0.000610922               0.000514341               0.000000000               0.000000000               0.000000000               0.000000000               0.000422729               0.002322505               0.001116339              -0.000131791               0.000818090               0.000686300               0.000000000               0.000000000               0.000000000               0.000000000               0.000449897               0.002771128               0.001040995              -0.000177680               0.000982926               0.000805246               0.000000000               0.000000000               0.000000000               0.000000000               0.000442260               0.003106441               0.000944322              -0.000222458               0.001109622               0.000887165               0.000000000               0.000000000               0.000000000               0.000000000               0.000421982               0.003348874               0.000839208              -0.000260366               0.001203069               0.000942703               0.000000000               0.000000000               0.000000000               0.000000000               0.000399724               0.003523306               0.000735749              -0.000290516               0.001271262               0.000980746               0.000000000               0.000000000               0.000000000               0.000000000               0.000381593               0.003653270               0.000642967              -0.000313561               0.001322265               0.001008704               0.000000000               0.000000000               0.000000000               0.000000000               0.000369544               0.003752950               0.000562798              -0.000330539               0.001361150               0.001030611               0.000000000               0.000000000               0.000000000               0.000000000               0.000356265               0.003822547               0.000495476              -0.000344219               0.001388909               0.001044691               0.000000000               0.000000000               0.000000000               0.000000000               0.000337537               0.003868125               0.000436126              -0.000356939               0.001408342               0.001051403               0.000000000               0.000000000               0.000000000               0.000000000               0.000312958               0.003897050               0.000375404              -0.000369771               0.001422261               0.001052490               0.000000000               0.000000000               0.000000000               0.000000000               0.000281014               0.003916414               0.000305573              -0.000384170               0.001433515               0.001049345               0.000000000               0.000000000               0.000000000               0.000000000               0.000241915               0.003925008               0.000222800              -0.000399907               0.001441625               0.001041718               0.000000000               0.000000000               0.000000000               0.000000000               0.000195865               0.003919877               0.000120991              -0.000416534               0.001445457               0.001028923               0.000000000               0.000000000               0.000000000               0.000000000               0.000160043               0.003907752               0.000060676              -0.000428452               0.001445388               0.001016936               0.000000000               0.000000000               0.000000000               0.000000000              -0.000946154               0.000139694               0.000190761              -0.000372269               0.000170653              -0.000201616               0.000000000               0.000000000               0.000000000               0.000000000              -0.000140514               0.000619192               0.000521473              -0.000130092               0.000249759               0.000119667               0.000000000               0.000000000               0.000000000               0.000000000               0.000372000               0.001219671               0.000797605              -0.000012960               0.000410872               0.000397913               0.000000000               0.000000000               0.000000000               0.000000000               0.000566938               0.001786923               0.000836094              -0.000010765               0.000599223               0.000588458               0.000000000               0.000000000               0.000000000               0.000000000               0.000627962               0.002261672               0.000797688              -0.000047224               0.000769624               0.000722400               0.000000000               0.000000000               0.000000000               0.000000000               0.000621622               0.002641152               0.000734555              -0.000097036               0.000912720               0.000815684               0.000000000               0.000000000               0.000000000               0.000000000               0.000589065               0.002939885               0.000659181              -0.000146586               0.001028814               0.000882227               0.000000000               0.000000000               0.000000000               0.000000000               0.000549474               0.003169681               0.000581219              -0.000190157               0.001119935               0.000929778               0.000000000               0.000000000               0.000000000               0.000000000               0.000515698               0.003350744               0.000511985              -0.000225456               0.001192055               0.000966599               0.000000000               0.000000000               0.000000000               0.000000000               0.000491554               0.003498554               0.000452742              -0.000252986               0.001250502               0.000997516               0.000000000               0.000000000               0.000000000               0.000000000               0.000475283               0.003616212               0.000402582              -0.000273795               0.001296657               0.001022862               0.000000000               0.000000000               0.000000000               0.000000000               0.000461848               0.003704133               0.000359300              -0.000289823               0.001331306               0.001041483               0.000000000               0.000000000               0.000000000               0.000000000               0.000451224               0.003768002               0.000314644              -0.000301791               0.001356585               0.001054794               0.000000000               0.000000000               0.000000000               0.000000000               0.000446720               0.003820129               0.000260194              -0.000309995               0.001376695               0.001066700               0.000000000               0.000000000               0.000000000               0.000000000               0.000446694               0.003860008               0.000192284              -0.000314990               0.001391653               0.001076663               0.000000000               0.000000000               0.000000000               0.000000000               0.000450397               0.003886046               0.000106021              -0.000316856               0.001400955               0.001084099               0.000000000               0.000000000               0.000000000               0.000000000               0.000455946               0.003895448               0.000056495              -0.000315950               0.001403787               0.001087836               0.000000000               0.000000000               0.000000000               0.000000000              -0.001228363               0.000001162               0.000073799              -0.000460781               0.000153980              -0.000306801               0.000000000               0.000000000               0.000000000               0.000000000              -0.000261202               0.000387503               0.000258951              -0.000146389               0.000177962               0.000031574               0.000000000               0.000000000               0.000000000               0.000000000               0.000404817               0.000883505               0.000418457               0.000041367               0.000280709               0.000322077               0.000000000               0.000000000               0.000000000               0.000000000               0.000666961               0.001422303               0.000448292               0.000072322               0.000449989               0.000522310               0.000000000               0.000000000               0.000000000               0.000000000               0.000754240               0.001905194               0.000432782               0.000044690               0.000620162               0.000664851               0.000000000               0.000000000               0.000000000               0.000000000               0.000755487               0.002313495               0.000402788              -0.000005880               0.000773117               0.000767237               0.000000000               0.000000000               0.000000000               0.000000000               0.000716856               0.002647251               0.000364180              -0.000062085               0.000903103               0.000841018               0.000000000               0.000000000               0.000000000               0.000000000               0.000669058               0.002913060               0.000323051              -0.000113236               0.001008756               0.000895520               0.000000000               0.000000000               0.000000000               0.000000000               0.000626759               0.003132223               0.000285930              -0.000156493               0.001096228               0.000939735               0.000000000               0.000000000               0.000000000               0.000000000               0.000593526               0.003315687               0.000253699              -0.000191888               0.001169181               0.000977292               0.000000000               0.000000000               0.000000000               0.000000000               0.000570198               0.003467536               0.000227598              -0.000219617               0.001229039               0.001009422               0.000000000               0.000000000               0.000000000               0.000000000               0.000556489               0.003592563               0.000205013              -0.000240387               0.001277638               0.001037251               0.000000000               0.000000000               0.000000000               0.000000000               0.000552653               0.003691158               0.000183129              -0.000254149               0.001315090               0.001060941               0.000000000               0.000000000               0.000000000               0.000000000               0.000565521               0.003769896               0.000155868              -0.000259166               0.001343008               0.001083842               0.000000000               0.000000000               0.000000000               0.000000000               0.000601196               0.003832467               0.000118164              -0.000253609               0.001362013               0.001108403               0.000000000               0.000000000               0.000000000               0.000000000               0.000663410               0.003876219               0.000067152              -0.000235748               0.001370643               0.001134895               0.000000000               0.000000000               0.000000000               0.000000000               0.000720882               0.003898678               0.000038116              -0.000217003               0.001371881               0.001154877               0.000000000               0.000000000               0.000000000               0.000000000               0.000000000               0.000000000               0.000000000               0.000000000               0.000000000               0.000000000               0.000000000               0.000000000               0.000000000               0.000000000               0.000000000               0.000000000               0.000000000               0.000000000               0.000000000               0.000000000               0.000000000               0.000000000               0.000000000               0.000000000               0.000000000               0.000000000               0.000000000               0.000000000               0.000000000               0.000000000               0.000000000               0.000000000               0.000000000               0.000000000               0.000000000               0.000000000               0.000000000               0.000000000               0.000000000               0.000000000               0.000000000               0.000000000               0.000000000               0.000000000               0.000000000               0.000000000               0.000000000               0.000000000               0.000000000               0.000000000               0.000000000               0.000000000               0.000000000               0.000000000               0.000000000               0.000000000               0.000000000               0.000000000               0.000000000               0.000000000               0.000000000               0.000000000               0.000000000               0.000000000               0.000000000               0.000000000               0.000000000               0.000000000               0.000000000               0.000000000               0.000000000               0.000000000               0.000000000               0.000000000               0.000000000               0.000000000               0.000000000               0.000000000               0.000000000               0.000000000               0.000000000               0.000000000               0.000000000               0.000000000               0.000000000               0.000000000               0.000000000               0.000000000               0.000000000               0.000000000               0.000000000               0.000000000               0.000000000               0.000000000               0.000000000               0.000000000               0.000000000               0.000000000               0.000000000               0.000000000               0.000000000               0.000000000               0.000000000               0.000000000               0.000000000               0.000000000               0.000000000               0.000000000               0.000000000               0.000000000               0.000000000               0.000000000               0.000000000               0.000000000               0.000000000               0.000000000               0.000000000               0.000000000               0.000000000               0.000000000               0.000000000               0.000000000               0.000000000               0.000000000               0.000000000               0.000000000               0.000000000               0.000000000               0.000000000               0.000000000               0.000000000               0.000000000               0.000000000               0.000000000               0.000000000               0.000000000               0.000000000               0.000000000               0.000000000               0.000000000               0.000000000               0.000000000               0.000000000               0.000000000               0.000000000               0.000000000               0.000000000               0.000000000               0.000000000               0.000000000               0.000000000               0.000000000               0.000000000               0.000000000               0.000000000               0.000000000               0.000000000               0.000000000               0.000000000               0.000000000               0.000000000               0.000000000               0.000000000               0.000000000               0.000000000               0.000000000               0.000000000               0.000000000               0.000000000               0.000000000               0.000000000               0.000000000               0.000000000               0.000000000 </DataArray>
</PointData>
</Piece>
</UnstructuredGrid> </VTKFile>
