<?xml version="1.0"?>
<VTKFile type="UnstructuredGrid" version="0.1">
<UnstructuredGrid>
<Piece NumberOfPoints="      1156" NumberOfCells="      1024">
<Points>
<DataArray type="Float64"                                    Name="coordinates"                                                      NumberOfComponents=" 3" format="ascii">
              0.133000000               0.000000000               0.000000000               0.155937500               0.000000000               0.000000000               0.178875000               0.000000000               0.000000000               0.201812500               0.000000000               0.000000000               0.224750000               0.000000000               0.000000000               0.247687500               0.000000000               0.000000000               0.270625000               0.000000000               0.000000000               0.293562500               0.000000000               0.000000000               0.316500000               0.000000000               0.000000000               0.339437500               0.000000000               0.000000000               0.362375000               0.000000000               0.000000000               0.385312500               0.000000000               0.000000000               0.408250000               0.000000000               0.000000000               0.431187500               0.000000000               0.000000000               0.454125000               0.000000000               0.000000000               0.477062500               0.000000000               0.000000000               0.500000000               0.000000000               0.000000000               0.132359569               0.013036280               0.000000000               0.155337096               0.016127762               0.000000000               0.178314623               0.019219245               0.000000000               0.201292150               0.022310727               0.000000000               0.224269676               0.025402210               0.000000000               0.247247203               0.028493692               0.000000000               0.270224730               0.031585175               0.000000000               0.293202257               0.034676657               0.000000000               0.316179784               0.037768140               0.000000000               0.339157311               0.040859622               0.000000000               0.362134838               0.043951105               0.000000000               0.385112365               0.047042587               0.000000000               0.408089892               0.050134070               0.000000000               0.431067419               0.053225552               0.000000000               0.454044946               0.056317035               0.000000000               0.477022473               0.059408517               0.000000000               0.500000000               0.062500000               0.000000000               0.130444442               0.025947013               0.000000000               0.153541665               0.032137825               0.000000000               0.176638887               0.038328636               0.000000000               0.199736109               0.044519448               0.000000000               0.222833332               0.050710260               0.000000000               0.245930554               0.056901071               0.000000000               0.269027776               0.063091883               0.000000000               0.292124999               0.069282695               0.000000000               0.315222221               0.075473506               0.000000000               0.338319444               0.081664318               0.000000000               0.361416666               0.087855130               0.000000000               0.384513888               0.094045942               0.000000000               0.407611111               0.100236753               0.000000000               0.430708333               0.106427565               0.000000000               0.453805555               0.112618377               0.000000000               0.476902778               0.118809188               0.000000000               0.500000000               0.125000000               0.000000000               0.127273065               0.038607862               0.000000000               0.150568498               0.047913621               0.000000000               0.173863932               0.057219379               0.000000000               0.197159365               0.066525138               0.000000000               0.220454798               0.075830897               0.000000000               0.243750232               0.085136655               0.000000000               0.267045665               0.094442414               0.000000000               0.290341099               0.103748172               0.000000000               0.313636532               0.113053931               0.000000000               0.336931966               0.122359690               0.000000000               0.360227399               0.131665448               0.000000000               0.383522833               0.140971207               0.000000000               0.406818266               0.150276966               0.000000000               0.430113700               0.159582724               0.000000000               0.453409133               0.168888483               0.000000000               0.476704567               0.178194241               0.000000000               0.500000000               0.187500000               0.000000000               0.122875978               0.050896897               0.000000000               0.146446229               0.063340840               0.000000000               0.170016481               0.075784784               0.000000000               0.193586732               0.088228728               0.000000000               0.217156983               0.100672672               0.000000000               0.240727235               0.113116616               0.000000000               0.264297486               0.125560560               0.000000000               0.287867738               0.138004504               0.000000000               0.311437989               0.150448448               0.000000000               0.335008240               0.162892392               0.000000000               0.358578492               0.175336336               0.000000000               0.382148743               0.187780280               0.000000000               0.405718994               0.200224224               0.000000000               0.429289246               0.212668168               0.000000000               0.452859497               0.225112112               0.000000000               0.476429749               0.237556056               0.000000000               0.500000000               0.250000000               0.000000000               0.117295528               0.062695766               0.000000000               0.141214558               0.078308531               0.000000000               0.165133587               0.093921295               0.000000000               0.189052617               0.109534060               0.000000000               0.212971646               0.125146824               0.000000000               0.236890676               0.140759589               0.000000000               0.260809705               0.156372354               0.000000000               0.284728735               0.171985118               0.000000000               0.308647764               0.187597883               0.000000000               0.332566794               0.203210648               0.000000000               0.356485823               0.218823412               0.000000000               0.380404853               0.234436177               0.000000000               0.404323882               0.250048941               0.000000000               0.428242912               0.265661706               0.000000000               0.452161941               0.281274471               0.000000000               0.476080971               0.296887235               0.000000000               0.500000000               0.312500000               0.000000000               0.110585458               0.073890841               0.000000000               0.134923867               0.092710163               0.000000000               0.159262276               0.111529486               0.000000000               0.183600685               0.130348808               0.000000000               0.207939094               0.149168131               0.000000000               0.232277503               0.167987453               0.000000000               0.256615912               0.186806776               0.000000000               0.280954320               0.205626098               0.000000000               0.305292729               0.224445420               0.000000000               0.329631138               0.243264743               0.000000000               0.353969547               0.262084065               0.000000000               0.378307956               0.280903388               0.000000000               0.402646365               0.299722710               0.000000000               0.426984773               0.318542033               0.000000000               0.451323182               0.337361355               0.000000000               0.475661591               0.356180678               0.000000000               0.500000000               0.375000000               0.000000000               0.102810390               0.084374307               0.000000000               0.127634741               0.106444663               0.000000000               0.152459092               0.128515018               0.000000000               0.177283442               0.150585374               0.000000000               0.202107793               0.172655730               0.000000000               0.226932143               0.194726086               0.000000000               0.251756494               0.216796442               0.000000000               0.276580845               0.238866798               0.000000000               0.301405195               0.260937153               0.000000000               0.326229546               0.283007509               0.000000000               0.351053896               0.305077865               0.000000000               0.375878247               0.327148221               0.000000000               0.400702598               0.349218577               0.000000000               0.425526948               0.371288933               0.000000000               0.450351299               0.393359288               0.000000000               0.475175649               0.415429644               0.000000000               0.500000000               0.437500000               0.000000000               0.094045202               0.094045202               0.000000000               0.119417377               0.119417377               0.000000000               0.144789552               0.144789552               0.000000000               0.170161727               0.170161727               0.000000000               0.195533901               0.195533901               0.000000000               0.220906076               0.220906076               0.000000000               0.246278251               0.246278251               0.000000000               0.271650426               0.271650426               0.000000000               0.297022601               0.297022601               0.000000000               0.322394776               0.322394776               0.000000000               0.347766951               0.347766951               0.000000000               0.373139126               0.373139126               0.000000000               0.398511300               0.398511300               0.000000000               0.423883475               0.423883475               0.000000000               0.449255650               0.449255650               0.000000000               0.474627825               0.474627825               0.000000000               0.500000000               0.500000000               0.000000000               0.084374307               0.102810390               0.000000000               0.106444663               0.127634741               0.000000000               0.128515018               0.152459092               0.000000000               0.150585374               0.177283442               0.000000000               0.172655730               0.202107793               0.000000000               0.194726086               0.226932143               0.000000000               0.216796442               0.251756494               0.000000000               0.238866798               0.276580845               0.000000000               0.260937153               0.301405195               0.000000000               0.283007509               0.326229546               0.000000000               0.305077865               0.351053896               0.000000000               0.327148221               0.375878247               0.000000000               0.349218577               0.400702598               0.000000000               0.371288933               0.425526948               0.000000000               0.393359288               0.450351299               0.000000000               0.415429644               0.475175649               0.000000000               0.437500000               0.500000000               0.000000000               0.073890841               0.110585458               0.000000000               0.092710163               0.134923867               0.000000000               0.111529486               0.159262276               0.000000000               0.130348808               0.183600685               0.000000000               0.149168131               0.207939094               0.000000000               0.167987453               0.232277503               0.000000000               0.186806776               0.256615912               0.000000000               0.205626098               0.280954320               0.000000000               0.224445420               0.305292729               0.000000000               0.243264743               0.329631138               0.000000000               0.262084065               0.353969547               0.000000000               0.280903388               0.378307956               0.000000000               0.299722710               0.402646365               0.000000000               0.318542033               0.426984773               0.000000000               0.337361355               0.451323182               0.000000000               0.356180678               0.475661591               0.000000000               0.375000000               0.500000000               0.000000000               0.062695766               0.117295528               0.000000000               0.078308531               0.141214558               0.000000000               0.093921295               0.165133587               0.000000000               0.109534060               0.189052617               0.000000000               0.125146824               0.212971646               0.000000000               0.140759589               0.236890676               0.000000000               0.156372354               0.260809705               0.000000000               0.171985118               0.284728735               0.000000000               0.187597883               0.308647764               0.000000000               0.203210648               0.332566794               0.000000000               0.218823412               0.356485823               0.000000000               0.234436177               0.380404853               0.000000000               0.250048941               0.404323882               0.000000000               0.265661706               0.428242912               0.000000000               0.281274471               0.452161941               0.000000000               0.296887235               0.476080971               0.000000000               0.312500000               0.500000000               0.000000000               0.050896897               0.122875978               0.000000000               0.063340840               0.146446229               0.000000000               0.075784784               0.170016481               0.000000000               0.088228728               0.193586732               0.000000000               0.100672672               0.217156983               0.000000000               0.113116616               0.240727235               0.000000000               0.125560560               0.264297486               0.000000000               0.138004504               0.287867738               0.000000000               0.150448448               0.311437989               0.000000000               0.162892392               0.335008240               0.000000000               0.175336336               0.358578492               0.000000000               0.187780280               0.382148743               0.000000000               0.200224224               0.405718994               0.000000000               0.212668168               0.429289246               0.000000000               0.225112112               0.452859497               0.000000000               0.237556056               0.476429749               0.000000000               0.250000000               0.500000000               0.000000000               0.038607862               0.127273065               0.000000000               0.047913621               0.150568498               0.000000000               0.057219379               0.173863932               0.000000000               0.066525138               0.197159365               0.000000000               0.075830897               0.220454798               0.000000000               0.085136655               0.243750232               0.000000000               0.094442414               0.267045665               0.000000000               0.103748172               0.290341099               0.000000000               0.113053931               0.313636532               0.000000000               0.122359690               0.336931966               0.000000000               0.131665448               0.360227399               0.000000000               0.140971207               0.383522833               0.000000000               0.150276966               0.406818266               0.000000000               0.159582724               0.430113700               0.000000000               0.168888483               0.453409133               0.000000000               0.178194241               0.476704567               0.000000000               0.187500000               0.500000000               0.000000000               0.025947013               0.130444442               0.000000000               0.032137825               0.153541665               0.000000000               0.038328636               0.176638887               0.000000000               0.044519448               0.199736109               0.000000000               0.050710260               0.222833332               0.000000000               0.056901071               0.245930554               0.000000000               0.063091883               0.269027776               0.000000000               0.069282695               0.292124999               0.000000000               0.075473506               0.315222221               0.000000000               0.081664318               0.338319444               0.000000000               0.087855130               0.361416666               0.000000000               0.094045942               0.384513888               0.000000000               0.100236753               0.407611111               0.000000000               0.106427565               0.430708333               0.000000000               0.112618377               0.453805555               0.000000000               0.118809188               0.476902778               0.000000000               0.125000000               0.500000000               0.000000000               0.013036280               0.132359569               0.000000000               0.016127762               0.155337096               0.000000000               0.019219245               0.178314623               0.000000000               0.022310727               0.201292150               0.000000000               0.025402210               0.224269676               0.000000000               0.028493692               0.247247203               0.000000000               0.031585175               0.270224730               0.000000000               0.034676657               0.293202257               0.000000000               0.037768140               0.316179784               0.000000000               0.040859622               0.339157311               0.000000000               0.043951105               0.362134838               0.000000000               0.047042587               0.385112365               0.000000000               0.050134070               0.408089892               0.000000000               0.053225552               0.431067419               0.000000000               0.056317035               0.454044946               0.000000000               0.059408517               0.477022473               0.000000000               0.062500000               0.500000000               0.000000000               0.000000000               0.133000000               0.000000000               0.000000000               0.155937500               0.000000000               0.000000000               0.178875000               0.000000000               0.000000000               0.201812500               0.000000000               0.000000000               0.224750000               0.000000000               0.000000000               0.247687500               0.000000000               0.000000000               0.270625000               0.000000000               0.000000000               0.293562500               0.000000000               0.000000000               0.316500000               0.000000000               0.000000000               0.339437500               0.000000000               0.000000000               0.362375000               0.000000000               0.000000000               0.385312500               0.000000000               0.000000000               0.408250000               0.000000000               0.000000000               0.431187500               0.000000000               0.000000000               0.454125000               0.000000000               0.000000000               0.477062500               0.000000000               0.000000000               0.500000000               0.000000000               0.133000000               0.000000000               0.000000000               0.155937500               0.000000000               0.000000000               0.178875000               0.000000000               0.000000000               0.201812500               0.000000000               0.000000000               0.224750000               0.000000000               0.000000000               0.247687500               0.000000000               0.000000000               0.270625000               0.000000000               0.000000000               0.293562500               0.000000000               0.000000000               0.316500000               0.000000000               0.000000000               0.339437500               0.000000000               0.000000000               0.362375000               0.000000000               0.000000000               0.385312500               0.000000000               0.000000000               0.408250000               0.000000000               0.000000000               0.431187500               0.000000000               0.000000000               0.454125000               0.000000000               0.000000000               0.477062500               0.000000000               0.000000000               0.500000000               0.000000000               0.000000000               0.132359569              -0.013036280               0.000000000               0.155337096              -0.016127762               0.000000000               0.178314623              -0.019219245               0.000000000               0.201292150              -0.022310727               0.000000000               0.224269676              -0.025402210               0.000000000               0.247247203              -0.028493692               0.000000000               0.270224730              -0.031585175               0.000000000               0.293202257              -0.034676657               0.000000000               0.316179784              -0.037768140               0.000000000               0.339157311              -0.040859622               0.000000000               0.362134838              -0.043951105               0.000000000               0.385112365              -0.047042587               0.000000000               0.408089892              -0.050134070               0.000000000               0.431067419              -0.053225552               0.000000000               0.454044946              -0.056317035               0.000000000               0.477022473              -0.059408517               0.000000000               0.500000000              -0.062500000               0.000000000               0.130444442              -0.025947013               0.000000000               0.153541665              -0.032137825               0.000000000               0.176638887              -0.038328636               0.000000000               0.199736109              -0.044519448               0.000000000               0.222833332              -0.050710260               0.000000000               0.245930554              -0.056901071               0.000000000               0.269027776              -0.063091883               0.000000000               0.292124999              -0.069282695               0.000000000               0.315222221              -0.075473506               0.000000000               0.338319444              -0.081664318               0.000000000               0.361416666              -0.087855130               0.000000000               0.384513888              -0.094045942               0.000000000               0.407611111              -0.100236753               0.000000000               0.430708333              -0.106427565               0.000000000               0.453805555              -0.112618377               0.000000000               0.476902778              -0.118809188               0.000000000               0.500000000              -0.125000000               0.000000000               0.127273065              -0.038607862               0.000000000               0.150568498              -0.047913621               0.000000000               0.173863932              -0.057219379               0.000000000               0.197159365              -0.066525138               0.000000000               0.220454798              -0.075830897               0.000000000               0.243750232              -0.085136655               0.000000000               0.267045665              -0.094442414               0.000000000               0.290341099              -0.103748172               0.000000000               0.313636532              -0.113053931               0.000000000               0.336931966              -0.122359690               0.000000000               0.360227399              -0.131665448               0.000000000               0.383522833              -0.140971207               0.000000000               0.406818266              -0.150276966               0.000000000               0.430113700              -0.159582724               0.000000000               0.453409133              -0.168888483               0.000000000               0.476704567              -0.178194241               0.000000000               0.500000000              -0.187500000               0.000000000               0.122875978              -0.050896897               0.000000000               0.146446229              -0.063340840               0.000000000               0.170016481              -0.075784784               0.000000000               0.193586732              -0.088228728               0.000000000               0.217156983              -0.100672672               0.000000000               0.240727235              -0.113116616               0.000000000               0.264297486              -0.125560560               0.000000000               0.287867738              -0.138004504               0.000000000               0.311437989              -0.150448448               0.000000000               0.335008240              -0.162892392               0.000000000               0.358578492              -0.175336336               0.000000000               0.382148743              -0.187780280               0.000000000               0.405718994              -0.200224224               0.000000000               0.429289246              -0.212668168               0.000000000               0.452859497              -0.225112112               0.000000000               0.476429749              -0.237556056               0.000000000               0.500000000              -0.250000000               0.000000000               0.117295528              -0.062695766               0.000000000               0.141214558              -0.078308531               0.000000000               0.165133587              -0.093921295               0.000000000               0.189052617              -0.109534060               0.000000000               0.212971646              -0.125146824               0.000000000               0.236890676              -0.140759589               0.000000000               0.260809705              -0.156372354               0.000000000               0.284728735              -0.171985118               0.000000000               0.308647764              -0.187597883               0.000000000               0.332566794              -0.203210648               0.000000000               0.356485823              -0.218823412               0.000000000               0.380404853              -0.234436177               0.000000000               0.404323882              -0.250048941               0.000000000               0.428242912              -0.265661706               0.000000000               0.452161941              -0.281274471               0.000000000               0.476080971              -0.296887235               0.000000000               0.500000000              -0.312500000               0.000000000               0.110585458              -0.073890841               0.000000000               0.134923867              -0.092710163               0.000000000               0.159262276              -0.111529486               0.000000000               0.183600685              -0.130348808               0.000000000               0.207939094              -0.149168131               0.000000000               0.232277503              -0.167987453               0.000000000               0.256615912              -0.186806776               0.000000000               0.280954320              -0.205626098               0.000000000               0.305292729              -0.224445420               0.000000000               0.329631138              -0.243264743               0.000000000               0.353969547              -0.262084065               0.000000000               0.378307956              -0.280903388               0.000000000               0.402646365              -0.299722710               0.000000000               0.426984773              -0.318542033               0.000000000               0.451323182              -0.337361355               0.000000000               0.475661591              -0.356180678               0.000000000               0.500000000              -0.375000000               0.000000000               0.102810390              -0.084374307               0.000000000               0.127634741              -0.106444663               0.000000000               0.152459092              -0.128515018               0.000000000               0.177283442              -0.150585374               0.000000000               0.202107793              -0.172655730               0.000000000               0.226932143              -0.194726086               0.000000000               0.251756494              -0.216796442               0.000000000               0.276580845              -0.238866798               0.000000000               0.301405195              -0.260937153               0.000000000               0.326229546              -0.283007509               0.000000000               0.351053896              -0.305077865               0.000000000               0.375878247              -0.327148221               0.000000000               0.400702598              -0.349218577               0.000000000               0.425526948              -0.371288933               0.000000000               0.450351299              -0.393359288               0.000000000               0.475175649              -0.415429644               0.000000000               0.500000000              -0.437500000               0.000000000               0.094045202              -0.094045202               0.000000000               0.119417377              -0.119417377               0.000000000               0.144789552              -0.144789552               0.000000000               0.170161727              -0.170161727               0.000000000               0.195533901              -0.195533901               0.000000000               0.220906076              -0.220906076               0.000000000               0.246278251              -0.246278251               0.000000000               0.271650426              -0.271650426               0.000000000               0.297022601              -0.297022601               0.000000000               0.322394776              -0.322394776               0.000000000               0.347766951              -0.347766951               0.000000000               0.373139126              -0.373139126               0.000000000               0.398511300              -0.398511300               0.000000000               0.423883475              -0.423883475               0.000000000               0.449255650              -0.449255650               0.000000000               0.474627825              -0.474627825               0.000000000               0.500000000              -0.500000000               0.000000000               0.084374307              -0.102810390               0.000000000               0.106444663              -0.127634741               0.000000000               0.128515018              -0.152459092               0.000000000               0.150585374              -0.177283442               0.000000000               0.172655730              -0.202107793               0.000000000               0.194726086              -0.226932143               0.000000000               0.216796442              -0.251756494               0.000000000               0.238866798              -0.276580845               0.000000000               0.260937153              -0.301405195               0.000000000               0.283007509              -0.326229546               0.000000000               0.305077865              -0.351053896               0.000000000               0.327148221              -0.375878247               0.000000000               0.349218577              -0.400702598               0.000000000               0.371288933              -0.425526948               0.000000000               0.393359288              -0.450351299               0.000000000               0.415429644              -0.475175649               0.000000000               0.437500000              -0.500000000               0.000000000               0.073890841              -0.110585458               0.000000000               0.092710163              -0.134923867               0.000000000               0.111529486              -0.159262276               0.000000000               0.130348808              -0.183600685               0.000000000               0.149168131              -0.207939094               0.000000000               0.167987453              -0.232277503               0.000000000               0.186806776              -0.256615912               0.000000000               0.205626098              -0.280954320               0.000000000               0.224445420              -0.305292729               0.000000000               0.243264743              -0.329631138               0.000000000               0.262084065              -0.353969547               0.000000000               0.280903388              -0.378307956               0.000000000               0.299722710              -0.402646365               0.000000000               0.318542033              -0.426984773               0.000000000               0.337361355              -0.451323182               0.000000000               0.356180678              -0.475661591               0.000000000               0.375000000              -0.500000000               0.000000000               0.062695766              -0.117295528               0.000000000               0.078308531              -0.141214558               0.000000000               0.093921295              -0.165133587               0.000000000               0.109534060              -0.189052617               0.000000000               0.125146824              -0.212971646               0.000000000               0.140759589              -0.236890676               0.000000000               0.156372354              -0.260809705               0.000000000               0.171985118              -0.284728735               0.000000000               0.187597883              -0.308647764               0.000000000               0.203210648              -0.332566794               0.000000000               0.218823412              -0.356485823               0.000000000               0.234436177              -0.380404853               0.000000000               0.250048941              -0.404323882               0.000000000               0.265661706              -0.428242912               0.000000000               0.281274471              -0.452161941               0.000000000               0.296887235              -0.476080971               0.000000000               0.312500000              -0.500000000               0.000000000               0.050896897              -0.122875978               0.000000000               0.063340840              -0.146446229               0.000000000               0.075784784              -0.170016481               0.000000000               0.088228728              -0.193586732               0.000000000               0.100672672              -0.217156983               0.000000000               0.113116616              -0.240727235               0.000000000               0.125560560              -0.264297486               0.000000000               0.138004504              -0.287867738               0.000000000               0.150448448              -0.311437989               0.000000000               0.162892392              -0.335008240               0.000000000               0.175336336              -0.358578492               0.000000000               0.187780280              -0.382148743               0.000000000               0.200224224              -0.405718994               0.000000000               0.212668168              -0.429289246               0.000000000               0.225112112              -0.452859497               0.000000000               0.237556056              -0.476429749               0.000000000               0.250000000              -0.500000000               0.000000000               0.038607862              -0.127273065               0.000000000               0.047913621              -0.150568498               0.000000000               0.057219379              -0.173863932               0.000000000               0.066525138              -0.197159365               0.000000000               0.075830897              -0.220454798               0.000000000               0.085136655              -0.243750232               0.000000000               0.094442414              -0.267045665               0.000000000               0.103748172              -0.290341099               0.000000000               0.113053931              -0.313636532               0.000000000               0.122359690              -0.336931966               0.000000000               0.131665448              -0.360227399               0.000000000               0.140971207              -0.383522833               0.000000000               0.150276966              -0.406818266               0.000000000               0.159582724              -0.430113700               0.000000000               0.168888483              -0.453409133               0.000000000               0.178194241              -0.476704567               0.000000000               0.187500000              -0.500000000               0.000000000               0.025947013              -0.130444442               0.000000000               0.032137825              -0.153541665               0.000000000               0.038328636              -0.176638887               0.000000000               0.044519448              -0.199736109               0.000000000               0.050710260              -0.222833332               0.000000000               0.056901071              -0.245930554               0.000000000               0.063091883              -0.269027776               0.000000000               0.069282695              -0.292124999               0.000000000               0.075473506              -0.315222221               0.000000000               0.081664318              -0.338319444               0.000000000               0.087855130              -0.361416666               0.000000000               0.094045942              -0.384513888               0.000000000               0.100236753              -0.407611111               0.000000000               0.106427565              -0.430708333               0.000000000               0.112618377              -0.453805555               0.000000000               0.118809188              -0.476902778               0.000000000               0.125000000              -0.500000000               0.000000000               0.013036280              -0.132359569               0.000000000               0.016127762              -0.155337096               0.000000000               0.019219245              -0.178314623               0.000000000               0.022310727              -0.201292150               0.000000000               0.025402210              -0.224269676               0.000000000               0.028493692              -0.247247203               0.000000000               0.031585175              -0.270224730               0.000000000               0.034676657              -0.293202257               0.000000000               0.037768140              -0.316179784               0.000000000               0.040859622              -0.339157311               0.000000000               0.043951105              -0.362134838               0.000000000               0.047042587              -0.385112365               0.000000000               0.050134070              -0.408089892               0.000000000               0.053225552              -0.431067419               0.000000000               0.056317035              -0.454044946               0.000000000               0.059408517              -0.477022473               0.000000000               0.062500000              -0.500000000               0.000000000               0.000000000              -0.133000000               0.000000000               0.000000000              -0.155937500               0.000000000               0.000000000              -0.178875000               0.000000000               0.000000000              -0.201812500               0.000000000               0.000000000              -0.224750000               0.000000000               0.000000000              -0.247687500               0.000000000               0.000000000              -0.270625000               0.000000000               0.000000000              -0.293562500               0.000000000               0.000000000              -0.316500000               0.000000000               0.000000000              -0.339437500               0.000000000               0.000000000              -0.362375000               0.000000000               0.000000000              -0.385312500               0.000000000               0.000000000              -0.408250000               0.000000000               0.000000000              -0.431187500               0.000000000               0.000000000              -0.454125000               0.000000000               0.000000000              -0.477062500               0.000000000               0.000000000              -0.500000000               0.000000000              -0.133000000               0.000000000               0.000000000              -0.155937500               0.000000000               0.000000000              -0.178875000               0.000000000               0.000000000              -0.201812500               0.000000000               0.000000000              -0.224750000               0.000000000               0.000000000              -0.247687500               0.000000000               0.000000000              -0.270625000               0.000000000               0.000000000              -0.293562500               0.000000000               0.000000000              -0.316500000               0.000000000               0.000000000              -0.339437500               0.000000000               0.000000000              -0.362375000               0.000000000               0.000000000              -0.385312500               0.000000000               0.000000000              -0.408250000               0.000000000               0.000000000              -0.431187500               0.000000000               0.000000000              -0.454125000               0.000000000               0.000000000              -0.477062500               0.000000000               0.000000000              -0.500000000               0.000000000               0.000000000              -0.132359569              -0.013036280               0.000000000              -0.155337096              -0.016127762               0.000000000              -0.178314623              -0.019219245               0.000000000              -0.201292150              -0.022310727               0.000000000              -0.224269676              -0.025402210               0.000000000              -0.247247203              -0.028493692               0.000000000              -0.270224730              -0.031585175               0.000000000              -0.293202257              -0.034676657               0.000000000              -0.316179784              -0.037768140               0.000000000              -0.339157311              -0.040859622               0.000000000              -0.362134838              -0.043951105               0.000000000              -0.385112365              -0.047042587               0.000000000              -0.408089892              -0.050134070               0.000000000              -0.431067419              -0.053225552               0.000000000              -0.454044946              -0.056317035               0.000000000              -0.477022473              -0.059408517               0.000000000              -0.500000000              -0.062500000               0.000000000              -0.130444442              -0.025947013               0.000000000              -0.153541665              -0.032137825               0.000000000              -0.176638887              -0.038328636               0.000000000              -0.199736109              -0.044519448               0.000000000              -0.222833332              -0.050710260               0.000000000              -0.245930554              -0.056901071               0.000000000              -0.269027776              -0.063091883               0.000000000              -0.292124999              -0.069282695               0.000000000              -0.315222221              -0.075473506               0.000000000              -0.338319444              -0.081664318               0.000000000              -0.361416666              -0.087855130               0.000000000              -0.384513888              -0.094045942               0.000000000              -0.407611111              -0.100236753               0.000000000              -0.430708333              -0.106427565               0.000000000              -0.453805555              -0.112618377               0.000000000              -0.476902778              -0.118809188               0.000000000              -0.500000000              -0.125000000               0.000000000              -0.127273065              -0.038607862               0.000000000              -0.150568498              -0.047913621               0.000000000              -0.173863932              -0.057219379               0.000000000              -0.197159365              -0.066525138               0.000000000              -0.220454798              -0.075830897               0.000000000              -0.243750232              -0.085136655               0.000000000              -0.267045665              -0.094442414               0.000000000              -0.290341099              -0.103748172               0.000000000              -0.313636532              -0.113053931               0.000000000              -0.336931966              -0.122359690               0.000000000              -0.360227399              -0.131665448               0.000000000              -0.383522833              -0.140971207               0.000000000              -0.406818266              -0.150276966               0.000000000              -0.430113700              -0.159582724               0.000000000              -0.453409133              -0.168888483               0.000000000              -0.476704567              -0.178194241               0.000000000              -0.500000000              -0.187500000               0.000000000              -0.122875978              -0.050896897               0.000000000              -0.146446229              -0.063340840               0.000000000              -0.170016481              -0.075784784               0.000000000              -0.193586732              -0.088228728               0.000000000              -0.217156983              -0.100672672               0.000000000              -0.240727235              -0.113116616               0.000000000              -0.264297486              -0.125560560               0.000000000              -0.287867738              -0.138004504               0.000000000              -0.311437989              -0.150448448               0.000000000              -0.335008240              -0.162892392               0.000000000              -0.358578492              -0.175336336               0.000000000              -0.382148743              -0.187780280               0.000000000              -0.405718994              -0.200224224               0.000000000              -0.429289246              -0.212668168               0.000000000              -0.452859497              -0.225112112               0.000000000              -0.476429749              -0.237556056               0.000000000              -0.500000000              -0.250000000               0.000000000              -0.117295528              -0.062695766               0.000000000              -0.141214558              -0.078308531               0.000000000              -0.165133587              -0.093921295               0.000000000              -0.189052617              -0.109534060               0.000000000              -0.212971646              -0.125146824               0.000000000              -0.236890676              -0.140759589               0.000000000              -0.260809705              -0.156372354               0.000000000              -0.284728735              -0.171985118               0.000000000              -0.308647764              -0.187597883               0.000000000              -0.332566794              -0.203210648               0.000000000              -0.356485823              -0.218823412               0.000000000              -0.380404853              -0.234436177               0.000000000              -0.404323882              -0.250048941               0.000000000              -0.428242912              -0.265661706               0.000000000              -0.452161941              -0.281274471               0.000000000              -0.476080971              -0.296887235               0.000000000              -0.500000000              -0.312500000               0.000000000              -0.110585458              -0.073890841               0.000000000              -0.134923867              -0.092710163               0.000000000              -0.159262276              -0.111529486               0.000000000              -0.183600685              -0.130348808               0.000000000              -0.207939094              -0.149168131               0.000000000              -0.232277503              -0.167987453               0.000000000              -0.256615912              -0.186806776               0.000000000              -0.280954320              -0.205626098               0.000000000              -0.305292729              -0.224445420               0.000000000              -0.329631138              -0.243264743               0.000000000              -0.353969547              -0.262084065               0.000000000              -0.378307956              -0.280903388               0.000000000              -0.402646365              -0.299722710               0.000000000              -0.426984773              -0.318542033               0.000000000              -0.451323182              -0.337361355               0.000000000              -0.475661591              -0.356180678               0.000000000              -0.500000000              -0.375000000               0.000000000              -0.102810390              -0.084374307               0.000000000              -0.127634741              -0.106444663               0.000000000              -0.152459092              -0.128515018               0.000000000              -0.177283442              -0.150585374               0.000000000              -0.202107793              -0.172655730               0.000000000              -0.226932143              -0.194726086               0.000000000              -0.251756494              -0.216796442               0.000000000              -0.276580845              -0.238866798               0.000000000              -0.301405195              -0.260937153               0.000000000              -0.326229546              -0.283007509               0.000000000              -0.351053896              -0.305077865               0.000000000              -0.375878247              -0.327148221               0.000000000              -0.400702598              -0.349218577               0.000000000              -0.425526948              -0.371288933               0.000000000              -0.450351299              -0.393359288               0.000000000              -0.475175649              -0.415429644               0.000000000              -0.500000000              -0.437500000               0.000000000              -0.094045202              -0.094045202               0.000000000              -0.119417377              -0.119417377               0.000000000              -0.144789552              -0.144789552               0.000000000              -0.170161727              -0.170161727               0.000000000              -0.195533901              -0.195533901               0.000000000              -0.220906076              -0.220906076               0.000000000              -0.246278251              -0.246278251               0.000000000              -0.271650426              -0.271650426               0.000000000              -0.297022601              -0.297022601               0.000000000              -0.322394776              -0.322394776               0.000000000              -0.347766951              -0.347766951               0.000000000              -0.373139126              -0.373139126               0.000000000              -0.398511300              -0.398511300               0.000000000              -0.423883475              -0.423883475               0.000000000              -0.449255650              -0.449255650               0.000000000              -0.474627825              -0.474627825               0.000000000              -0.500000000              -0.500000000               0.000000000              -0.084374307              -0.102810390               0.000000000              -0.106444663              -0.127634741               0.000000000              -0.128515018              -0.152459092               0.000000000              -0.150585374              -0.177283442               0.000000000              -0.172655730              -0.202107793               0.000000000              -0.194726086              -0.226932143               0.000000000              -0.216796442              -0.251756494               0.000000000              -0.238866798              -0.276580845               0.000000000              -0.260937153              -0.301405195               0.000000000              -0.283007509              -0.326229546               0.000000000              -0.305077865              -0.351053896               0.000000000              -0.327148221              -0.375878247               0.000000000              -0.349218577              -0.400702598               0.000000000              -0.371288933              -0.425526948               0.000000000              -0.393359288              -0.450351299               0.000000000              -0.415429644              -0.475175649               0.000000000              -0.437500000              -0.500000000               0.000000000              -0.073890841              -0.110585458               0.000000000              -0.092710163              -0.134923867               0.000000000              -0.111529486              -0.159262276               0.000000000              -0.130348808              -0.183600685               0.000000000              -0.149168131              -0.207939094               0.000000000              -0.167987453              -0.232277503               0.000000000              -0.186806776              -0.256615912               0.000000000              -0.205626098              -0.280954320               0.000000000              -0.224445420              -0.305292729               0.000000000              -0.243264743              -0.329631138               0.000000000              -0.262084065              -0.353969547               0.000000000              -0.280903388              -0.378307956               0.000000000              -0.299722710              -0.402646365               0.000000000              -0.318542033              -0.426984773               0.000000000              -0.337361355              -0.451323182               0.000000000              -0.356180678              -0.475661591               0.000000000              -0.375000000              -0.500000000               0.000000000              -0.062695766              -0.117295528               0.000000000              -0.078308531              -0.141214558               0.000000000              -0.093921295              -0.165133587               0.000000000              -0.109534060              -0.189052617               0.000000000              -0.125146824              -0.212971646               0.000000000              -0.140759589              -0.236890676               0.000000000              -0.156372354              -0.260809705               0.000000000              -0.171985118              -0.284728735               0.000000000              -0.187597883              -0.308647764               0.000000000              -0.203210648              -0.332566794               0.000000000              -0.218823412              -0.356485823               0.000000000              -0.234436177              -0.380404853               0.000000000              -0.250048941              -0.404323882               0.000000000              -0.265661706              -0.428242912               0.000000000              -0.281274471              -0.452161941               0.000000000              -0.296887235              -0.476080971               0.000000000              -0.312500000              -0.500000000               0.000000000              -0.050896897              -0.122875978               0.000000000              -0.063340840              -0.146446229               0.000000000              -0.075784784              -0.170016481               0.000000000              -0.088228728              -0.193586732               0.000000000              -0.100672672              -0.217156983               0.000000000              -0.113116616              -0.240727235               0.000000000              -0.125560560              -0.264297486               0.000000000              -0.138004504              -0.287867738               0.000000000              -0.150448448              -0.311437989               0.000000000              -0.162892392              -0.335008240               0.000000000              -0.175336336              -0.358578492               0.000000000              -0.187780280              -0.382148743               0.000000000              -0.200224224              -0.405718994               0.000000000              -0.212668168              -0.429289246               0.000000000              -0.225112112              -0.452859497               0.000000000              -0.237556056              -0.476429749               0.000000000              -0.250000000              -0.500000000               0.000000000              -0.038607862              -0.127273065               0.000000000              -0.047913621              -0.150568498               0.000000000              -0.057219379              -0.173863932               0.000000000              -0.066525138              -0.197159365               0.000000000              -0.075830897              -0.220454798               0.000000000              -0.085136655              -0.243750232               0.000000000              -0.094442414              -0.267045665               0.000000000              -0.103748172              -0.290341099               0.000000000              -0.113053931              -0.313636532               0.000000000              -0.122359690              -0.336931966               0.000000000              -0.131665448              -0.360227399               0.000000000              -0.140971207              -0.383522833               0.000000000              -0.150276966              -0.406818266               0.000000000              -0.159582724              -0.430113700               0.000000000              -0.168888483              -0.453409133               0.000000000              -0.178194241              -0.476704567               0.000000000              -0.187500000              -0.500000000               0.000000000              -0.025947013              -0.130444442               0.000000000              -0.032137825              -0.153541665               0.000000000              -0.038328636              -0.176638887               0.000000000              -0.044519448              -0.199736109               0.000000000              -0.050710260              -0.222833332               0.000000000              -0.056901071              -0.245930554               0.000000000              -0.063091883              -0.269027776               0.000000000              -0.069282695              -0.292124999               0.000000000              -0.075473506              -0.315222221               0.000000000              -0.081664318              -0.338319444               0.000000000              -0.087855130              -0.361416666               0.000000000              -0.094045942              -0.384513888               0.000000000              -0.100236753              -0.407611111               0.000000000              -0.106427565              -0.430708333               0.000000000              -0.112618377              -0.453805555               0.000000000              -0.118809188              -0.476902778               0.000000000              -0.125000000              -0.500000000               0.000000000              -0.013036280              -0.132359569               0.000000000              -0.016127762              -0.155337096               0.000000000              -0.019219245              -0.178314623               0.000000000              -0.022310727              -0.201292150               0.000000000              -0.025402210              -0.224269676               0.000000000              -0.028493692              -0.247247203               0.000000000              -0.031585175              -0.270224730               0.000000000              -0.034676657              -0.293202257               0.000000000              -0.037768140              -0.316179784               0.000000000              -0.040859622              -0.339157311               0.000000000              -0.043951105              -0.362134838               0.000000000              -0.047042587              -0.385112365               0.000000000              -0.050134070              -0.408089892               0.000000000              -0.053225552              -0.431067419               0.000000000              -0.056317035              -0.454044946               0.000000000              -0.059408517              -0.477022473               0.000000000              -0.062500000              -0.500000000               0.000000000               0.000000000              -0.133000000               0.000000000               0.000000000              -0.155937500               0.000000000               0.000000000              -0.178875000               0.000000000               0.000000000              -0.201812500               0.000000000               0.000000000              -0.224750000               0.000000000               0.000000000              -0.247687500               0.000000000               0.000000000              -0.270625000               0.000000000               0.000000000              -0.293562500               0.000000000               0.000000000              -0.316500000               0.000000000               0.000000000              -0.339437500               0.000000000               0.000000000              -0.362375000               0.000000000               0.000000000              -0.385312500               0.000000000               0.000000000              -0.408250000               0.000000000               0.000000000              -0.431187500               0.000000000               0.000000000              -0.454125000               0.000000000               0.000000000              -0.477062500               0.000000000               0.000000000              -0.500000000               0.000000000              -0.133000000               0.000000000               0.000000000              -0.155937500               0.000000000               0.000000000              -0.178875000               0.000000000               0.000000000              -0.201812500               0.000000000               0.000000000              -0.224750000               0.000000000               0.000000000              -0.247687500               0.000000000               0.000000000              -0.270625000               0.000000000               0.000000000              -0.293562500               0.000000000               0.000000000              -0.316500000               0.000000000               0.000000000              -0.339437500               0.000000000               0.000000000              -0.362375000               0.000000000               0.000000000              -0.385312500               0.000000000               0.000000000              -0.408250000               0.000000000               0.000000000              -0.431187500               0.000000000               0.000000000              -0.454125000               0.000000000               0.000000000              -0.477062500               0.000000000               0.000000000              -0.500000000               0.000000000               0.000000000              -0.132359569               0.013036280               0.000000000              -0.155337096               0.016127762               0.000000000              -0.178314623               0.019219245               0.000000000              -0.201292150               0.022310727               0.000000000              -0.224269676               0.025402210               0.000000000              -0.247247203               0.028493692               0.000000000              -0.270224730               0.031585175               0.000000000              -0.293202257               0.034676657               0.000000000              -0.316179784               0.037768140               0.000000000              -0.339157311               0.040859622               0.000000000              -0.362134838               0.043951105               0.000000000              -0.385112365               0.047042587               0.000000000              -0.408089892               0.050134070               0.000000000              -0.431067419               0.053225552               0.000000000              -0.454044946               0.056317035               0.000000000              -0.477022473               0.059408517               0.000000000              -0.500000000               0.062500000               0.000000000              -0.130444442               0.025947013               0.000000000              -0.153541665               0.032137825               0.000000000              -0.176638887               0.038328636               0.000000000              -0.199736109               0.044519448               0.000000000              -0.222833332               0.050710260               0.000000000              -0.245930554               0.056901071               0.000000000              -0.269027776               0.063091883               0.000000000              -0.292124999               0.069282695               0.000000000              -0.315222221               0.075473506               0.000000000              -0.338319444               0.081664318               0.000000000              -0.361416666               0.087855130               0.000000000              -0.384513888               0.094045942               0.000000000              -0.407611111               0.100236753               0.000000000              -0.430708333               0.106427565               0.000000000              -0.453805555               0.112618377               0.000000000              -0.476902778               0.118809188               0.000000000              -0.500000000               0.125000000               0.000000000              -0.127273065               0.038607862               0.000000000              -0.150568498               0.047913621               0.000000000              -0.173863932               0.057219379               0.000000000              -0.197159365               0.066525138               0.000000000              -0.220454798               0.075830897               0.000000000              -0.243750232               0.085136655               0.000000000              -0.267045665               0.094442414               0.000000000              -0.290341099               0.103748172               0.000000000              -0.313636532               0.113053931               0.000000000              -0.336931966               0.122359690               0.000000000              -0.360227399               0.131665448               0.000000000              -0.383522833               0.140971207               0.000000000              -0.406818266               0.150276966               0.000000000              -0.430113700               0.159582724               0.000000000              -0.453409133               0.168888483               0.000000000              -0.476704567               0.178194241               0.000000000              -0.500000000               0.187500000               0.000000000              -0.122875978               0.050896897               0.000000000              -0.146446229               0.063340840               0.000000000              -0.170016481               0.075784784               0.000000000              -0.193586732               0.088228728               0.000000000              -0.217156983               0.100672672               0.000000000              -0.240727235               0.113116616               0.000000000              -0.264297486               0.125560560               0.000000000              -0.287867738               0.138004504               0.000000000              -0.311437989               0.150448448               0.000000000              -0.335008240               0.162892392               0.000000000              -0.358578492               0.175336336               0.000000000              -0.382148743               0.187780280               0.000000000              -0.405718994               0.200224224               0.000000000              -0.429289246               0.212668168               0.000000000              -0.452859497               0.225112112               0.000000000              -0.476429749               0.237556056               0.000000000              -0.500000000               0.250000000               0.000000000              -0.117295528               0.062695766               0.000000000              -0.141214558               0.078308531               0.000000000              -0.165133587               0.093921295               0.000000000              -0.189052617               0.109534060               0.000000000              -0.212971646               0.125146824               0.000000000              -0.236890676               0.140759589               0.000000000              -0.260809705               0.156372354               0.000000000              -0.284728735               0.171985118               0.000000000              -0.308647764               0.187597883               0.000000000              -0.332566794               0.203210648               0.000000000              -0.356485823               0.218823412               0.000000000              -0.380404853               0.234436177               0.000000000              -0.404323882               0.250048941               0.000000000              -0.428242912               0.265661706               0.000000000              -0.452161941               0.281274471               0.000000000              -0.476080971               0.296887235               0.000000000              -0.500000000               0.312500000               0.000000000              -0.110585458               0.073890841               0.000000000              -0.134923867               0.092710163               0.000000000              -0.159262276               0.111529486               0.000000000              -0.183600685               0.130348808               0.000000000              -0.207939094               0.149168131               0.000000000              -0.232277503               0.167987453               0.000000000              -0.256615912               0.186806776               0.000000000              -0.280954320               0.205626098               0.000000000              -0.305292729               0.224445420               0.000000000              -0.329631138               0.243264743               0.000000000              -0.353969547               0.262084065               0.000000000              -0.378307956               0.280903388               0.000000000              -0.402646365               0.299722710               0.000000000              -0.426984773               0.318542033               0.000000000              -0.451323182               0.337361355               0.000000000              -0.475661591               0.356180678               0.000000000              -0.500000000               0.375000000               0.000000000              -0.102810390               0.084374307               0.000000000              -0.127634741               0.106444663               0.000000000              -0.152459092               0.128515018               0.000000000              -0.177283442               0.150585374               0.000000000              -0.202107793               0.172655730               0.000000000              -0.226932143               0.194726086               0.000000000              -0.251756494               0.216796442               0.000000000              -0.276580845               0.238866798               0.000000000              -0.301405195               0.260937153               0.000000000              -0.326229546               0.283007509               0.000000000              -0.351053896               0.305077865               0.000000000              -0.375878247               0.327148221               0.000000000              -0.400702598               0.349218577               0.000000000              -0.425526948               0.371288933               0.000000000              -0.450351299               0.393359288               0.000000000              -0.475175649               0.415429644               0.000000000              -0.500000000               0.437500000               0.000000000              -0.094045202               0.094045202               0.000000000              -0.119417377               0.119417377               0.000000000              -0.144789552               0.144789552               0.000000000              -0.170161727               0.170161727               0.000000000              -0.195533901               0.195533901               0.000000000              -0.220906076               0.220906076               0.000000000              -0.246278251               0.246278251               0.000000000              -0.271650426               0.271650426               0.000000000              -0.297022601               0.297022601               0.000000000              -0.322394776               0.322394776               0.000000000              -0.347766951               0.347766951               0.000000000              -0.373139126               0.373139126               0.000000000              -0.398511300               0.398511300               0.000000000              -0.423883475               0.423883475               0.000000000              -0.449255650               0.449255650               0.000000000              -0.474627825               0.474627825               0.000000000              -0.500000000               0.500000000               0.000000000              -0.084374307               0.102810390               0.000000000              -0.106444663               0.127634741               0.000000000              -0.128515018               0.152459092               0.000000000              -0.150585374               0.177283442               0.000000000              -0.172655730               0.202107793               0.000000000              -0.194726086               0.226932143               0.000000000              -0.216796442               0.251756494               0.000000000              -0.238866798               0.276580845               0.000000000              -0.260937153               0.301405195               0.000000000              -0.283007509               0.326229546               0.000000000              -0.305077865               0.351053896               0.000000000              -0.327148221               0.375878247               0.000000000              -0.349218577               0.400702598               0.000000000              -0.371288933               0.425526948               0.000000000              -0.393359288               0.450351299               0.000000000              -0.415429644               0.475175649               0.000000000              -0.437500000               0.500000000               0.000000000              -0.073890841               0.110585458               0.000000000              -0.092710163               0.134923867               0.000000000              -0.111529486               0.159262276               0.000000000              -0.130348808               0.183600685               0.000000000              -0.149168131               0.207939094               0.000000000              -0.167987453               0.232277503               0.000000000              -0.186806776               0.256615912               0.000000000              -0.205626098               0.280954320               0.000000000              -0.224445420               0.305292729               0.000000000              -0.243264743               0.329631138               0.000000000              -0.262084065               0.353969547               0.000000000              -0.280903388               0.378307956               0.000000000              -0.299722710               0.402646365               0.000000000              -0.318542033               0.426984773               0.000000000              -0.337361355               0.451323182               0.000000000              -0.356180678               0.475661591               0.000000000              -0.375000000               0.500000000               0.000000000              -0.062695766               0.117295528               0.000000000              -0.078308531               0.141214558               0.000000000              -0.093921295               0.165133587               0.000000000              -0.109534060               0.189052617               0.000000000              -0.125146824               0.212971646               0.000000000              -0.140759589               0.236890676               0.000000000              -0.156372354               0.260809705               0.000000000              -0.171985118               0.284728735               0.000000000              -0.187597883               0.308647764               0.000000000              -0.203210648               0.332566794               0.000000000              -0.218823412               0.356485823               0.000000000              -0.234436177               0.380404853               0.000000000              -0.250048941               0.404323882               0.000000000              -0.265661706               0.428242912               0.000000000              -0.281274471               0.452161941               0.000000000              -0.296887235               0.476080971               0.000000000              -0.312500000               0.500000000               0.000000000              -0.050896897               0.122875978               0.000000000              -0.063340840               0.146446229               0.000000000              -0.075784784               0.170016481               0.000000000              -0.088228728               0.193586732               0.000000000              -0.100672672               0.217156983               0.000000000              -0.113116616               0.240727235               0.000000000              -0.125560560               0.264297486               0.000000000              -0.138004504               0.287867738               0.000000000              -0.150448448               0.311437989               0.000000000              -0.162892392               0.335008240               0.000000000              -0.175336336               0.358578492               0.000000000              -0.187780280               0.382148743               0.000000000              -0.200224224               0.405718994               0.000000000              -0.212668168               0.429289246               0.000000000              -0.225112112               0.452859497               0.000000000              -0.237556056               0.476429749               0.000000000              -0.250000000               0.500000000               0.000000000              -0.038607862               0.127273065               0.000000000              -0.047913621               0.150568498               0.000000000              -0.057219379               0.173863932               0.000000000              -0.066525138               0.197159365               0.000000000              -0.075830897               0.220454798               0.000000000              -0.085136655               0.243750232               0.000000000              -0.094442414               0.267045665               0.000000000              -0.103748172               0.290341099               0.000000000              -0.113053931               0.313636532               0.000000000              -0.122359690               0.336931966               0.000000000              -0.131665448               0.360227399               0.000000000              -0.140971207               0.383522833               0.000000000              -0.150276966               0.406818266               0.000000000              -0.159582724               0.430113700               0.000000000              -0.168888483               0.453409133               0.000000000              -0.178194241               0.476704567               0.000000000              -0.187500000               0.500000000               0.000000000              -0.025947013               0.130444442               0.000000000              -0.032137825               0.153541665               0.000000000              -0.038328636               0.176638887               0.000000000              -0.044519448               0.199736109               0.000000000              -0.050710260               0.222833332               0.000000000              -0.056901071               0.245930554               0.000000000              -0.063091883               0.269027776               0.000000000              -0.069282695               0.292124999               0.000000000              -0.075473506               0.315222221               0.000000000              -0.081664318               0.338319444               0.000000000              -0.087855130               0.361416666               0.000000000              -0.094045942               0.384513888               0.000000000              -0.100236753               0.407611111               0.000000000              -0.106427565               0.430708333               0.000000000              -0.112618377               0.453805555               0.000000000              -0.118809188               0.476902778               0.000000000              -0.125000000               0.500000000               0.000000000              -0.013036280               0.132359569               0.000000000              -0.016127762               0.155337096               0.000000000              -0.019219245               0.178314623               0.000000000              -0.022310727               0.201292150               0.000000000              -0.025402210               0.224269676               0.000000000              -0.028493692               0.247247203               0.000000000              -0.031585175               0.270224730               0.000000000              -0.034676657               0.293202257               0.000000000              -0.037768140               0.316179784               0.000000000              -0.040859622               0.339157311               0.000000000              -0.043951105               0.362134838               0.000000000              -0.047042587               0.385112365               0.000000000              -0.050134070               0.408089892               0.000000000              -0.053225552               0.431067419               0.000000000              -0.056317035               0.454044946               0.000000000              -0.059408517               0.477022473               0.000000000              -0.062500000               0.500000000               0.000000000               0.000000000               0.133000000               0.000000000               0.000000000               0.155937500               0.000000000               0.000000000               0.178875000               0.000000000               0.000000000               0.201812500               0.000000000               0.000000000               0.224750000               0.000000000               0.000000000               0.247687500               0.000000000               0.000000000               0.270625000               0.000000000               0.000000000               0.293562500               0.000000000               0.000000000               0.316500000               0.000000000               0.000000000               0.339437500               0.000000000               0.000000000               0.362375000               0.000000000               0.000000000               0.385312500               0.000000000               0.000000000               0.408250000               0.000000000               0.000000000               0.431187500               0.000000000               0.000000000               0.454125000               0.000000000               0.000000000               0.477062500               0.000000000               0.000000000               0.500000000               0.000000000 </DataArray>
</Points>
<Cells>
<DataArray type="Int32"                                    Name="connectivity"                                                      NumberOfComponents=" 1" format="ascii">
         0          1         18         17          1          2         19         18          2          3         20         19          3          4         21         20          4          5         22         21          5          6         23         22          6          7         24         23          7          8         25         24          8          9         26         25          9         10         27         26         10         11         28         27         11         12         29         28         12         13         30         29         13         14         31         30         14         15         32         31         15         16         33         32         17         18         35         34         18         19         36         35         19         20         37         36         20         21         38         37         21         22         39         38         22         23         40         39         23         24         41         40         24         25         42         41         25         26         43         42         26         27         44         43         27         28         45         44         28         29         46         45         29         30         47         46         30         31         48         47         31         32         49         48         32         33         50         49         34         35         52         51         35         36         53         52         36         37         54         53         37         38         55         54         38         39         56         55         39         40         57         56         40         41         58         57         41         42         59         58         42         43         60         59         43         44         61         60         44         45         62         61         45         46         63         62         46         47         64         63         47         48         65         64         48         49         66         65         49         50         67         66         51         52         69         68         52         53         70         69         53         54         71         70         54         55         72         71         55         56         73         72         56         57         74         73         57         58         75         74         58         59         76         75         59         60         77         76         60         61         78         77         61         62         79         78         62         63         80         79         63         64         81         80         64         65         82         81         65         66         83         82         66         67         84         83         68         69         86         85         69         70         87         86         70         71         88         87         71         72         89         88         72         73         90         89         73         74         91         90         74         75         92         91         75         76         93         92         76         77         94         93         77         78         95         94         78         79         96         95         79         80         97         96         80         81         98         97         81         82         99         98         82         83        100         99         83         84        101        100         85         86        103        102         86         87        104        103         87         88        105        104         88         89        106        105         89         90        107        106         90         91        108        107         91         92        109        108         92         93        110        109         93         94        111        110         94         95        112        111         95         96        113        112         96         97        114        113         97         98        115        114         98         99        116        115         99        100        117        116        100        101        118        117        102        103        120        119        103        104        121        120        104        105        122        121        105        106        123        122        106        107        124        123        107        108        125        124        108        109        126        125        109        110        127        126        110        111        128        127        111        112        129        128        112        113        130        129        113        114        131        130        114        115        132        131        115        116        133        132        116        117        134        133        117        118        135        134        119        120        137        136        120        121        138        137        121        122        139        138        122        123        140        139        123        124        141        140        124        125        142        141        125        126        143        142        126        127        144        143        127        128        145        144        128        129        146        145        129        130        147        146        130        131        148        147        131        132        149        148        132        133        150        149        133        134        151        150        134        135        152        151        136        137        154        153        137        138        155        154        138        139        156        155        139        140        157        156        140        141        158        157        141        142        159        158        142        143        160        159        143        144        161        160        144        145        162        161        145        146        163        162        146        147        164        163        147        148        165        164        148        149        166        165        149        150        167        166        150        151        168        167        151        152        169        168        153        154        171        170        154        155        172        171        155        156        173        172        156        157        174        173        157        158        175        174        158        159        176        175        159        160        177        176        160        161        178        177        161        162        179        178        162        163        180        179        163        164        181        180        164        165        182        181        165        166        183        182        166        167        184        183        167        168        185        184        168        169        186        185        170        171        188        187        171        172        189        188        172        173        190        189        173        174        191        190        174        175        192        191        175        176        193        192        176        177        194        193        177        178        195        194        178        179        196        195        179        180        197        196        180        181        198        197        181        182        199        198        182        183        200        199        183        184        201        200        184        185        202        201        185        186        203        202        187        188        205        204        188        189        206        205        189        190        207        206        190        191        208        207        191        192        209        208        192        193        210        209        193        194        211        210        194        195        212        211        195        196        213        212        196        197        214        213        197        198        215        214        198        199        216        215        199        200        217        216        200        201        218        217        201        202        219        218        202        203        220        219        204        205        222        221        205        206        223        222        206        207        224        223        207        208        225        224        208        209        226        225        209        210        227        226        210        211        228        227        211        212        229        228        212        213        230        229        213        214        231        230        214        215        232        231        215        216        233        232        216        217        234        233        217        218        235        234        218        219        236        235        219        220        237        236        221        222        239        238        222        223        240        239        223        224        241        240        224        225        242        241        225        226        243        242        226        227        244        243        227        228        245        244        228        229        246        245        229        230        247        246        230        231        248        247        231        232        249        248        232        233        250        249        233        234        251        250        234        235        252        251        235        236        253        252        236        237        254        253        238        239        256        255        239        240        257        256        240        241        258        257        241        242        259        258        242        243        260        259        243        244        261        260        244        245        262        261        245        246        263        262        246        247        264        263        247        248        265        264        248        249        266        265        249        250        267        266        250        251        268        267        251        252        269        268        252        253        270        269        253        254        271        270        255        256        273        272        256        257        274        273        257        258        275        274        258        259        276        275        259        260        277        276        260        261        278        277        261        262        279        278        262        263        280        279        263        264        281        280        264        265        282        281        265        266        283        282        266        267        284        283        267        268        285        284        268        269        286        285        269        270        287        286        270        271        288        287        306        307          1          0        307        308          2          1        308        309          3          2        309        310          4          3        310        311          5          4        311        312          6          5        312        313          7          6        313        314          8          7        314        315          9          8        315        316         10          9        316        317         11         10        317        318         12         11        318        319         13         12        319        320         14         13        320        321         15         14        321        322         16         15        323        324        307        306        324        325        308        307        325        326        309        308        326        327        310        309        327        328        311        310        328        329        312        311        329        330        313        312        330        331        314        313        331        332        315        314        332        333        316        315        333        334        317        316        334        335        318        317        335        336        319        318        336        337        320        319        337        338        321        320        338        339        322        321        340        341        324        323        341        342        325        324        342        343        326        325        343        344        327        326        344        345        328        327        345        346        329        328        346        347        330        329        347        348        331        330        348        349        332        331        349        350        333        332        350        351        334        333        351        352        335        334        352        353        336        335        353        354        337        336        354        355        338        337        355        356        339        338        357        358        341        340        358        359        342        341        359        360        343        342        360        361        344        343        361        362        345        344        362        363        346        345        363        364        347        346        364        365        348        347        365        366        349        348        366        367        350        349        367        368        351        350        368        369        352        351        369        370        353        352        370        371        354        353        371        372        355        354        372        373        356        355        374        375        358        357        375        376        359        358        376        377        360        359        377        378        361        360        378        379        362        361        379        380        363        362        380        381        364        363        381        382        365        364        382        383        366        365        383        384        367        366        384        385        368        367        385        386        369        368        386        387        370        369        387        388        371        370        388        389        372        371        389        390        373        372        391        392        375        374        392        393        376        375        393        394        377        376        394        395        378        377        395        396        379        378        396        397        380        379        397        398        381        380        398        399        382        381        399        400        383        382        400        401        384        383        401        402        385        384        402        403        386        385        403        404        387        386        404        405        388        387        405        406        389        388        406        407        390        389        408        409        392        391        409        410        393        392        410        411        394        393        411        412        395        394        412        413        396        395        413        414        397        396        414        415        398        397        415        416        399        398        416        417        400        399        417        418        401        400        418        419        402        401        419        420        403        402        420        421        404        403        421        422        405        404        422        423        406        405        423        424        407        406        425        426        409        408        426        427        410        409        427        428        411        410        428        429        412        411        429        430        413        412        430        431        414        413        431        432        415        414        432        433        416        415        433        434        417        416        434        435        418        417        435        436        419        418        436        437        420        419        437        438        421        420        438        439        422        421        439        440        423        422        440        441        424        423        442        443        426        425        443        444        427        426        444        445        428        427        445        446        429        428        446        447        430        429        447        448        431        430        448        449        432        431        449        450        433        432        450        451        434        433        451        452        435        434        452        453        436        435        453        454        437        436        454        455        438        437        455        456        439        438        456        457        440        439        457        458        441        440        459        460        443        442        460        461        444        443        461        462        445        444        462        463        446        445        463        464        447        446        464        465        448        447        465        466        449        448        466        467        450        449        467        468        451        450        468        469        452        451        469        470        453        452        470        471        454        453        471        472        455        454        472        473        456        455        473        474        457        456        474        475        458        457        476        477        460        459        477        478        461        460        478        479        462        461        479        480        463        462        480        481        464        463        481        482        465        464        482        483        466        465        483        484        467        466        484        485        468        467        485        486        469        468        486        487        470        469        487        488        471        470        488        489        472        471        489        490        473        472        490        491        474        473        491        492        475        474        493        494        477        476        494        495        478        477        495        496        479        478        496        497        480        479        497        498        481        480        498        499        482        481        499        500        483        482        500        501        484        483        501        502        485        484        502        503        486        485        503        504        487        486        504        505        488        487        505        506        489        488        506        507        490        489        507        508        491        490        508        509        492        491        510        511        494        493        511        512        495        494        512        513        496        495        513        514        497        496        514        515        498        497        515        516        499        498        516        517        500        499        517        518        501        500        518        519        502        501        519        520        503        502        520        521        504        503        521        522        505        504        522        523        506        505        523        524        507        506        524        525        508        507        525        526        509        508        527        528        511        510        528        529        512        511        529        530        513        512        530        531        514        513        531        532        515        514        532        533        516        515        533        534        517        516        534        535        518        517        535        536        519        518        536        537        520        519        537        538        521        520        538        539        522        521        539        540        523        522        540        541        524        523        541        542        525        524        542        543        526        525        544        545        528        527        545        546        529        528        546        547        530        529        547        548        531        530        548        549        532        531        549        550        533        532        550        551        534        533        551        552        535        534        552        553        536        535        553        554        537        536        554        555        538        537        555        556        539        538        556        557        540        539        557        558        541        540        558        559        542        541        559        560        543        542        561        562        545        544        562        563        546        545        563        564        547        546        564        565        548        547        565        566        549        548        566        567        550        549        567        568        551        550        568        569        552        551        569        570        553        552        570        571        554        553        571        572        555        554        572        573        556        555        573        574        557        556        574        575        558        557        575        576        559        558        576        577        560        559        578        579        596        595        579        580        597        596        580        581        598        597        581        582        599        598        582        583        600        599        583        584        601        600        584        585        602        601        585        586        603        602        586        587        604        603        587        588        605        604        588        589        606        605        589        590        607        606        590        591        608        607        591        592        609        608        592        593        610        609        593        594        611        610        595        596        613        612        596        597        614        613        597        598        615        614        598        599        616        615        599        600        617        616        600        601        618        617        601        602        619        618        602        603        620        619        603        604        621        620        604        605        622        621        605        606        623        622        606        607        624        623        607        608        625        624        608        609        626        625        609        610        627        626        610        611        628        627        612        613        630        629        613        614        631        630        614        615        632        631        615        616        633        632        616        617        634        633        617        618        635        634        618        619        636        635        619        620        637        636        620        621        638        637        621        622        639        638        622        623        640        639        623        624        641        640        624        625        642        641        625        626        643        642        626        627        644        643        627        628        645        644        629        630        647        646        630        631        648        647        631        632        649        648        632        633        650        649        633        634        651        650        634        635        652        651        635        636        653        652        636        637        654        653        637        638        655        654        638        639        656        655        639        640        657        656        640        641        658        657        641        642        659        658        642        643        660        659        643        644        661        660        644        645        662        661        646        647        664        663        647        648        665        664        648        649        666        665        649        650        667        666        650        651        668        667        651        652        669        668        652        653        670        669        653        654        671        670        654        655        672        671        655        656        673        672        656        657        674        673        657        658        675        674        658        659        676        675        659        660        677        676        660        661        678        677        661        662        679        678        663        664        681        680        664        665        682        681        665        666        683        682        666        667        684        683        667        668        685        684        668        669        686        685        669        670        687        686        670        671        688        687        671        672        689        688        672        673        690        689        673        674        691        690        674        675        692        691        675        676        693        692        676        677        694        693        677        678        695        694        678        679        696        695        680        681        698        697        681        682        699        698        682        683        700        699        683        684        701        700        684        685        702        701        685        686        703        702        686        687        704        703        687        688        705        704        688        689        706        705        689        690        707        706        690        691        708        707        691        692        709        708        692        693        710        709        693        694        711        710        694        695        712        711        695        696        713        712        697        698        715        714        698        699        716        715        699        700        717        716        700        701        718        717        701        702        719        718        702        703        720        719        703        704        721        720        704        705        722        721        705        706        723        722        706        707        724        723        707        708        725        724        708        709        726        725        709        710        727        726        710        711        728        727        711        712        729        728        712        713        730        729        714        715        732        731        715        716        733        732        716        717        734        733        717        718        735        734        718        719        736        735        719        720        737        736        720        721        738        737        721        722        739        738        722        723        740        739        723        724        741        740        724        725        742        741        725        726        743        742        726        727        744        743        727        728        745        744        728        729        746        745        729        730        747        746        731        732        749        748        732        733        750        749        733        734        751        750        734        735        752        751        735        736        753        752        736        737        754        753        737        738        755        754        738        739        756        755        739        740        757        756        740        741        758        757        741        742        759        758        742        743        760        759        743        744        761        760        744        745        762        761        745        746        763        762        746        747        764        763        748        749        766        765        749        750        767        766        750        751        768        767        751        752        769        768        752        753        770        769        753        754        771        770        754        755        772        771        755        756        773        772        756        757        774        773        757        758        775        774        758        759        776        775        759        760        777        776        760        761        778        777        761        762        779        778        762        763        780        779        763        764        781        780        765        766        783        782        766        767        784        783        767        768        785        784        768        769        786        785        769        770        787        786        770        771        788        787        771        772        789        788        772        773        790        789        773        774        791        790        774        775        792        791        775        776        793        792        776        777        794        793        777        778        795        794        778        779        796        795        779        780        797        796        780        781        798        797        782        783        800        799        783        784        801        800        784        785        802        801        785        786        803        802        786        787        804        803        787        788        805        804        788        789        806        805        789        790        807        806        790        791        808        807        791        792        809        808        792        793        810        809        793        794        811        810        794        795        812        811        795        796        813        812        796        797        814        813        797        798        815        814        799        800        817        816        800        801        818        817        801        802        819        818        802        803        820        819        803        804        821        820        804        805        822        821        805        806        823        822        806        807        824        823        807        808        825        824        808        809        826        825        809        810        827        826        810        811        828        827        811        812        829        828        812        813        830        829        813        814        831        830        814        815        832        831        816        817        834        833        817        818        835        834        818        819        836        835        819        820        837        836        820        821        838        837        821        822        839        838        822        823        840        839        823        824        841        840        824        825        842        841        825        826        843        842        826        827        844        843        827        828        845        844        828        829        846        845        829        830        847        846        830        831        848        847        831        832        849        848        833        834        562        561        834        835        563        562        835        836        564        563        836        837        565        564        837        838        566        565        838        839        567        566        839        840        568        567        840        841        569        568        841        842        570        569        842        843        571        570        843        844        572        571        844        845        573        572        845        846        574        573        846        847        575        574        847        848        576        575        848        849        577        576        884        885        579        578        885        886        580        579        886        887        581        580        887        888        582        581        888        889        583        582        889        890        584        583        890        891        585        584        891        892        586        585        892        893        587        586        893        894        588        587        894        895        589        588        895        896        590        589        896        897        591        590        897        898        592        591        898        899        593        592        899        900        594        593        901        902        885        884        902        903        886        885        903        904        887        886        904        905        888        887        905        906        889        888        906        907        890        889        907        908        891        890        908        909        892        891        909        910        893        892        910        911        894        893        911        912        895        894        912        913        896        895        913        914        897        896        914        915        898        897        915        916        899        898        916        917        900        899        918        919        902        901        919        920        903        902        920        921        904        903        921        922        905        904        922        923        906        905        923        924        907        906        924        925        908        907        925        926        909        908        926        927        910        909        927        928        911        910        928        929        912        911        929        930        913        912        930        931        914        913        931        932        915        914        932        933        916        915        933        934        917        916        935        936        919        918        936        937        920        919        937        938        921        920        938        939        922        921        939        940        923        922        940        941        924        923        941        942        925        924        942        943        926        925        943        944        927        926        944        945        928        927        945        946        929        928        946        947        930        929        947        948        931        930        948        949        932        931        949        950        933        932        950        951        934        933        952        953        936        935        953        954        937        936        954        955        938        937        955        956        939        938        956        957        940        939        957        958        941        940        958        959        942        941        959        960        943        942        960        961        944        943        961        962        945        944        962        963        946        945        963        964        947        946        964        965        948        947        965        966        949        948        966        967        950        949        967        968        951        950        969        970        953        952        970        971        954        953        971        972        955        954        972        973        956        955        973        974        957        956        974        975        958        957        975        976        959        958        976        977        960        959        977        978        961        960        978        979        962        961        979        980        963        962        980        981        964        963        981        982        965        964        982        983        966        965        983        984        967        966        984        985        968        967        986        987        970        969        987        988        971        970        988        989        972        971        989        990        973        972        990        991        974        973        991        992        975        974        992        993        976        975        993        994        977        976        994        995        978        977        995        996        979        978        996        997        980        979        997        998        981        980        998        999        982        981        999       1000        983        982       1000       1001        984        983       1001       1002        985        984       1003       1004        987        986       1004       1005        988        987       1005       1006        989        988       1006       1007        990        989       1007       1008        991        990       1008       1009        992        991       1009       1010        993        992       1010       1011        994        993       1011       1012        995        994       1012       1013        996        995       1013       1014        997        996       1014       1015        998        997       1015       1016        999        998       1016       1017       1000        999       1017       1018       1001       1000       1018       1019       1002       1001       1020       1021       1004       1003       1021       1022       1005       1004       1022       1023       1006       1005       1023       1024       1007       1006       1024       1025       1008       1007       1025       1026       1009       1008       1026       1027       1010       1009       1027       1028       1011       1010       1028       1029       1012       1011       1029       1030       1013       1012       1030       1031       1014       1013       1031       1032       1015       1014       1032       1033       1016       1015       1033       1034       1017       1016       1034       1035       1018       1017       1035       1036       1019       1018       1037       1038       1021       1020       1038       1039       1022       1021       1039       1040       1023       1022       1040       1041       1024       1023       1041       1042       1025       1024       1042       1043       1026       1025       1043       1044       1027       1026       1044       1045       1028       1027       1045       1046       1029       1028       1046       1047       1030       1029       1047       1048       1031       1030       1048       1049       1032       1031       1049       1050       1033       1032       1050       1051       1034       1033       1051       1052       1035       1034       1052       1053       1036       1035       1054       1055       1038       1037       1055       1056       1039       1038       1056       1057       1040       1039       1057       1058       1041       1040       1058       1059       1042       1041       1059       1060       1043       1042       1060       1061       1044       1043       1061       1062       1045       1044       1062       1063       1046       1045       1063       1064       1047       1046       1064       1065       1048       1047       1065       1066       1049       1048       1066       1067       1050       1049       1067       1068       1051       1050       1068       1069       1052       1051       1069       1070       1053       1052       1071       1072       1055       1054       1072       1073       1056       1055       1073       1074       1057       1056       1074       1075       1058       1057       1075       1076       1059       1058       1076       1077       1060       1059       1077       1078       1061       1060       1078       1079       1062       1061       1079       1080       1063       1062       1080       1081       1064       1063       1081       1082       1065       1064       1082       1083       1066       1065       1083       1084       1067       1066       1084       1085       1068       1067       1085       1086       1069       1068       1086       1087       1070       1069       1088       1089       1072       1071       1089       1090       1073       1072       1090       1091       1074       1073       1091       1092       1075       1074       1092       1093       1076       1075       1093       1094       1077       1076       1094       1095       1078       1077       1095       1096       1079       1078       1096       1097       1080       1079       1097       1098       1081       1080       1098       1099       1082       1081       1099       1100       1083       1082       1100       1101       1084       1083       1101       1102       1085       1084       1102       1103       1086       1085       1103       1104       1087       1086       1105       1106       1089       1088       1106       1107       1090       1089       1107       1108       1091       1090       1108       1109       1092       1091       1109       1110       1093       1092       1110       1111       1094       1093       1111       1112       1095       1094       1112       1113       1096       1095       1113       1114       1097       1096       1114       1115       1098       1097       1115       1116       1099       1098       1116       1117       1100       1099       1117       1118       1101       1100       1118       1119       1102       1101       1119       1120       1103       1102       1120       1121       1104       1103       1122       1123       1106       1105       1123       1124       1107       1106       1124       1125       1108       1107       1125       1126       1109       1108       1126       1127       1110       1109       1127       1128       1111       1110       1128       1129       1112       1111       1129       1130       1113       1112       1130       1131       1114       1113       1131       1132       1115       1114       1132       1133       1116       1115       1133       1134       1117       1116       1134       1135       1118       1117       1135       1136       1119       1118       1136       1137       1120       1119       1137       1138       1121       1120        272        273       1123       1122        273        274       1124       1123        274        275       1125       1124        275        276       1126       1125        276        277       1127       1126        277        278       1128       1127        278        279       1129       1128        279        280       1130       1129        280        281       1131       1130        281        282       1132       1131        282        283       1133       1132        283        284       1134       1133        284        285       1135       1134        285        286       1136       1135        286        287       1137       1136        287        288       1138       1137 </DataArray>
<DataArray type="Int32"                                    Name="offsets"                                                      NumberOfComponents=" 1" format="ascii">
         4          8         12         16         20         24         28         32         36         40         44         48         52         56         60         64         68         72         76         80         84         88         92         96        100        104        108        112        116        120        124        128        132        136        140        144        148        152        156        160        164        168        172        176        180        184        188        192        196        200        204        208        212        216        220        224        228        232        236        240        244        248        252        256        260        264        268        272        276        280        284        288        292        296        300        304        308        312        316        320        324        328        332        336        340        344        348        352        356        360        364        368        372        376        380        384        388        392        396        400        404        408        412        416        420        424        428        432        436        440        444        448        452        456        460        464        468        472        476        480        484        488        492        496        500        504        508        512        516        520        524        528        532        536        540        544        548        552        556        560        564        568        572        576        580        584        588        592        596        600        604        608        612        616        620        624        628        632        636        640        644        648        652        656        660        664        668        672        676        680        684        688        692        696        700        704        708        712        716        720        724        728        732        736        740        744        748        752        756        760        764        768        772        776        780        784        788        792        796        800        804        808        812        816        820        824        828        832        836        840        844        848        852        856        860        864        868        872        876        880        884        888        892        896        900        904        908        912        916        920        924        928        932        936        940        944        948        952        956        960        964        968        972        976        980        984        988        992        996       1000       1004       1008       1012       1016       1020       1024       1028       1032       1036       1040       1044       1048       1052       1056       1060       1064       1068       1072       1076       1080       1084       1088       1092       1096       1100       1104       1108       1112       1116       1120       1124       1128       1132       1136       1140       1144       1148       1152       1156       1160       1164       1168       1172       1176       1180       1184       1188       1192       1196       1200       1204       1208       1212       1216       1220       1224       1228       1232       1236       1240       1244       1248       1252       1256       1260       1264       1268       1272       1276       1280       1284       1288       1292       1296       1300       1304       1308       1312       1316       1320       1324       1328       1332       1336       1340       1344       1348       1352       1356       1360       1364       1368       1372       1376       1380       1384       1388       1392       1396       1400       1404       1408       1412       1416       1420       1424       1428       1432       1436       1440       1444       1448       1452       1456       1460       1464       1468       1472       1476       1480       1484       1488       1492       1496       1500       1504       1508       1512       1516       1520       1524       1528       1532       1536       1540       1544       1548       1552       1556       1560       1564       1568       1572       1576       1580       1584       1588       1592       1596       1600       1604       1608       1612       1616       1620       1624       1628       1632       1636       1640       1644       1648       1652       1656       1660       1664       1668       1672       1676       1680       1684       1688       1692       1696       1700       1704       1708       1712       1716       1720       1724       1728       1732       1736       1740       1744       1748       1752       1756       1760       1764       1768       1772       1776       1780       1784       1788       1792       1796       1800       1804       1808       1812       1816       1820       1824       1828       1832       1836       1840       1844       1848       1852       1856       1860       1864       1868       1872       1876       1880       1884       1888       1892       1896       1900       1904       1908       1912       1916       1920       1924       1928       1932       1936       1940       1944       1948       1952       1956       1960       1964       1968       1972       1976       1980       1984       1988       1992       1996       2000       2004       2008       2012       2016       2020       2024       2028       2032       2036       2040       2044       2048       2052       2056       2060       2064       2068       2072       2076       2080       2084       2088       2092       2096       2100       2104       2108       2112       2116       2120       2124       2128       2132       2136       2140       2144       2148       2152       2156       2160       2164       2168       2172       2176       2180       2184       2188       2192       2196       2200       2204       2208       2212       2216       2220       2224       2228       2232       2236       2240       2244       2248       2252       2256       2260       2264       2268       2272       2276       2280       2284       2288       2292       2296       2300       2304       2308       2312       2316       2320       2324       2328       2332       2336       2340       2344       2348       2352       2356       2360       2364       2368       2372       2376       2380       2384       2388       2392       2396       2400       2404       2408       2412       2416       2420       2424       2428       2432       2436       2440       2444       2448       2452       2456       2460       2464       2468       2472       2476       2480       2484       2488       2492       2496       2500       2504       2508       2512       2516       2520       2524       2528       2532       2536       2540       2544       2548       2552       2556       2560       2564       2568       2572       2576       2580       2584       2588       2592       2596       2600       2604       2608       2612       2616       2620       2624       2628       2632       2636       2640       2644       2648       2652       2656       2660       2664       2668       2672       2676       2680       2684       2688       2692       2696       2700       2704       2708       2712       2716       2720       2724       2728       2732       2736       2740       2744       2748       2752       2756       2760       2764       2768       2772       2776       2780       2784       2788       2792       2796       2800       2804       2808       2812       2816       2820       2824       2828       2832       2836       2840       2844       2848       2852       2856       2860       2864       2868       2872       2876       2880       2884       2888       2892       2896       2900       2904       2908       2912       2916       2920       2924       2928       2932       2936       2940       2944       2948       2952       2956       2960       2964       2968       2972       2976       2980       2984       2988       2992       2996       3000       3004       3008       3012       3016       3020       3024       3028       3032       3036       3040       3044       3048       3052       3056       3060       3064       3068       3072       3076       3080       3084       3088       3092       3096       3100       3104       3108       3112       3116       3120       3124       3128       3132       3136       3140       3144       3148       3152       3156       3160       3164       3168       3172       3176       3180       3184       3188       3192       3196       3200       3204       3208       3212       3216       3220       3224       3228       3232       3236       3240       3244       3248       3252       3256       3260       3264       3268       3272       3276       3280       3284       3288       3292       3296       3300       3304       3308       3312       3316       3320       3324       3328       3332       3336       3340       3344       3348       3352       3356       3360       3364       3368       3372       3376       3380       3384       3388       3392       3396       3400       3404       3408       3412       3416       3420       3424       3428       3432       3436       3440       3444       3448       3452       3456       3460       3464       3468       3472       3476       3480       3484       3488       3492       3496       3500       3504       3508       3512       3516       3520       3524       3528       3532       3536       3540       3544       3548       3552       3556       3560       3564       3568       3572       3576       3580       3584       3588       3592       3596       3600       3604       3608       3612       3616       3620       3624       3628       3632       3636       3640       3644       3648       3652       3656       3660       3664       3668       3672       3676       3680       3684       3688       3692       3696       3700       3704       3708       3712       3716       3720       3724       3728       3732       3736       3740       3744       3748       3752       3756       3760       3764       3768       3772       3776       3780       3784       3788       3792       3796       3800       3804       3808       3812       3816       3820       3824       3828       3832       3836       3840       3844       3848       3852       3856       3860       3864       3868       3872       3876       3880       3884       3888       3892       3896       3900       3904       3908       3912       3916       3920       3924       3928       3932       3936       3940       3944       3948       3952       3956       3960       3964       3968       3972       3976       3980       3984       3988       3992       3996       4000       4004       4008       4012       4016       4020       4024       4028       4032       4036       4040       4044       4048       4052       4056       4060       4064       4068       4072       4076       4080       4084       4088       4092       4096 </DataArray>
<DataArray type="UInt8"                                    Name="types"                                                      NumberOfComponents=" 1" format="ascii">
         9          9          9          9          9          9          9          9          9          9          9          9          9          9          9          9          9          9          9          9          9          9          9          9          9          9          9          9          9          9          9          9          9          9          9          9          9          9          9          9          9          9          9          9          9          9          9          9          9          9          9          9          9          9          9          9          9          9          9          9          9          9          9          9          9          9          9          9          9          9          9          9          9          9          9          9          9          9          9          9          9          9          9          9          9          9          9          9          9          9          9          9          9          9          9          9          9          9          9          9          9          9          9          9          9          9          9          9          9          9          9          9          9          9          9          9          9          9          9          9          9          9          9          9          9          9          9          9          9          9          9          9          9          9          9          9          9          9          9          9          9          9          9          9          9          9          9          9          9          9          9          9          9          9          9          9          9          9          9          9          9          9          9          9          9          9          9          9          9          9          9          9          9          9          9          9          9          9          9          9          9          9          9          9          9          9          9          9          9          9          9          9          9          9          9          9          9          9          9          9          9          9          9          9          9          9          9          9          9          9          9          9          9          9          9          9          9          9          9          9          9          9          9          9          9          9          9          9          9          9          9          9          9          9          9          9          9          9          9          9          9          9          9          9          9          9          9          9          9          9          9          9          9          9          9          9          9          9          9          9          9          9          9          9          9          9          9          9          9          9          9          9          9          9          9          9          9          9          9          9          9          9          9          9          9          9          9          9          9          9          9          9          9          9          9          9          9          9          9          9          9          9          9          9          9          9          9          9          9          9          9          9          9          9          9          9          9          9          9          9          9          9          9          9          9          9          9          9          9          9          9          9          9          9          9          9          9          9          9          9          9          9          9          9          9          9          9          9          9          9          9          9          9          9          9          9          9          9          9          9          9          9          9          9          9          9          9          9          9          9          9          9          9          9          9          9          9          9          9          9          9          9          9          9          9          9          9          9          9          9          9          9          9          9          9          9          9          9          9          9          9          9          9          9          9          9          9          9          9          9          9          9          9          9          9          9          9          9          9          9          9          9          9          9          9          9          9          9          9          9          9          9          9          9          9          9          9          9          9          9          9          9          9          9          9          9          9          9          9          9          9          9          9          9          9          9          9          9          9          9          9          9          9          9          9          9          9          9          9          9          9          9          9          9          9          9          9          9          9          9          9          9          9          9          9          9          9          9          9          9          9          9          9          9          9          9          9          9          9          9          9          9          9          9          9          9          9          9          9          9          9          9          9          9          9          9          9          9          9          9          9          9          9          9          9          9          9          9          9          9          9          9          9          9          9          9          9          9          9          9          9          9          9          9          9          9          9          9          9          9          9          9          9          9          9          9          9          9          9          9          9          9          9          9          9          9          9          9          9          9          9          9          9          9          9          9          9          9          9          9          9          9          9          9          9          9          9          9          9          9          9          9          9          9          9          9          9          9          9          9          9          9          9          9          9          9          9          9          9          9          9          9          9          9          9          9          9          9          9          9          9          9          9          9          9          9          9          9          9          9          9          9          9          9          9          9          9          9          9          9          9          9          9          9          9          9          9          9          9          9          9          9          9          9          9          9          9          9          9          9          9          9          9          9          9          9          9          9          9          9          9          9          9          9          9          9          9          9          9          9          9          9          9          9          9          9          9          9          9          9          9          9          9          9          9          9          9          9          9          9          9          9          9          9          9          9          9          9          9          9          9          9          9          9          9          9          9          9          9          9          9          9          9          9          9          9          9          9          9          9          9          9          9          9          9          9          9          9          9          9          9          9          9          9          9          9          9          9          9          9          9          9          9          9          9          9          9          9          9          9          9          9          9          9          9          9          9          9          9          9          9          9          9          9          9          9          9          9          9          9          9          9          9          9          9          9          9          9          9          9          9          9          9          9          9          9          9          9          9          9          9          9          9          9          9          9          9          9          9          9          9          9          9          9          9          9          9          9          9          9          9          9          9          9          9          9          9          9          9          9          9          9          9          9          9          9          9          9          9          9          9          9          9          9          9          9          9          9          9          9          9          9          9          9          9          9          9          9          9          9          9          9          9          9          9          9          9          9          9          9          9          9          9          9          9          9          9          9          9          9          9          9          9          9          9          9          9          9          9          9          9          9          9          9          9          9          9          9          9          9          9          9          9          9          9          9          9          9          9          9          9          9          9          9          9          9          9          9          9          9          9          9          9          9          9          9          9          9          9          9          9          9          9          9          9          9          9          9          9          9          9          9          9          9          9          9          9          9          9          9          9          9          9          9          9          9          9          9          9          9          9          9          9          9          9          9          9          9          9          9          9          9          9          9          9          9          9          9          9          9          9          9          9          9          9          9          9          9          9          9          9          9          9          9          9          9          9          9          9          9          9          9          9          9          9          9          9          9          9          9          9          9          9          9          9          9          9          9          9          9          9          9          9          9 </DataArray>
</Cells>
<CellData>
<DataArray type="Int32"                                    Name="material"                                                      NumberOfComponents=" 1" format="ascii">
         1          1          1          1          1          1          1          1          1          1          1          1          1          1          1          1          1          1          1          1          1          1          1          1          1          1          1          1          1          1          1          1          1          1          1          1          1          1          1          1          1          1          1          1          1          1          1          1          1          1          1          1          1          1          1          1          1          1          1          1          1          1          1          1          1          1          1          1          1          1          1          1          1          1          1          1          1          1          1          1          1          1          1          1          1          1          1          1          1          1          1          1          1          1          1          1          1          1          1          1          1          1          1          1          1          1          1          1          1          1          1          1          1          1          1          1          1          1          1          1          1          1          1          1          1          1          1          1          1          1          1          1          1          1          1          1          1          1          1          1          1          1          1          1          1          1          1          1          1          1          1          1          1          1          1          1          1          1          1          1          1          1          1          1          1          1          1          1          1          1          1          1          1          1          1          1          1          1          1          1          1          1          1          1          1          1          1          1          1          1          1          1          1          1          1          1          1          1          1          1          1          1          1          1          1          1          1          1          1          1          1          1          1          1          1          1          1          1          1          1          1          1          1          1          1          1          1          1          1          1          1          1          1          1          1          1          1          1          1          1          1          1          1          1          1          1          1          1          1          1          1          1          1          1          1          1          1          1          1          1          1          1          1          1          1          1          1          1          1          1          1          1          1          1          1          1          1          1          1          1          1          1          1          1          1          1          1          1          1          1          1          1          1          1          1          1          1          1          1          1          1          1          1          1          1          1          1          1          1          1          1          1          1          1          1          1          1          1          1          1          1          1          1          1          1          1          1          1          1          1          1          1          1          1          1          1          1          1          1          1          1          1          1          1          1          1          1          1          1          1          1          1          1          1          1          1          1          1          1          1          1          1          1          1          1          1          1          1          1          1          1          1          1          1          1          1          1          1          1          1          1          1          1          1          1          1          1          1          1          1          1          1          1          1          1          1          1          1          1          1          1          1          1          1          1          1          1          1          1          1          1          1          1          1          1          1          1          1          1          1          1          1          1          1          1          1          1          1          1          1          1          1          1          1          1          1          1          1          1          1          1          1          1          1          1          1          1          1          1          1          1          1          1          1          1          1          1          1          1          1          1          1          1          1          1          1          1          1          1          1          1          1          1          1          1          1          1          1          1          1          1          1          1          1          1          1          1          1          1          1          1          1          1          1          1          1          1          1          1          1          1          1          1          1          1          1          1          1          1          1          1          1          1          1          1          1          1          1          1          1          1          1          1          1          1          1          1          1          1          1          1          1          1          1          1          1          1          1          1          1          1          1          1          1          1          1          1          1          1          1          1          1          1          1          1          1          1          1          1          1          1          1          1          1          1          1          1          1          1          1          1          1          1          1          1          1          1          1          1          1          1          1          1          1          1          1          1          1          1          1          1          1          1          1          1          1          1          1          1          1          1          1          1          1          1          1          1          1          1          1          1          1          1          1          1          1          1          1          1          1          1          1          1          1          1          1          1          1          1          1          1          1          1          1          1          1          1          1          1          1          1          1          1          1          1          1          1          1          1          1          1          1          1          1          1          1          1          1          1          1          1          1          1          1          1          1          1          1          1          1          1          1          1          1          1          1          1          1          1          1          1          1          1          1          1          1          1          1          1          1          1          1          1          1          1          1          1          1          1          1          1          1          1          1          1          1          1          1          1          1          1          1          1          1          1          1          1          1          1          1          1          1          1          1          1          1          1          1          1          1          1          1          1          1          1          1          1          1          1          1          1          1          1          1          1          1          1          1          1          1          1          1          1          1          1          1          1          1          1          1          1          1          1          1          1          1          1          1          1          1          1          1          1          1          1          1          1          1          1          1          1          1          1          1          1          1          1          1          1          1          1          1          1          1          1          1          1          1          1          1          1          1          1          1          1          1          1          1          1          1          1          1          1          1          1          1          1          1          1          1          1          1          1          1          1          1          1          1          1          1          1          1          1          1          1          1          1          1          1          1          1          1          1          1          1          1          1          1          1          1          1          1          1          1          1          1          1          1          1          1          1          1          1          1          1          1          1          1          1          1          1          1          1          1          1          1          1          1          1          1          1          1          1          1          1          1          1          1          1          1          1          1          1          1          1          1          1          1          1          1          1          1          1          1          1          1          1          1          1          1          1          1          1          1          1          1          1          1          1          1          1          1          1          1          1          1          1          1          1          1          1          1          1          1          1          1          1          1          1          1          1          1          1          1          1          1          1          1          1          1          1          1          1          1          1          1          1          1          1          1          1          1          1          1          1          1          1          1          1          1          1          1          1          1          1          1          1          1          1          1          1          1          1          1          1          1          1          1          1          1          1          1          1          1          1          1          1          1          1          1          1          1          1          1          1          1          1          1          1          1          1          1          1          1          1          1          1          1          1          1          1          1          1          1 </DataArray>
</CellData>
<PointData>
<DataArray type="Float64"                                    Name="u"                                                      NumberOfComponents=" 3" format="ascii">
             -0.000895171               0.000000000               0.999999988              -0.000941688               0.000000000               0.999999988              -0.000960608              -0.000000000               0.999999988              -0.000970461               0.000000000               0.999999988              -0.000978052              -0.000000000               0.999999988              -0.000985827              -0.000000000               0.999999988              -0.000994425              -0.000000000               0.999999988              -0.001004020              -0.000000000               0.999999988              -0.001014314              -0.000000000               0.999999988              -0.001025106               0.000000000               0.999999988              -0.001036119               0.000000000               0.999999988              -0.001046937               0.000000000               0.999999988              -0.001057025               0.000000000               0.999999988              -0.001065931              -0.000000000               0.999999988              -0.001073170               0.000000000               0.999999988              -0.001078180               0.000000000               0.999999988              -0.001080093               0.000000000               0.999999988              -0.000890169               0.000122627               0.999999988              -0.000932625               0.000096521               0.999999988              -0.000948908               0.000084266               0.999999988              -0.000957077               0.000078817               0.999999988              -0.000963493               0.000076884               0.999999988              -0.000970257               0.000076434               0.999999988              -0.000977948               0.000076373               0.999999988              -0.000986554               0.000076138               0.999999988              -0.000995736               0.000075293               0.999999988              -0.001005283               0.000073550               0.999999988              -0.001014851               0.000070398               0.999999988              -0.001023908               0.000065338               0.999999988              -0.001031980               0.000058202               0.999999988              -0.001038616               0.000048767               0.999999988              -0.001043389               0.000036503               0.999999988              -0.001045768               0.000020320               0.999999988              -0.001045064              -0.000001274               0.999999988              -0.000875500               0.000244234               0.999999988              -0.000906040               0.000192816               0.999999988              -0.000914839               0.000169576               0.999999988              -0.000918278               0.000159850               0.999999988              -0.000921419               0.000156732               0.999999988              -0.000925556               0.000156280               0.999999988              -0.000930816               0.000156485               0.999999988              -0.000936864               0.000156225               0.999999988              -0.000943183               0.000154590               0.999999988              -0.000949236               0.000151014               0.999999988              -0.000954611               0.000144620               0.999999988              -0.000958831               0.000134754               0.999999988              -0.000961460               0.000121108               0.999999988              -0.000962107               0.000103235               0.999999988              -0.000960407               0.000080185               0.999999988              -0.000956092               0.000050670               0.999999988              -0.000949001               0.000012969               0.999999988              -0.000851402               0.000363791               0.999999988              -0.000863066               0.000288762               0.999999988              -0.000861050               0.000256901               0.999999988              -0.000858162               0.000244656               0.999999988              -0.000857044               0.000241562               0.999999988              -0.000857813               0.000241884               0.999999988              -0.000859819               0.000242766               0.999999988              -0.000862184               0.000242674               0.999999988              -0.000864140               0.000240386               0.999999988              -0.000865056               0.000234960               0.999999988              -0.000864351               0.000225529               0.999999988              -0.000861616               0.000211364               0.999999988              -0.000856536               0.000192004               0.999999988              -0.000848750               0.000167099               0.999999988              -0.000838164               0.000135968               0.999999988              -0.000824848               0.000097501               0.999999988              -0.000809137               0.000050957               0.999999988              -0.000818201               0.000480225               0.999999988              -0.000805844               0.000384402               0.999999988              -0.000791773               0.000346811               0.999999988              -0.000782464               0.000334114               0.999999988              -0.000777508               0.000332158               0.999999988              -0.000775079               0.000333904               0.999999988              -0.000773593               0.000335814               0.999999988              -0.000771788               0.000335990               0.999999988              -0.000768492               0.000332962               0.999999988              -0.000762997               0.000325583               0.999999988              -0.000754833               0.000313317               0.999999988              -0.000743645               0.000295283               0.999999988              -0.000729222               0.000271318               0.999999988              -0.000711534               0.000241108               0.999999988              -0.000690748               0.000204480               0.999999988              -0.000667341               0.000161304               0.999999988              -0.000642040               0.000111865               0.999999988              -0.000776607               0.000592477               0.999999988              -0.000737259               0.000479847               0.999999988              -0.000711985               0.000439509               0.999999988              -0.000697756               0.000428001               0.999999988              -0.000689868               0.000427992               0.999999988              -0.000684765               0.000431631               0.999999988              -0.000679975               0.000434688               0.999999988              -0.000673584               0.000434854               0.999999988              -0.000664361               0.000430751               0.999999988              -0.000651610               0.000421310               0.999999988              -0.000634959               0.000406094               0.999999988              -0.000614233               0.000384844               0.999999988              -0.000589520               0.000357135               0.999999988              -0.000561169               0.000323190               0.999999988              -0.000529700               0.000283394               0.999999988              -0.000495853               0.000238615               0.999999988              -0.000460721               0.000190094               0.999999988              -0.000727319               0.000699595               0.999999988              -0.000660594               0.000575202               0.999999988              -0.000626787               0.000534702               0.999999988              -0.000609978               0.000525297               0.999999988              -0.000600653               0.000527512               0.999999988              -0.000593677               0.000532990               0.999999988              -0.000585503               0.000536795               0.999999988              -0.000574056               0.000536607               0.999999988              -0.000558137               0.000531062               0.999999988              -0.000537116               0.000519415               0.999999988              -0.000510944               0.000501526               0.999999988              -0.000479774               0.000477317               0.999999988              -0.000444019               0.000446711               0.999999988              -0.000404421               0.000410322               0.999999988              -0.000361948               0.000369358               0.999999988              -0.000317707               0.000325205               0.999999988              -0.000272947               0.000279979               0.999999988              -0.000671291               0.000800431               0.999999988              -0.000579441               0.000670323               0.999999988              -0.000540870               0.000631437               0.999999988              -0.000524164               0.000624344               0.999999988              -0.000514941               0.000628492               0.999999988              -0.000506445               0.000635256               0.999999988              -0.000494580               0.000639352               0.999999988              -0.000477316               0.000638401               0.999999988              -0.000453559               0.000631278               0.999999988              -0.000423235               0.000617368               0.999999988              -0.000386542               0.000596836               0.999999988              -0.000343995               0.000570151               0.999999988              -0.000296466               0.000537554               0.999999988              -0.000245139               0.000500489               0.999999988              -0.000191424               0.000460572               0.999999988              -0.000136775               0.000419594               0.999999988              -0.000082472               0.000379125               0.999999988              -0.000610230               0.000893019               0.999999988              -0.000496617               0.000765153               0.999999988              -0.000458642               0.000728148               0.999999988              -0.000444134               0.000722790               0.999999988              -0.000435719               0.000728544               0.999999988              -0.000425591               0.000736073               0.999999988              -0.000409329               0.000740002               0.999999988              -0.000385056               0.000737970               0.999999988              -0.000352420               0.000729049               0.999999988              -0.000311654               0.000713026               0.999999988              -0.000263308               0.000690366               0.999999988              -0.000208324               0.000662009               0.999999988              -0.000148040               0.000629111               0.999999988              -0.000084285               0.000593557               0.999999988              -0.000018904               0.000557322               0.999999988               0.000046685               0.000522007               0.999999988               0.000111696               0.000488050               0.999999988              -0.000546793               0.000980796               0.999999988              -0.000427038               0.000872218               0.999999988              -0.000386967               0.000832107               0.999999988              -0.000372387               0.000822755               0.999999988              -0.000365035               0.000826365               0.999999988              -0.000357293               0.000834228               0.999999988              -0.000344553               0.000841297               0.999999988              -0.000324674               0.000844681               0.999999988              -0.000297274               0.000843159               0.999999988              -0.000262163               0.000836172               0.999999988              -0.000219691               0.000823777               0.999999988              -0.000170109               0.000806568               0.999999988              -0.000114065               0.000785255               0.999999988              -0.000052903               0.000760881               0.999999988               0.000011881               0.000735015               0.999999988               0.000078615               0.000709182               0.999999988               0.000145798               0.000684614               0.999999988              -0.000477758               0.001060765               0.999999988              -0.000359930               0.000976070               0.999999988              -0.000317957               0.000938936               0.999999988              -0.000302357               0.000927811               0.999999988              -0.000295330               0.000930222               0.999999988              -0.000288974               0.000938600               0.999999988              -0.000279140               0.000948425               0.999999988              -0.000263418               0.000956621               0.999999988              -0.000241050               0.000961737               0.999999988              -0.000211537               0.000962888               0.999999988              -0.000174887               0.000960002               0.999999988              -0.000131081               0.000953082               0.999999988              -0.000080437               0.000942634               0.999999988              -0.000023435               0.000929144               0.999999988               0.000039007               0.000913640               0.999999988               0.000105502               0.000897214               0.999999988               0.000174274               0.000881265               0.999999988              -0.000404624               0.001130885               0.999999988              -0.000295386               0.001073245               0.999999988              -0.000253170               0.001043739               0.999999988              -0.000236485               0.001033848               0.999999988              -0.000229036               0.001036460               0.999999988              -0.000223519               0.001045896               0.999999988              -0.000215856               0.001058346               0.999999988              -0.000203614               0.001071089               0.999999988              -0.000185816               0.001082227               0.999999988              -0.000161758               0.001090903               0.999999988              -0.000131135               0.001096700               0.999999988              -0.000093675               0.001099557               0.999999988              -0.000049155               0.001099498               0.999999988               0.000002340               0.001096619               0.999999988               0.000060518               0.001091460               0.999999988               0.000125013               0.001084762               0.999999988               0.000194368               0.001077714               0.999999988              -0.000328035               0.001190037               0.999999988              -0.000233294               0.001159720               0.999999988              -0.000193622               0.001140944               0.999999988              -0.000176590               0.001135211               0.999999988              -0.000168832               0.001139627               0.999999988              -0.000163589               0.001150988               0.999999988              -0.000157414               0.001166192               0.999999988              -0.000148137               0.001183022               0.999999988              -0.000134444               0.001199799               0.999999988              -0.000115562               0.001215472               0.999999988              -0.000090990               0.001229374               0.999999988              -0.000060342               0.001241250               0.999999988              -0.000023141               0.001250868               0.999999988               0.000021248               0.001258293               0.999999988               0.000073247               0.001263555               0.999999988               0.000133064               0.001267000               0.999999988               0.000200465               0.001269321               0.999999988              -0.000248638               0.001237179               0.999999988              -0.000173215               0.001231722               0.999999988              -0.000139404               0.001224869               0.999999988              -0.000123757               0.001224939               0.999999988              -0.000116235               0.001232703               0.999999988              -0.000111428               0.001246505               0.999999988              -0.000106505               0.001264620               0.999999988              -0.000099657               0.001285272               0.999999988              -0.000089679               0.001306957               0.999999988              -0.000075717               0.001328817               0.999999988              -0.000057253               0.001350033               0.999999988              -0.000033869               0.001370129               0.999999988              -0.000004876               0.001388739               0.999999988               0.000030688               0.001405753               0.999999988               0.000073741               0.001421022               0.999999988               0.000125305               0.001434457               0.999999988               0.000186162               0.001446271               0.999999988              -0.000167006               0.001271699               0.999999988              -0.000114675               0.001285895               0.999999988              -0.000089931               0.001289869               0.999999988              -0.000077818               0.001295990               0.999999988              -0.000071603               0.001307398               0.999999988              -0.000067828               0.001324010               0.999999988              -0.000064199               0.001344818               0.999999988              -0.000059653               0.001368687               0.999999988              -0.000052977               0.001394546               0.999999988              -0.000043720               0.001421497               0.999999988              -0.000031511               0.001448812               0.999999988              -0.000015671               0.001475863               0.999999988               0.000004445               0.001502326               0.999999988               0.000029572               0.001527851               0.999999988               0.000060743               0.001552078               0.999999988               0.000099276               0.001574723               0.999999988               0.000147007               0.001595411               0.999999988              -0.000083871               0.001292782               0.999999988              -0.000057137               0.001319673               0.999999988              -0.000043976               0.001331211               0.999999988              -0.000037382               0.001341961               0.999999988              -0.000033807               0.001356178               0.999999988              -0.000031673               0.001374891               0.999999988              -0.000029835               0.001397780               0.999999988              -0.000027446               0.001424014               0.999999988              -0.000023961               0.001452696               0.999999988              -0.000019280               0.001482884               0.999999988              -0.000013261               0.001514090               0.999999988              -0.000005303               0.001545864               0.999999988               0.000004949               0.001577776               0.999999988               0.000017994               0.001609380               0.999999988               0.000034520               0.001640181               0.999999988               0.000055287               0.001669572               0.999999988               0.000081765               0.001696827               0.999999988               0.000000000               0.001299785               0.999999988               0.000000000               0.001331155               0.999999988              -0.000000000               0.001345438               0.999999988               0.000000000               0.001357793               0.999999988               0.000000000               0.001373125               0.999999988              -0.000000000               0.001392720               0.999999988               0.000000000               0.001416470               0.999999988              -0.000000000               0.001443610               0.999999988              -0.000000000               0.001473281               0.999999988              -0.000000000               0.001504558               0.999999988              -0.000000000               0.001537129               0.999999988              -0.000000000               0.001570581               0.999999988              -0.000000000               0.001604354               0.999999988               0.000000000               0.001638093               0.999999988               0.000000000               0.001671258               0.999999988               0.000000000               0.001703169               0.999999988              -0.000000000               0.001732921               0.999999988              -0.000895171               0.000000000               0.999999988              -0.000941688               0.000000000               0.999999988              -0.000960608              -0.000000000               0.999999988              -0.000970461               0.000000000               0.999999988              -0.000978052              -0.000000000               0.999999988              -0.000985827              -0.000000000               0.999999988              -0.000994425              -0.000000000               0.999999988              -0.001004020              -0.000000000               0.999999988              -0.001014314              -0.000000000               0.999999988              -0.001025106               0.000000000               0.999999988              -0.001036119               0.000000000               0.999999988              -0.001046937               0.000000000               0.999999988              -0.001057025               0.000000000               0.999999988              -0.001065931              -0.000000000               0.999999988              -0.001073170               0.000000000               0.999999988              -0.001078180               0.000000000               0.999999988              -0.001080093               0.000000000               0.999999988              -0.000890169              -0.000122627               0.999999988              -0.000932625              -0.000096521               0.999999988              -0.000948908              -0.000084266               0.999999988              -0.000957077              -0.000078817               0.999999988              -0.000963493              -0.000076884               0.999999988              -0.000970257              -0.000076434               0.999999988              -0.000977948              -0.000076373               0.999999988              -0.000986554              -0.000076138               0.999999988              -0.000995736              -0.000075293               0.999999988              -0.001005283              -0.000073550               0.999999988              -0.001014851              -0.000070398               0.999999988              -0.001023908              -0.000065338               0.999999988              -0.001031980              -0.000058202               0.999999988              -0.001038616              -0.000048767               0.999999988              -0.001043389              -0.000036503               0.999999988              -0.001045768              -0.000020320               0.999999988              -0.001045064               0.000001274               0.999999988              -0.000875500              -0.000244234               0.999999988              -0.000906040              -0.000192816               0.999999988              -0.000914839              -0.000169576               0.999999988              -0.000918278              -0.000159850               0.999999988              -0.000921419              -0.000156732               0.999999988              -0.000925556              -0.000156280               0.999999988              -0.000930816              -0.000156485               0.999999988              -0.000936864              -0.000156225               0.999999988              -0.000943183              -0.000154590               0.999999988              -0.000949236              -0.000151014               0.999999988              -0.000954611              -0.000144620               0.999999988              -0.000958831              -0.000134754               0.999999988              -0.000961460              -0.000121108               0.999999988              -0.000962107              -0.000103235               0.999999988              -0.000960407              -0.000080185               0.999999988              -0.000956092              -0.000050670               0.999999988              -0.000949001              -0.000012969               0.999999988              -0.000851402              -0.000363791               0.999999988              -0.000863066              -0.000288762               0.999999988              -0.000861050              -0.000256901               0.999999988              -0.000858162              -0.000244656               0.999999988              -0.000857044              -0.000241562               0.999999988              -0.000857813              -0.000241884               0.999999988              -0.000859819              -0.000242766               0.999999988              -0.000862184              -0.000242674               0.999999988              -0.000864140              -0.000240386               0.999999988              -0.000865056              -0.000234960               0.999999988              -0.000864351              -0.000225529               0.999999988              -0.000861616              -0.000211364               0.999999988              -0.000856536              -0.000192004               0.999999988              -0.000848750              -0.000167099               0.999999988              -0.000838164              -0.000135968               0.999999988              -0.000824848              -0.000097501               0.999999988              -0.000809137              -0.000050957               0.999999988              -0.000818201              -0.000480225               0.999999988              -0.000805844              -0.000384402               0.999999988              -0.000791773              -0.000346811               0.999999988              -0.000782464              -0.000334114               0.999999988              -0.000777508              -0.000332158               0.999999988              -0.000775079              -0.000333904               0.999999988              -0.000773593              -0.000335814               0.999999988              -0.000771788              -0.000335990               0.999999988              -0.000768492              -0.000332962               0.999999988              -0.000762997              -0.000325583               0.999999988              -0.000754833              -0.000313317               0.999999988              -0.000743645              -0.000295283               0.999999988              -0.000729222              -0.000271318               0.999999988              -0.000711534              -0.000241108               0.999999988              -0.000690748              -0.000204480               0.999999988              -0.000667341              -0.000161304               0.999999988              -0.000642040              -0.000111865               0.999999988              -0.000776607              -0.000592477               0.999999988              -0.000737259              -0.000479847               0.999999988              -0.000711985              -0.000439509               0.999999988              -0.000697756              -0.000428001               0.999999988              -0.000689868              -0.000427992               0.999999988              -0.000684765              -0.000431631               0.999999988              -0.000679975              -0.000434688               0.999999988              -0.000673584              -0.000434854               0.999999988              -0.000664361              -0.000430751               0.999999988              -0.000651610              -0.000421310               0.999999988              -0.000634959              -0.000406094               0.999999988              -0.000614233              -0.000384844               0.999999988              -0.000589520              -0.000357135               0.999999988              -0.000561169              -0.000323190               0.999999988              -0.000529700              -0.000283394               0.999999988              -0.000495853              -0.000238615               0.999999988              -0.000460721              -0.000190094               0.999999988              -0.000727319              -0.000699595               0.999999988              -0.000660594              -0.000575202               0.999999988              -0.000626787              -0.000534702               0.999999988              -0.000609978              -0.000525297               0.999999988              -0.000600653              -0.000527512               0.999999988              -0.000593677              -0.000532990               0.999999988              -0.000585503              -0.000536795               0.999999988              -0.000574056              -0.000536607               0.999999988              -0.000558137              -0.000531062               0.999999988              -0.000537116              -0.000519415               0.999999988              -0.000510944              -0.000501526               0.999999988              -0.000479774              -0.000477317               0.999999988              -0.000444019              -0.000446711               0.999999988              -0.000404421              -0.000410322               0.999999988              -0.000361948              -0.000369358               0.999999988              -0.000317707              -0.000325205               0.999999988              -0.000272947              -0.000279979               0.999999988              -0.000671291              -0.000800431               0.999999988              -0.000579441              -0.000670323               0.999999988              -0.000540870              -0.000631437               0.999999988              -0.000524164              -0.000624344               0.999999988              -0.000514941              -0.000628492               0.999999988              -0.000506445              -0.000635256               0.999999988              -0.000494580              -0.000639352               0.999999988              -0.000477316              -0.000638401               0.999999988              -0.000453559              -0.000631278               0.999999988              -0.000423235              -0.000617368               0.999999988              -0.000386542              -0.000596836               0.999999988              -0.000343995              -0.000570151               0.999999988              -0.000296466              -0.000537554               0.999999988              -0.000245139              -0.000500489               0.999999988              -0.000191424              -0.000460572               0.999999988              -0.000136775              -0.000419594               0.999999988              -0.000082472              -0.000379125               0.999999988              -0.000610230              -0.000893019               0.999999988              -0.000496617              -0.000765153               0.999999988              -0.000458642              -0.000728148               0.999999988              -0.000444134              -0.000722790               0.999999988              -0.000435719              -0.000728544               0.999999988              -0.000425591              -0.000736073               0.999999988              -0.000409329              -0.000740002               0.999999988              -0.000385056              -0.000737970               0.999999988              -0.000352420              -0.000729049               0.999999988              -0.000311654              -0.000713026               0.999999988              -0.000263308              -0.000690366               0.999999988              -0.000208324              -0.000662009               0.999999988              -0.000148040              -0.000629111               0.999999988              -0.000084285              -0.000593557               0.999999988              -0.000018904              -0.000557322               0.999999988               0.000046685              -0.000522007               0.999999988               0.000111696              -0.000488050               0.999999988              -0.000546793              -0.000980796               0.999999988              -0.000427038              -0.000872218               0.999999988              -0.000386967              -0.000832107               0.999999988              -0.000372387              -0.000822755               0.999999988              -0.000365035              -0.000826365               0.999999988              -0.000357293              -0.000834228               0.999999988              -0.000344553              -0.000841297               0.999999988              -0.000324674              -0.000844681               0.999999988              -0.000297274              -0.000843159               0.999999988              -0.000262163              -0.000836172               0.999999988              -0.000219691              -0.000823777               0.999999988              -0.000170109              -0.000806568               0.999999988              -0.000114065              -0.000785255               0.999999988              -0.000052903              -0.000760881               0.999999988               0.000011881              -0.000735015               0.999999988               0.000078615              -0.000709182               0.999999988               0.000145798              -0.000684614               0.999999988              -0.000477758              -0.001060765               0.999999988              -0.000359930              -0.000976070               0.999999988              -0.000317957              -0.000938936               0.999999988              -0.000302357              -0.000927811               0.999999988              -0.000295330              -0.000930222               0.999999988              -0.000288974              -0.000938600               0.999999988              -0.000279140              -0.000948425               0.999999988              -0.000263418              -0.000956621               0.999999988              -0.000241050              -0.000961737               0.999999988              -0.000211537              -0.000962888               0.999999988              -0.000174887              -0.000960002               0.999999988              -0.000131081              -0.000953082               0.999999988              -0.000080437              -0.000942634               0.999999988              -0.000023435              -0.000929144               0.999999988               0.000039007              -0.000913640               0.999999988               0.000105502              -0.000897214               0.999999988               0.000174274              -0.000881265               0.999999988              -0.000404624              -0.001130885               0.999999988              -0.000295386              -0.001073245               0.999999988              -0.000253170              -0.001043739               0.999999988              -0.000236485              -0.001033848               0.999999988              -0.000229036              -0.001036460               0.999999988              -0.000223519              -0.001045896               0.999999988              -0.000215856              -0.001058346               0.999999988              -0.000203614              -0.001071089               0.999999988              -0.000185816              -0.001082227               0.999999988              -0.000161758              -0.001090903               0.999999988              -0.000131135              -0.001096700               0.999999988              -0.000093675              -0.001099557               0.999999988              -0.000049155              -0.001099498               0.999999988               0.000002340              -0.001096619               0.999999988               0.000060518              -0.001091460               0.999999988               0.000125013              -0.001084762               0.999999988               0.000194368              -0.001077714               0.999999988              -0.000328035              -0.001190037               0.999999988              -0.000233294              -0.001159720               0.999999988              -0.000193622              -0.001140944               0.999999988              -0.000176590              -0.001135211               0.999999988              -0.000168832              -0.001139627               0.999999988              -0.000163589              -0.001150988               0.999999988              -0.000157414              -0.001166192               0.999999988              -0.000148137              -0.001183022               0.999999988              -0.000134444              -0.001199799               0.999999988              -0.000115562              -0.001215472               0.999999988              -0.000090990              -0.001229374               0.999999988              -0.000060342              -0.001241250               0.999999988              -0.000023141              -0.001250868               0.999999988               0.000021248              -0.001258293               0.999999988               0.000073247              -0.001263555               0.999999988               0.000133064              -0.001267000               0.999999988               0.000200465              -0.001269321               0.999999988              -0.000248638              -0.001237179               0.999999988              -0.000173215              -0.001231722               0.999999988              -0.000139404              -0.001224869               0.999999988              -0.000123757              -0.001224939               0.999999988              -0.000116235              -0.001232703               0.999999988              -0.000111428              -0.001246505               0.999999988              -0.000106505              -0.001264620               0.999999988              -0.000099657              -0.001285272               0.999999988              -0.000089679              -0.001306957               0.999999988              -0.000075717              -0.001328817               0.999999988              -0.000057253              -0.001350033               0.999999988              -0.000033869              -0.001370129               0.999999988              -0.000004876              -0.001388739               0.999999988               0.000030688              -0.001405753               0.999999988               0.000073741              -0.001421022               0.999999988               0.000125305              -0.001434457               0.999999988               0.000186162              -0.001446271               0.999999988              -0.000167006              -0.001271699               0.999999988              -0.000114675              -0.001285895               0.999999988              -0.000089931              -0.001289869               0.999999988              -0.000077818              -0.001295990               0.999999988              -0.000071603              -0.001307398               0.999999988              -0.000067828              -0.001324010               0.999999988              -0.000064199              -0.001344818               0.999999988              -0.000059653              -0.001368687               0.999999988              -0.000052977              -0.001394546               0.999999988              -0.000043720              -0.001421497               0.999999988              -0.000031511              -0.001448812               0.999999988              -0.000015671              -0.001475863               0.999999988               0.000004445              -0.001502326               0.999999988               0.000029572              -0.001527851               0.999999988               0.000060743              -0.001552078               0.999999988               0.000099276              -0.001574723               0.999999988               0.000147007              -0.001595411               0.999999988              -0.000083871              -0.001292782               0.999999988              -0.000057137              -0.001319673               0.999999988              -0.000043976              -0.001331211               0.999999988              -0.000037382              -0.001341961               0.999999988              -0.000033807              -0.001356178               0.999999988              -0.000031673              -0.001374891               0.999999988              -0.000029835              -0.001397780               0.999999988              -0.000027446              -0.001424014               0.999999988              -0.000023961              -0.001452696               0.999999988              -0.000019280              -0.001482884               0.999999988              -0.000013261              -0.001514090               0.999999988              -0.000005303              -0.001545864               0.999999988               0.000004949              -0.001577776               0.999999988               0.000017994              -0.001609380               0.999999988               0.000034520              -0.001640181               0.999999988               0.000055287              -0.001669572               0.999999988               0.000081765              -0.001696827               0.999999988              -0.000000000              -0.001299785               0.999999988               0.000000000              -0.001331155               0.999999988              -0.000000000              -0.001345438               0.999999988               0.000000000              -0.001357793               0.999999988               0.000000000              -0.001373125               0.999999988              -0.000000000              -0.001392720               0.999999988              -0.000000000              -0.001416470               0.999999988               0.000000000              -0.001443610               0.999999988               0.000000000              -0.001473281               0.999999988               0.000000000              -0.001504558               0.999999988              -0.000000000              -0.001537129               0.999999988              -0.000000000              -0.001570581               0.999999988               0.000000000              -0.001604354               0.999999988              -0.000000000              -0.001638093               0.999999988              -0.000000000              -0.001671258               0.999999988               0.000000000              -0.001703169               0.999999988              -0.000000000              -0.001732921               0.999999988               0.000895171               0.000000000               0.999999988               0.000941688               0.000000000               0.999999988               0.000960608               0.000000000               0.999999988               0.000970461               0.000000000               0.999999988               0.000978052              -0.000000000               0.999999988               0.000985827              -0.000000000               0.999999988               0.000994425               0.000000000               0.999999988               0.001004020              -0.000000000               0.999999988               0.001014314              -0.000000000               0.999999988               0.001025106              -0.000000000               0.999999988               0.001036119               0.000000000               0.999999988               0.001046937               0.000000000               0.999999988               0.001057025              -0.000000000               0.999999988               0.001065931               0.000000000               0.999999988               0.001073170              -0.000000000               0.999999988               0.001078180              -0.000000000               0.999999988               0.001080093               0.000000000               0.999999988               0.000890169              -0.000122627               0.999999988               0.000932625              -0.000096521               0.999999988               0.000948908              -0.000084266               0.999999988               0.000957077              -0.000078817               0.999999988               0.000963493              -0.000076884               0.999999988               0.000970257              -0.000076434               0.999999988               0.000977948              -0.000076373               0.999999988               0.000986554              -0.000076138               0.999999988               0.000995736              -0.000075293               0.999999988               0.001005283              -0.000073550               0.999999988               0.001014851              -0.000070398               0.999999988               0.001023908              -0.000065338               0.999999988               0.001031980              -0.000058202               0.999999988               0.001038616              -0.000048767               0.999999988               0.001043389              -0.000036503               0.999999988               0.001045768              -0.000020320               0.999999988               0.001045064               0.000001274               0.999999988               0.000875500              -0.000244234               0.999999988               0.000906040              -0.000192816               0.999999988               0.000914839              -0.000169576               0.999999988               0.000918278              -0.000159850               0.999999988               0.000921419              -0.000156732               0.999999988               0.000925556              -0.000156280               0.999999988               0.000930816              -0.000156485               0.999999988               0.000936864              -0.000156225               0.999999988               0.000943183              -0.000154590               0.999999988               0.000949236              -0.000151014               0.999999988               0.000954611              -0.000144620               0.999999988               0.000958831              -0.000134754               0.999999988               0.000961460              -0.000121108               0.999999988               0.000962107              -0.000103235               0.999999988               0.000960407              -0.000080185               0.999999988               0.000956092              -0.000050670               0.999999988               0.000949001              -0.000012969               0.999999988               0.000851402              -0.000363791               0.999999988               0.000863066              -0.000288762               0.999999988               0.000861050              -0.000256901               0.999999988               0.000858162              -0.000244656               0.999999988               0.000857044              -0.000241562               0.999999988               0.000857813              -0.000241884               0.999999988               0.000859819              -0.000242766               0.999999988               0.000862184              -0.000242674               0.999999988               0.000864140              -0.000240386               0.999999988               0.000865056              -0.000234960               0.999999988               0.000864351              -0.000225529               0.999999988               0.000861616              -0.000211364               0.999999988               0.000856536              -0.000192004               0.999999988               0.000848750              -0.000167099               0.999999988               0.000838164              -0.000135968               0.999999988               0.000824848              -0.000097501               0.999999988               0.000809137              -0.000050957               0.999999988               0.000818201              -0.000480225               0.999999988               0.000805844              -0.000384402               0.999999988               0.000791773              -0.000346811               0.999999988               0.000782464              -0.000334114               0.999999988               0.000777508              -0.000332158               0.999999988               0.000775079              -0.000333904               0.999999988               0.000773593              -0.000335814               0.999999988               0.000771788              -0.000335990               0.999999988               0.000768492              -0.000332962               0.999999988               0.000762997              -0.000325583               0.999999988               0.000754833              -0.000313317               0.999999988               0.000743645              -0.000295283               0.999999988               0.000729222              -0.000271318               0.999999988               0.000711534              -0.000241108               0.999999988               0.000690748              -0.000204480               0.999999988               0.000667341              -0.000161304               0.999999988               0.000642040              -0.000111865               0.999999988               0.000776607              -0.000592477               0.999999988               0.000737259              -0.000479847               0.999999988               0.000711985              -0.000439509               0.999999988               0.000697756              -0.000428001               0.999999988               0.000689868              -0.000427992               0.999999988               0.000684765              -0.000431631               0.999999988               0.000679975              -0.000434688               0.999999988               0.000673584              -0.000434854               0.999999988               0.000664361              -0.000430751               0.999999988               0.000651610              -0.000421310               0.999999988               0.000634959              -0.000406094               0.999999988               0.000614233              -0.000384844               0.999999988               0.000589520              -0.000357135               0.999999988               0.000561169              -0.000323190               0.999999988               0.000529700              -0.000283394               0.999999988               0.000495853              -0.000238615               0.999999988               0.000460721              -0.000190094               0.999999988               0.000727319              -0.000699595               0.999999988               0.000660594              -0.000575202               0.999999988               0.000626787              -0.000534702               0.999999988               0.000609978              -0.000525297               0.999999988               0.000600653              -0.000527512               0.999999988               0.000593677              -0.000532990               0.999999988               0.000585503              -0.000536795               0.999999988               0.000574056              -0.000536607               0.999999988               0.000558137              -0.000531062               0.999999988               0.000537116              -0.000519415               0.999999988               0.000510944              -0.000501526               0.999999988               0.000479774              -0.000477317               0.999999988               0.000444019              -0.000446711               0.999999988               0.000404421              -0.000410322               0.999999988               0.000361948              -0.000369358               0.999999988               0.000317707              -0.000325205               0.999999988               0.000272947              -0.000279979               0.999999988               0.000671291              -0.000800431               0.999999988               0.000579441              -0.000670323               0.999999988               0.000540870              -0.000631437               0.999999988               0.000524164              -0.000624344               0.999999988               0.000514941              -0.000628492               0.999999988               0.000506445              -0.000635256               0.999999988               0.000494580              -0.000639352               0.999999988               0.000477316              -0.000638401               0.999999988               0.000453559              -0.000631278               0.999999988               0.000423235              -0.000617368               0.999999988               0.000386542              -0.000596836               0.999999988               0.000343995              -0.000570151               0.999999988               0.000296466              -0.000537554               0.999999988               0.000245139              -0.000500489               0.999999988               0.000191424              -0.000460572               0.999999988               0.000136775              -0.000419594               0.999999988               0.000082472              -0.000379125               0.999999988               0.000610230              -0.000893019               0.999999988               0.000496617              -0.000765153               0.999999988               0.000458642              -0.000728148               0.999999988               0.000444134              -0.000722790               0.999999988               0.000435719              -0.000728544               0.999999988               0.000425591              -0.000736073               0.999999988               0.000409329              -0.000740002               0.999999988               0.000385056              -0.000737970               0.999999988               0.000352420              -0.000729049               0.999999988               0.000311654              -0.000713026               0.999999988               0.000263308              -0.000690366               0.999999988               0.000208324              -0.000662009               0.999999988               0.000148040              -0.000629111               0.999999988               0.000084285              -0.000593557               0.999999988               0.000018904              -0.000557322               0.999999988              -0.000046685              -0.000522007               0.999999988              -0.000111696              -0.000488050               0.999999988               0.000546793              -0.000980796               0.999999988               0.000427038              -0.000872218               0.999999988               0.000386967              -0.000832107               0.999999988               0.000372387              -0.000822755               0.999999988               0.000365035              -0.000826365               0.999999988               0.000357293              -0.000834228               0.999999988               0.000344553              -0.000841297               0.999999988               0.000324674              -0.000844681               0.999999988               0.000297274              -0.000843159               0.999999988               0.000262163              -0.000836172               0.999999988               0.000219691              -0.000823777               0.999999988               0.000170109              -0.000806568               0.999999988               0.000114065              -0.000785255               0.999999988               0.000052903              -0.000760881               0.999999988              -0.000011881              -0.000735015               0.999999988              -0.000078615              -0.000709182               0.999999988              -0.000145798              -0.000684614               0.999999988               0.000477758              -0.001060765               0.999999988               0.000359930              -0.000976070               0.999999988               0.000317957              -0.000938936               0.999999988               0.000302357              -0.000927811               0.999999988               0.000295330              -0.000930222               0.999999988               0.000288974              -0.000938600               0.999999988               0.000279140              -0.000948425               0.999999988               0.000263418              -0.000956621               0.999999988               0.000241050              -0.000961737               0.999999988               0.000211537              -0.000962888               0.999999988               0.000174887              -0.000960002               0.999999988               0.000131081              -0.000953082               0.999999988               0.000080437              -0.000942634               0.999999988               0.000023435              -0.000929144               0.999999988              -0.000039007              -0.000913640               0.999999988              -0.000105502              -0.000897214               0.999999988              -0.000174274              -0.000881265               0.999999988               0.000404624              -0.001130885               0.999999988               0.000295386              -0.001073245               0.999999988               0.000253170              -0.001043739               0.999999988               0.000236485              -0.001033848               0.999999988               0.000229036              -0.001036460               0.999999988               0.000223519              -0.001045896               0.999999988               0.000215856              -0.001058346               0.999999988               0.000203614              -0.001071089               0.999999988               0.000185816              -0.001082227               0.999999988               0.000161758              -0.001090903               0.999999988               0.000131135              -0.001096700               0.999999988               0.000093675              -0.001099557               0.999999988               0.000049155              -0.001099498               0.999999988              -0.000002340              -0.001096619               0.999999988              -0.000060518              -0.001091460               0.999999988              -0.000125013              -0.001084762               0.999999988              -0.000194368              -0.001077714               0.999999988               0.000328035              -0.001190037               0.999999988               0.000233294              -0.001159720               0.999999988               0.000193622              -0.001140944               0.999999988               0.000176590              -0.001135211               0.999999988               0.000168832              -0.001139627               0.999999988               0.000163589              -0.001150988               0.999999988               0.000157414              -0.001166192               0.999999988               0.000148137              -0.001183022               0.999999988               0.000134444              -0.001199799               0.999999988               0.000115562              -0.001215472               0.999999988               0.000090990              -0.001229374               0.999999988               0.000060342              -0.001241250               0.999999988               0.000023141              -0.001250868               0.999999988              -0.000021248              -0.001258293               0.999999988              -0.000073247              -0.001263555               0.999999988              -0.000133064              -0.001267000               0.999999988              -0.000200465              -0.001269321               0.999999988               0.000248638              -0.001237179               0.999999988               0.000173215              -0.001231722               0.999999988               0.000139404              -0.001224869               0.999999988               0.000123757              -0.001224939               0.999999988               0.000116235              -0.001232703               0.999999988               0.000111428              -0.001246505               0.999999988               0.000106505              -0.001264620               0.999999988               0.000099657              -0.001285272               0.999999988               0.000089679              -0.001306957               0.999999988               0.000075717              -0.001328817               0.999999988               0.000057253              -0.001350033               0.999999988               0.000033869              -0.001370129               0.999999988               0.000004876              -0.001388739               0.999999988              -0.000030688              -0.001405753               0.999999988              -0.000073741              -0.001421022               0.999999988              -0.000125305              -0.001434457               0.999999988              -0.000186162              -0.001446271               0.999999988               0.000167006              -0.001271699               0.999999988               0.000114675              -0.001285895               0.999999988               0.000089931              -0.001289869               0.999999988               0.000077818              -0.001295990               0.999999988               0.000071603              -0.001307398               0.999999988               0.000067828              -0.001324010               0.999999988               0.000064199              -0.001344818               0.999999988               0.000059653              -0.001368687               0.999999988               0.000052977              -0.001394546               0.999999988               0.000043720              -0.001421497               0.999999988               0.000031511              -0.001448812               0.999999988               0.000015671              -0.001475863               0.999999988              -0.000004445              -0.001502326               0.999999988              -0.000029572              -0.001527851               0.999999988              -0.000060743              -0.001552078               0.999999988              -0.000099276              -0.001574723               0.999999988              -0.000147007              -0.001595411               0.999999988               0.000083871              -0.001292782               0.999999988               0.000057137              -0.001319673               0.999999988               0.000043976              -0.001331211               0.999999988               0.000037382              -0.001341961               0.999999988               0.000033807              -0.001356178               0.999999988               0.000031673              -0.001374891               0.999999988               0.000029835              -0.001397780               0.999999988               0.000027446              -0.001424014               0.999999988               0.000023961              -0.001452696               0.999999988               0.000019280              -0.001482884               0.999999988               0.000013261              -0.001514090               0.999999988               0.000005303              -0.001545864               0.999999988              -0.000004949              -0.001577776               0.999999988              -0.000017994              -0.001609380               0.999999988              -0.000034520              -0.001640181               0.999999988              -0.000055287              -0.001669572               0.999999988              -0.000081765              -0.001696827               0.999999988              -0.000000000              -0.001299785               0.999999988               0.000000000              -0.001331155               0.999999988              -0.000000000              -0.001345438               0.999999988               0.000000000              -0.001357793               0.999999988               0.000000000              -0.001373125               0.999999988              -0.000000000              -0.001392720               0.999999988              -0.000000000              -0.001416470               0.999999988               0.000000000              -0.001443610               0.999999988               0.000000000              -0.001473281               0.999999988               0.000000000              -0.001504558               0.999999988              -0.000000000              -0.001537129               0.999999988              -0.000000000              -0.001570581               0.999999988               0.000000000              -0.001604354               0.999999988              -0.000000000              -0.001638093               0.999999988              -0.000000000              -0.001671258               0.999999988               0.000000000              -0.001703169               0.999999988              -0.000000000              -0.001732921               0.999999988               0.000895171               0.000000000               0.999999988               0.000941688               0.000000000               0.999999988               0.000960608               0.000000000               0.999999988               0.000970461               0.000000000               0.999999988               0.000978052              -0.000000000               0.999999988               0.000985827              -0.000000000               0.999999988               0.000994425               0.000000000               0.999999988               0.001004020              -0.000000000               0.999999988               0.001014314              -0.000000000               0.999999988               0.001025106              -0.000000000               0.999999988               0.001036119               0.000000000               0.999999988               0.001046937               0.000000000               0.999999988               0.001057025              -0.000000000               0.999999988               0.001065931               0.000000000               0.999999988               0.001073170              -0.000000000               0.999999988               0.001078180              -0.000000000               0.999999988               0.001080093               0.000000000               0.999999988               0.000890169               0.000122627               0.999999988               0.000932625               0.000096521               0.999999988               0.000948908               0.000084266               0.999999988               0.000957077               0.000078817               0.999999988               0.000963493               0.000076884               0.999999988               0.000970257               0.000076434               0.999999988               0.000977948               0.000076373               0.999999988               0.000986554               0.000076138               0.999999988               0.000995736               0.000075293               0.999999988               0.001005283               0.000073550               0.999999988               0.001014851               0.000070398               0.999999988               0.001023908               0.000065338               0.999999988               0.001031980               0.000058202               0.999999988               0.001038616               0.000048767               0.999999988               0.001043389               0.000036503               0.999999988               0.001045768               0.000020320               0.999999988               0.001045064              -0.000001274               0.999999988               0.000875500               0.000244234               0.999999988               0.000906040               0.000192816               0.999999988               0.000914839               0.000169576               0.999999988               0.000918278               0.000159850               0.999999988               0.000921419               0.000156732               0.999999988               0.000925556               0.000156280               0.999999988               0.000930816               0.000156485               0.999999988               0.000936864               0.000156225               0.999999988               0.000943183               0.000154590               0.999999988               0.000949236               0.000151014               0.999999988               0.000954611               0.000144620               0.999999988               0.000958831               0.000134754               0.999999988               0.000961460               0.000121108               0.999999988               0.000962107               0.000103235               0.999999988               0.000960407               0.000080185               0.999999988               0.000956092               0.000050670               0.999999988               0.000949001               0.000012969               0.999999988               0.000851402               0.000363791               0.999999988               0.000863066               0.000288762               0.999999988               0.000861050               0.000256901               0.999999988               0.000858162               0.000244656               0.999999988               0.000857044               0.000241562               0.999999988               0.000857813               0.000241884               0.999999988               0.000859819               0.000242766               0.999999988               0.000862184               0.000242674               0.999999988               0.000864140               0.000240386               0.999999988               0.000865056               0.000234960               0.999999988               0.000864351               0.000225529               0.999999988               0.000861616               0.000211364               0.999999988               0.000856536               0.000192004               0.999999988               0.000848750               0.000167099               0.999999988               0.000838164               0.000135968               0.999999988               0.000824848               0.000097501               0.999999988               0.000809137               0.000050957               0.999999988               0.000818201               0.000480225               0.999999988               0.000805844               0.000384402               0.999999988               0.000791773               0.000346811               0.999999988               0.000782464               0.000334114               0.999999988               0.000777508               0.000332158               0.999999988               0.000775079               0.000333904               0.999999988               0.000773593               0.000335814               0.999999988               0.000771788               0.000335990               0.999999988               0.000768492               0.000332962               0.999999988               0.000762997               0.000325583               0.999999988               0.000754833               0.000313317               0.999999988               0.000743645               0.000295283               0.999999988               0.000729222               0.000271318               0.999999988               0.000711534               0.000241108               0.999999988               0.000690748               0.000204480               0.999999988               0.000667341               0.000161304               0.999999988               0.000642040               0.000111865               0.999999988               0.000776607               0.000592477               0.999999988               0.000737259               0.000479847               0.999999988               0.000711985               0.000439509               0.999999988               0.000697756               0.000428001               0.999999988               0.000689868               0.000427992               0.999999988               0.000684765               0.000431631               0.999999988               0.000679975               0.000434688               0.999999988               0.000673584               0.000434854               0.999999988               0.000664361               0.000430751               0.999999988               0.000651610               0.000421310               0.999999988               0.000634959               0.000406094               0.999999988               0.000614233               0.000384844               0.999999988               0.000589520               0.000357135               0.999999988               0.000561169               0.000323190               0.999999988               0.000529700               0.000283394               0.999999988               0.000495853               0.000238615               0.999999988               0.000460721               0.000190094               0.999999988               0.000727319               0.000699595               0.999999988               0.000660594               0.000575202               0.999999988               0.000626787               0.000534702               0.999999988               0.000609978               0.000525297               0.999999988               0.000600653               0.000527512               0.999999988               0.000593677               0.000532990               0.999999988               0.000585503               0.000536795               0.999999988               0.000574056               0.000536607               0.999999988               0.000558137               0.000531062               0.999999988               0.000537116               0.000519415               0.999999988               0.000510944               0.000501526               0.999999988               0.000479774               0.000477317               0.999999988               0.000444019               0.000446711               0.999999988               0.000404421               0.000410322               0.999999988               0.000361948               0.000369358               0.999999988               0.000317707               0.000325205               0.999999988               0.000272947               0.000279979               0.999999988               0.000671291               0.000800431               0.999999988               0.000579441               0.000670323               0.999999988               0.000540870               0.000631437               0.999999988               0.000524164               0.000624344               0.999999988               0.000514941               0.000628492               0.999999988               0.000506445               0.000635256               0.999999988               0.000494580               0.000639352               0.999999988               0.000477316               0.000638401               0.999999988               0.000453559               0.000631278               0.999999988               0.000423235               0.000617368               0.999999988               0.000386542               0.000596836               0.999999988               0.000343995               0.000570151               0.999999988               0.000296466               0.000537554               0.999999988               0.000245139               0.000500489               0.999999988               0.000191424               0.000460572               0.999999988               0.000136775               0.000419594               0.999999988               0.000082472               0.000379125               0.999999988               0.000610230               0.000893019               0.999999988               0.000496617               0.000765153               0.999999988               0.000458642               0.000728148               0.999999988               0.000444134               0.000722790               0.999999988               0.000435719               0.000728544               0.999999988               0.000425591               0.000736073               0.999999988               0.000409329               0.000740002               0.999999988               0.000385056               0.000737970               0.999999988               0.000352420               0.000729049               0.999999988               0.000311654               0.000713026               0.999999988               0.000263308               0.000690366               0.999999988               0.000208324               0.000662009               0.999999988               0.000148040               0.000629111               0.999999988               0.000084285               0.000593557               0.999999988               0.000018904               0.000557322               0.999999988              -0.000046685               0.000522007               0.999999988              -0.000111696               0.000488050               0.999999988               0.000546793               0.000980796               0.999999988               0.000427038               0.000872218               0.999999988               0.000386967               0.000832107               0.999999988               0.000372387               0.000822755               0.999999988               0.000365035               0.000826365               0.999999988               0.000357293               0.000834228               0.999999988               0.000344553               0.000841297               0.999999988               0.000324674               0.000844681               0.999999988               0.000297274               0.000843159               0.999999988               0.000262163               0.000836172               0.999999988               0.000219691               0.000823777               0.999999988               0.000170109               0.000806568               0.999999988               0.000114065               0.000785255               0.999999988               0.000052903               0.000760881               0.999999988              -0.000011881               0.000735015               0.999999988              -0.000078615               0.000709182               0.999999988              -0.000145798               0.000684614               0.999999988               0.000477758               0.001060765               0.999999988               0.000359930               0.000976070               0.999999988               0.000317957               0.000938936               0.999999988               0.000302357               0.000927811               0.999999988               0.000295330               0.000930222               0.999999988               0.000288974               0.000938600               0.999999988               0.000279140               0.000948425               0.999999988               0.000263418               0.000956621               0.999999988               0.000241050               0.000961737               0.999999988               0.000211537               0.000962888               0.999999988               0.000174887               0.000960002               0.999999988               0.000131081               0.000953082               0.999999988               0.000080437               0.000942634               0.999999988               0.000023435               0.000929144               0.999999988              -0.000039007               0.000913640               0.999999988              -0.000105502               0.000897214               0.999999988              -0.000174274               0.000881265               0.999999988               0.000404624               0.001130885               0.999999988               0.000295386               0.001073245               0.999999988               0.000253170               0.001043739               0.999999988               0.000236485               0.001033848               0.999999988               0.000229036               0.001036460               0.999999988               0.000223519               0.001045896               0.999999988               0.000215856               0.001058346               0.999999988               0.000203614               0.001071089               0.999999988               0.000185816               0.001082227               0.999999988               0.000161758               0.001090903               0.999999988               0.000131135               0.001096700               0.999999988               0.000093675               0.001099557               0.999999988               0.000049155               0.001099498               0.999999988              -0.000002340               0.001096619               0.999999988              -0.000060518               0.001091460               0.999999988              -0.000125013               0.001084762               0.999999988              -0.000194368               0.001077714               0.999999988               0.000328035               0.001190037               0.999999988               0.000233294               0.001159720               0.999999988               0.000193622               0.001140944               0.999999988               0.000176590               0.001135211               0.999999988               0.000168832               0.001139627               0.999999988               0.000163589               0.001150988               0.999999988               0.000157414               0.001166192               0.999999988               0.000148137               0.001183022               0.999999988               0.000134444               0.001199799               0.999999988               0.000115562               0.001215472               0.999999988               0.000090990               0.001229374               0.999999988               0.000060342               0.001241250               0.999999988               0.000023141               0.001250868               0.999999988              -0.000021248               0.001258293               0.999999988              -0.000073247               0.001263555               0.999999988              -0.000133064               0.001267000               0.999999988              -0.000200465               0.001269321               0.999999988               0.000248638               0.001237179               0.999999988               0.000173215               0.001231722               0.999999988               0.000139404               0.001224869               0.999999988               0.000123757               0.001224939               0.999999988               0.000116235               0.001232703               0.999999988               0.000111428               0.001246505               0.999999988               0.000106505               0.001264620               0.999999988               0.000099657               0.001285272               0.999999988               0.000089679               0.001306957               0.999999988               0.000075717               0.001328817               0.999999988               0.000057253               0.001350033               0.999999988               0.000033869               0.001370129               0.999999988               0.000004876               0.001388739               0.999999988              -0.000030688               0.001405753               0.999999988              -0.000073741               0.001421022               0.999999988              -0.000125305               0.001434457               0.999999988              -0.000186162               0.001446271               0.999999988               0.000167006               0.001271699               0.999999988               0.000114675               0.001285895               0.999999988               0.000089931               0.001289869               0.999999988               0.000077818               0.001295990               0.999999988               0.000071603               0.001307398               0.999999988               0.000067828               0.001324010               0.999999988               0.000064199               0.001344818               0.999999988               0.000059653               0.001368687               0.999999988               0.000052977               0.001394546               0.999999988               0.000043720               0.001421497               0.999999988               0.000031511               0.001448812               0.999999988               0.000015671               0.001475863               0.999999988              -0.000004445               0.001502326               0.999999988              -0.000029572               0.001527851               0.999999988              -0.000060743               0.001552078               0.999999988              -0.000099276               0.001574723               0.999999988              -0.000147007               0.001595411               0.999999988               0.000083871               0.001292782               0.999999988               0.000057137               0.001319673               0.999999988               0.000043976               0.001331211               0.999999988               0.000037382               0.001341961               0.999999988               0.000033807               0.001356178               0.999999988               0.000031673               0.001374891               0.999999988               0.000029835               0.001397780               0.999999988               0.000027446               0.001424014               0.999999988               0.000023961               0.001452696               0.999999988               0.000019280               0.001482884               0.999999988               0.000013261               0.001514090               0.999999988               0.000005303               0.001545864               0.999999988              -0.000004949               0.001577776               0.999999988              -0.000017994               0.001609380               0.999999988              -0.000034520               0.001640181               0.999999988              -0.000055287               0.001669572               0.999999988              -0.000081765               0.001696827               0.999999988               0.000000000               0.001299785               0.999999988               0.000000000               0.001331155               0.999999988              -0.000000000               0.001345438               0.999999988               0.000000000               0.001357793               0.999999988               0.000000000               0.001373125               0.999999988              -0.000000000               0.001392720               0.999999988               0.000000000               0.001416470               0.999999988              -0.000000000               0.001443610               0.999999988              -0.000000000               0.001473281               0.999999988              -0.000000000               0.001504558               0.999999988              -0.000000000               0.001537129               0.999999988              -0.000000000               0.001570581               0.999999988              -0.000000000               0.001604354               0.999999988               0.000000000               0.001638093               0.999999988               0.000000000               0.001671258               0.999999988               0.000000000               0.001703169               0.999999988              -0.000000000               0.001732921               0.999999988 </DataArray>
<DataArray type="Float64"                                    Name="defo"                                                      NumberOfComponents=" 3" format="ascii">
             -0.000895171               0.000000000               0.999999988              -0.000941688               0.000000000               0.999999988              -0.000960608              -0.000000000               0.999999988              -0.000970461               0.000000000               0.999999988              -0.000978052              -0.000000000               0.999999988              -0.000985827              -0.000000000               0.999999988              -0.000994425              -0.000000000               0.999999988              -0.001004020              -0.000000000               0.999999988              -0.001014314              -0.000000000               0.999999988              -0.001025106               0.000000000               0.999999988              -0.001036119               0.000000000               0.999999988              -0.001046937               0.000000000               0.999999988              -0.001057025               0.000000000               0.999999988              -0.001065931              -0.000000000               0.999999988              -0.001073170               0.000000000               0.999999988              -0.001078180               0.000000000               0.999999988              -0.001080093               0.000000000               0.999999988              -0.000890169               0.000122627               0.999999988              -0.000932625               0.000096521               0.999999988              -0.000948908               0.000084266               0.999999988              -0.000957077               0.000078817               0.999999988              -0.000963493               0.000076884               0.999999988              -0.000970257               0.000076434               0.999999988              -0.000977948               0.000076373               0.999999988              -0.000986554               0.000076138               0.999999988              -0.000995736               0.000075293               0.999999988              -0.001005283               0.000073550               0.999999988              -0.001014851               0.000070398               0.999999988              -0.001023908               0.000065338               0.999999988              -0.001031980               0.000058202               0.999999988              -0.001038616               0.000048767               0.999999988              -0.001043389               0.000036503               0.999999988              -0.001045768               0.000020320               0.999999988              -0.001045064              -0.000001274               0.999999988              -0.000875500               0.000244234               0.999999988              -0.000906040               0.000192816               0.999999988              -0.000914839               0.000169576               0.999999988              -0.000918278               0.000159850               0.999999988              -0.000921419               0.000156732               0.999999988              -0.000925556               0.000156280               0.999999988              -0.000930816               0.000156485               0.999999988              -0.000936864               0.000156225               0.999999988              -0.000943183               0.000154590               0.999999988              -0.000949236               0.000151014               0.999999988              -0.000954611               0.000144620               0.999999988              -0.000958831               0.000134754               0.999999988              -0.000961460               0.000121108               0.999999988              -0.000962107               0.000103235               0.999999988              -0.000960407               0.000080185               0.999999988              -0.000956092               0.000050670               0.999999988              -0.000949001               0.000012969               0.999999988              -0.000851402               0.000363791               0.999999988              -0.000863066               0.000288762               0.999999988              -0.000861050               0.000256901               0.999999988              -0.000858162               0.000244656               0.999999988              -0.000857044               0.000241562               0.999999988              -0.000857813               0.000241884               0.999999988              -0.000859819               0.000242766               0.999999988              -0.000862184               0.000242674               0.999999988              -0.000864140               0.000240386               0.999999988              -0.000865056               0.000234960               0.999999988              -0.000864351               0.000225529               0.999999988              -0.000861616               0.000211364               0.999999988              -0.000856536               0.000192004               0.999999988              -0.000848750               0.000167099               0.999999988              -0.000838164               0.000135968               0.999999988              -0.000824848               0.000097501               0.999999988              -0.000809137               0.000050957               0.999999988              -0.000818201               0.000480225               0.999999988              -0.000805844               0.000384402               0.999999988              -0.000791773               0.000346811               0.999999988              -0.000782464               0.000334114               0.999999988              -0.000777508               0.000332158               0.999999988              -0.000775079               0.000333904               0.999999988              -0.000773593               0.000335814               0.999999988              -0.000771788               0.000335990               0.999999988              -0.000768492               0.000332962               0.999999988              -0.000762997               0.000325583               0.999999988              -0.000754833               0.000313317               0.999999988              -0.000743645               0.000295283               0.999999988              -0.000729222               0.000271318               0.999999988              -0.000711534               0.000241108               0.999999988              -0.000690748               0.000204480               0.999999988              -0.000667341               0.000161304               0.999999988              -0.000642040               0.000111865               0.999999988              -0.000776607               0.000592477               0.999999988              -0.000737259               0.000479847               0.999999988              -0.000711985               0.000439509               0.999999988              -0.000697756               0.000428001               0.999999988              -0.000689868               0.000427992               0.999999988              -0.000684765               0.000431631               0.999999988              -0.000679975               0.000434688               0.999999988              -0.000673584               0.000434854               0.999999988              -0.000664361               0.000430751               0.999999988              -0.000651610               0.000421310               0.999999988              -0.000634959               0.000406094               0.999999988              -0.000614233               0.000384844               0.999999988              -0.000589520               0.000357135               0.999999988              -0.000561169               0.000323190               0.999999988              -0.000529700               0.000283394               0.999999988              -0.000495853               0.000238615               0.999999988              -0.000460721               0.000190094               0.999999988              -0.000727319               0.000699595               0.999999988              -0.000660594               0.000575202               0.999999988              -0.000626787               0.000534702               0.999999988              -0.000609978               0.000525297               0.999999988              -0.000600653               0.000527512               0.999999988              -0.000593677               0.000532990               0.999999988              -0.000585503               0.000536795               0.999999988              -0.000574056               0.000536607               0.999999988              -0.000558137               0.000531062               0.999999988              -0.000537116               0.000519415               0.999999988              -0.000510944               0.000501526               0.999999988              -0.000479774               0.000477317               0.999999988              -0.000444019               0.000446711               0.999999988              -0.000404421               0.000410322               0.999999988              -0.000361948               0.000369358               0.999999988              -0.000317707               0.000325205               0.999999988              -0.000272947               0.000279979               0.999999988              -0.000671291               0.000800431               0.999999988              -0.000579441               0.000670323               0.999999988              -0.000540870               0.000631437               0.999999988              -0.000524164               0.000624344               0.999999988              -0.000514941               0.000628492               0.999999988              -0.000506445               0.000635256               0.999999988              -0.000494580               0.000639352               0.999999988              -0.000477316               0.000638401               0.999999988              -0.000453559               0.000631278               0.999999988              -0.000423235               0.000617368               0.999999988              -0.000386542               0.000596836               0.999999988              -0.000343995               0.000570151               0.999999988              -0.000296466               0.000537554               0.999999988              -0.000245139               0.000500489               0.999999988              -0.000191424               0.000460572               0.999999988              -0.000136775               0.000419594               0.999999988              -0.000082472               0.000379125               0.999999988              -0.000610230               0.000893019               0.999999988              -0.000496617               0.000765153               0.999999988              -0.000458642               0.000728148               0.999999988              -0.000444134               0.000722790               0.999999988              -0.000435719               0.000728544               0.999999988              -0.000425591               0.000736073               0.999999988              -0.000409329               0.000740002               0.999999988              -0.000385056               0.000737970               0.999999988              -0.000352420               0.000729049               0.999999988              -0.000311654               0.000713026               0.999999988              -0.000263308               0.000690366               0.999999988              -0.000208324               0.000662009               0.999999988              -0.000148040               0.000629111               0.999999988              -0.000084285               0.000593557               0.999999988              -0.000018904               0.000557322               0.999999988               0.000046685               0.000522007               0.999999988               0.000111696               0.000488050               0.999999988              -0.000546793               0.000980796               0.999999988              -0.000427038               0.000872218               0.999999988              -0.000386967               0.000832107               0.999999988              -0.000372387               0.000822755               0.999999988              -0.000365035               0.000826365               0.999999988              -0.000357293               0.000834228               0.999999988              -0.000344553               0.000841297               0.999999988              -0.000324674               0.000844681               0.999999988              -0.000297274               0.000843159               0.999999988              -0.000262163               0.000836172               0.999999988              -0.000219691               0.000823777               0.999999988              -0.000170109               0.000806568               0.999999988              -0.000114065               0.000785255               0.999999988              -0.000052903               0.000760881               0.999999988               0.000011881               0.000735015               0.999999988               0.000078615               0.000709182               0.999999988               0.000145798               0.000684614               0.999999988              -0.000477758               0.001060765               0.999999988              -0.000359930               0.000976070               0.999999988              -0.000317957               0.000938936               0.999999988              -0.000302357               0.000927811               0.999999988              -0.000295330               0.000930222               0.999999988              -0.000288974               0.000938600               0.999999988              -0.000279140               0.000948425               0.999999988              -0.000263418               0.000956621               0.999999988              -0.000241050               0.000961737               0.999999988              -0.000211537               0.000962888               0.999999988              -0.000174887               0.000960002               0.999999988              -0.000131081               0.000953082               0.999999988              -0.000080437               0.000942634               0.999999988              -0.000023435               0.000929144               0.999999988               0.000039007               0.000913640               0.999999988               0.000105502               0.000897214               0.999999988               0.000174274               0.000881265               0.999999988              -0.000404624               0.001130885               0.999999988              -0.000295386               0.001073245               0.999999988              -0.000253170               0.001043739               0.999999988              -0.000236485               0.001033848               0.999999988              -0.000229036               0.001036460               0.999999988              -0.000223519               0.001045896               0.999999988              -0.000215856               0.001058346               0.999999988              -0.000203614               0.001071089               0.999999988              -0.000185816               0.001082227               0.999999988              -0.000161758               0.001090903               0.999999988              -0.000131135               0.001096700               0.999999988              -0.000093675               0.001099557               0.999999988              -0.000049155               0.001099498               0.999999988               0.000002340               0.001096619               0.999999988               0.000060518               0.001091460               0.999999988               0.000125013               0.001084762               0.999999988               0.000194368               0.001077714               0.999999988              -0.000328035               0.001190037               0.999999988              -0.000233294               0.001159720               0.999999988              -0.000193622               0.001140944               0.999999988              -0.000176590               0.001135211               0.999999988              -0.000168832               0.001139627               0.999999988              -0.000163589               0.001150988               0.999999988              -0.000157414               0.001166192               0.999999988              -0.000148137               0.001183022               0.999999988              -0.000134444               0.001199799               0.999999988              -0.000115562               0.001215472               0.999999988              -0.000090990               0.001229374               0.999999988              -0.000060342               0.001241250               0.999999988              -0.000023141               0.001250868               0.999999988               0.000021248               0.001258293               0.999999988               0.000073247               0.001263555               0.999999988               0.000133064               0.001267000               0.999999988               0.000200465               0.001269321               0.999999988              -0.000248638               0.001237179               0.999999988              -0.000173215               0.001231722               0.999999988              -0.000139404               0.001224869               0.999999988              -0.000123757               0.001224939               0.999999988              -0.000116235               0.001232703               0.999999988              -0.000111428               0.001246505               0.999999988              -0.000106505               0.001264620               0.999999988              -0.000099657               0.001285272               0.999999988              -0.000089679               0.001306957               0.999999988              -0.000075717               0.001328817               0.999999988              -0.000057253               0.001350033               0.999999988              -0.000033869               0.001370129               0.999999988              -0.000004876               0.001388739               0.999999988               0.000030688               0.001405753               0.999999988               0.000073741               0.001421022               0.999999988               0.000125305               0.001434457               0.999999988               0.000186162               0.001446271               0.999999988              -0.000167006               0.001271699               0.999999988              -0.000114675               0.001285895               0.999999988              -0.000089931               0.001289869               0.999999988              -0.000077818               0.001295990               0.999999988              -0.000071603               0.001307398               0.999999988              -0.000067828               0.001324010               0.999999988              -0.000064199               0.001344818               0.999999988              -0.000059653               0.001368687               0.999999988              -0.000052977               0.001394546               0.999999988              -0.000043720               0.001421497               0.999999988              -0.000031511               0.001448812               0.999999988              -0.000015671               0.001475863               0.999999988               0.000004445               0.001502326               0.999999988               0.000029572               0.001527851               0.999999988               0.000060743               0.001552078               0.999999988               0.000099276               0.001574723               0.999999988               0.000147007               0.001595411               0.999999988              -0.000083871               0.001292782               0.999999988              -0.000057137               0.001319673               0.999999988              -0.000043976               0.001331211               0.999999988              -0.000037382               0.001341961               0.999999988              -0.000033807               0.001356178               0.999999988              -0.000031673               0.001374891               0.999999988              -0.000029835               0.001397780               0.999999988              -0.000027446               0.001424014               0.999999988              -0.000023961               0.001452696               0.999999988              -0.000019280               0.001482884               0.999999988              -0.000013261               0.001514090               0.999999988              -0.000005303               0.001545864               0.999999988               0.000004949               0.001577776               0.999999988               0.000017994               0.001609380               0.999999988               0.000034520               0.001640181               0.999999988               0.000055287               0.001669572               0.999999988               0.000081765               0.001696827               0.999999988               0.000000000               0.001299785               0.999999988               0.000000000               0.001331155               0.999999988              -0.000000000               0.001345438               0.999999988               0.000000000               0.001357793               0.999999988               0.000000000               0.001373125               0.999999988              -0.000000000               0.001392720               0.999999988               0.000000000               0.001416470               0.999999988              -0.000000000               0.001443610               0.999999988              -0.000000000               0.001473281               0.999999988              -0.000000000               0.001504558               0.999999988              -0.000000000               0.001537129               0.999999988              -0.000000000               0.001570581               0.999999988              -0.000000000               0.001604354               0.999999988               0.000000000               0.001638093               0.999999988               0.000000000               0.001671258               0.999999988               0.000000000               0.001703169               0.999999988              -0.000000000               0.001732921               0.999999988              -0.000895171               0.000000000               0.999999988              -0.000941688               0.000000000               0.999999988              -0.000960608              -0.000000000               0.999999988              -0.000970461               0.000000000               0.999999988              -0.000978052              -0.000000000               0.999999988              -0.000985827              -0.000000000               0.999999988              -0.000994425              -0.000000000               0.999999988              -0.001004020              -0.000000000               0.999999988              -0.001014314              -0.000000000               0.999999988              -0.001025106               0.000000000               0.999999988              -0.001036119               0.000000000               0.999999988              -0.001046937               0.000000000               0.999999988              -0.001057025               0.000000000               0.999999988              -0.001065931              -0.000000000               0.999999988              -0.001073170               0.000000000               0.999999988              -0.001078180               0.000000000               0.999999988              -0.001080093               0.000000000               0.999999988              -0.000890169              -0.000122627               0.999999988              -0.000932625              -0.000096521               0.999999988              -0.000948908              -0.000084266               0.999999988              -0.000957077              -0.000078817               0.999999988              -0.000963493              -0.000076884               0.999999988              -0.000970257              -0.000076434               0.999999988              -0.000977948              -0.000076373               0.999999988              -0.000986554              -0.000076138               0.999999988              -0.000995736              -0.000075293               0.999999988              -0.001005283              -0.000073550               0.999999988              -0.001014851              -0.000070398               0.999999988              -0.001023908              -0.000065338               0.999999988              -0.001031980              -0.000058202               0.999999988              -0.001038616              -0.000048767               0.999999988              -0.001043389              -0.000036503               0.999999988              -0.001045768              -0.000020320               0.999999988              -0.001045064               0.000001274               0.999999988              -0.000875500              -0.000244234               0.999999988              -0.000906040              -0.000192816               0.999999988              -0.000914839              -0.000169576               0.999999988              -0.000918278              -0.000159850               0.999999988              -0.000921419              -0.000156732               0.999999988              -0.000925556              -0.000156280               0.999999988              -0.000930816              -0.000156485               0.999999988              -0.000936864              -0.000156225               0.999999988              -0.000943183              -0.000154590               0.999999988              -0.000949236              -0.000151014               0.999999988              -0.000954611              -0.000144620               0.999999988              -0.000958831              -0.000134754               0.999999988              -0.000961460              -0.000121108               0.999999988              -0.000962107              -0.000103235               0.999999988              -0.000960407              -0.000080185               0.999999988              -0.000956092              -0.000050670               0.999999988              -0.000949001              -0.000012969               0.999999988              -0.000851402              -0.000363791               0.999999988              -0.000863066              -0.000288762               0.999999988              -0.000861050              -0.000256901               0.999999988              -0.000858162              -0.000244656               0.999999988              -0.000857044              -0.000241562               0.999999988              -0.000857813              -0.000241884               0.999999988              -0.000859819              -0.000242766               0.999999988              -0.000862184              -0.000242674               0.999999988              -0.000864140              -0.000240386               0.999999988              -0.000865056              -0.000234960               0.999999988              -0.000864351              -0.000225529               0.999999988              -0.000861616              -0.000211364               0.999999988              -0.000856536              -0.000192004               0.999999988              -0.000848750              -0.000167099               0.999999988              -0.000838164              -0.000135968               0.999999988              -0.000824848              -0.000097501               0.999999988              -0.000809137              -0.000050957               0.999999988              -0.000818201              -0.000480225               0.999999988              -0.000805844              -0.000384402               0.999999988              -0.000791773              -0.000346811               0.999999988              -0.000782464              -0.000334114               0.999999988              -0.000777508              -0.000332158               0.999999988              -0.000775079              -0.000333904               0.999999988              -0.000773593              -0.000335814               0.999999988              -0.000771788              -0.000335990               0.999999988              -0.000768492              -0.000332962               0.999999988              -0.000762997              -0.000325583               0.999999988              -0.000754833              -0.000313317               0.999999988              -0.000743645              -0.000295283               0.999999988              -0.000729222              -0.000271318               0.999999988              -0.000711534              -0.000241108               0.999999988              -0.000690748              -0.000204480               0.999999988              -0.000667341              -0.000161304               0.999999988              -0.000642040              -0.000111865               0.999999988              -0.000776607              -0.000592477               0.999999988              -0.000737259              -0.000479847               0.999999988              -0.000711985              -0.000439509               0.999999988              -0.000697756              -0.000428001               0.999999988              -0.000689868              -0.000427992               0.999999988              -0.000684765              -0.000431631               0.999999988              -0.000679975              -0.000434688               0.999999988              -0.000673584              -0.000434854               0.999999988              -0.000664361              -0.000430751               0.999999988              -0.000651610              -0.000421310               0.999999988              -0.000634959              -0.000406094               0.999999988              -0.000614233              -0.000384844               0.999999988              -0.000589520              -0.000357135               0.999999988              -0.000561169              -0.000323190               0.999999988              -0.000529700              -0.000283394               0.999999988              -0.000495853              -0.000238615               0.999999988              -0.000460721              -0.000190094               0.999999988              -0.000727319              -0.000699595               0.999999988              -0.000660594              -0.000575202               0.999999988              -0.000626787              -0.000534702               0.999999988              -0.000609978              -0.000525297               0.999999988              -0.000600653              -0.000527512               0.999999988              -0.000593677              -0.000532990               0.999999988              -0.000585503              -0.000536795               0.999999988              -0.000574056              -0.000536607               0.999999988              -0.000558137              -0.000531062               0.999999988              -0.000537116              -0.000519415               0.999999988              -0.000510944              -0.000501526               0.999999988              -0.000479774              -0.000477317               0.999999988              -0.000444019              -0.000446711               0.999999988              -0.000404421              -0.000410322               0.999999988              -0.000361948              -0.000369358               0.999999988              -0.000317707              -0.000325205               0.999999988              -0.000272947              -0.000279979               0.999999988              -0.000671291              -0.000800431               0.999999988              -0.000579441              -0.000670323               0.999999988              -0.000540870              -0.000631437               0.999999988              -0.000524164              -0.000624344               0.999999988              -0.000514941              -0.000628492               0.999999988              -0.000506445              -0.000635256               0.999999988              -0.000494580              -0.000639352               0.999999988              -0.000477316              -0.000638401               0.999999988              -0.000453559              -0.000631278               0.999999988              -0.000423235              -0.000617368               0.999999988              -0.000386542              -0.000596836               0.999999988              -0.000343995              -0.000570151               0.999999988              -0.000296466              -0.000537554               0.999999988              -0.000245139              -0.000500489               0.999999988              -0.000191424              -0.000460572               0.999999988              -0.000136775              -0.000419594               0.999999988              -0.000082472              -0.000379125               0.999999988              -0.000610230              -0.000893019               0.999999988              -0.000496617              -0.000765153               0.999999988              -0.000458642              -0.000728148               0.999999988              -0.000444134              -0.000722790               0.999999988              -0.000435719              -0.000728544               0.999999988              -0.000425591              -0.000736073               0.999999988              -0.000409329              -0.000740002               0.999999988              -0.000385056              -0.000737970               0.999999988              -0.000352420              -0.000729049               0.999999988              -0.000311654              -0.000713026               0.999999988              -0.000263308              -0.000690366               0.999999988              -0.000208324              -0.000662009               0.999999988              -0.000148040              -0.000629111               0.999999988              -0.000084285              -0.000593557               0.999999988              -0.000018904              -0.000557322               0.999999988               0.000046685              -0.000522007               0.999999988               0.000111696              -0.000488050               0.999999988              -0.000546793              -0.000980796               0.999999988              -0.000427038              -0.000872218               0.999999988              -0.000386967              -0.000832107               0.999999988              -0.000372387              -0.000822755               0.999999988              -0.000365035              -0.000826365               0.999999988              -0.000357293              -0.000834228               0.999999988              -0.000344553              -0.000841297               0.999999988              -0.000324674              -0.000844681               0.999999988              -0.000297274              -0.000843159               0.999999988              -0.000262163              -0.000836172               0.999999988              -0.000219691              -0.000823777               0.999999988              -0.000170109              -0.000806568               0.999999988              -0.000114065              -0.000785255               0.999999988              -0.000052903              -0.000760881               0.999999988               0.000011881              -0.000735015               0.999999988               0.000078615              -0.000709182               0.999999988               0.000145798              -0.000684614               0.999999988              -0.000477758              -0.001060765               0.999999988              -0.000359930              -0.000976070               0.999999988              -0.000317957              -0.000938936               0.999999988              -0.000302357              -0.000927811               0.999999988              -0.000295330              -0.000930222               0.999999988              -0.000288974              -0.000938600               0.999999988              -0.000279140              -0.000948425               0.999999988              -0.000263418              -0.000956621               0.999999988              -0.000241050              -0.000961737               0.999999988              -0.000211537              -0.000962888               0.999999988              -0.000174887              -0.000960002               0.999999988              -0.000131081              -0.000953082               0.999999988              -0.000080437              -0.000942634               0.999999988              -0.000023435              -0.000929144               0.999999988               0.000039007              -0.000913640               0.999999988               0.000105502              -0.000897214               0.999999988               0.000174274              -0.000881265               0.999999988              -0.000404624              -0.001130885               0.999999988              -0.000295386              -0.001073245               0.999999988              -0.000253170              -0.001043739               0.999999988              -0.000236485              -0.001033848               0.999999988              -0.000229036              -0.001036460               0.999999988              -0.000223519              -0.001045896               0.999999988              -0.000215856              -0.001058346               0.999999988              -0.000203614              -0.001071089               0.999999988              -0.000185816              -0.001082227               0.999999988              -0.000161758              -0.001090903               0.999999988              -0.000131135              -0.001096700               0.999999988              -0.000093675              -0.001099557               0.999999988              -0.000049155              -0.001099498               0.999999988               0.000002340              -0.001096619               0.999999988               0.000060518              -0.001091460               0.999999988               0.000125013              -0.001084762               0.999999988               0.000194368              -0.001077714               0.999999988              -0.000328035              -0.001190037               0.999999988              -0.000233294              -0.001159720               0.999999988              -0.000193622              -0.001140944               0.999999988              -0.000176590              -0.001135211               0.999999988              -0.000168832              -0.001139627               0.999999988              -0.000163589              -0.001150988               0.999999988              -0.000157414              -0.001166192               0.999999988              -0.000148137              -0.001183022               0.999999988              -0.000134444              -0.001199799               0.999999988              -0.000115562              -0.001215472               0.999999988              -0.000090990              -0.001229374               0.999999988              -0.000060342              -0.001241250               0.999999988              -0.000023141              -0.001250868               0.999999988               0.000021248              -0.001258293               0.999999988               0.000073247              -0.001263555               0.999999988               0.000133064              -0.001267000               0.999999988               0.000200465              -0.001269321               0.999999988              -0.000248638              -0.001237179               0.999999988              -0.000173215              -0.001231722               0.999999988              -0.000139404              -0.001224869               0.999999988              -0.000123757              -0.001224939               0.999999988              -0.000116235              -0.001232703               0.999999988              -0.000111428              -0.001246505               0.999999988              -0.000106505              -0.001264620               0.999999988              -0.000099657              -0.001285272               0.999999988              -0.000089679              -0.001306957               0.999999988              -0.000075717              -0.001328817               0.999999988              -0.000057253              -0.001350033               0.999999988              -0.000033869              -0.001370129               0.999999988              -0.000004876              -0.001388739               0.999999988               0.000030688              -0.001405753               0.999999988               0.000073741              -0.001421022               0.999999988               0.000125305              -0.001434457               0.999999988               0.000186162              -0.001446271               0.999999988              -0.000167006              -0.001271699               0.999999988              -0.000114675              -0.001285895               0.999999988              -0.000089931              -0.001289869               0.999999988              -0.000077818              -0.001295990               0.999999988              -0.000071603              -0.001307398               0.999999988              -0.000067828              -0.001324010               0.999999988              -0.000064199              -0.001344818               0.999999988              -0.000059653              -0.001368687               0.999999988              -0.000052977              -0.001394546               0.999999988              -0.000043720              -0.001421497               0.999999988              -0.000031511              -0.001448812               0.999999988              -0.000015671              -0.001475863               0.999999988               0.000004445              -0.001502326               0.999999988               0.000029572              -0.001527851               0.999999988               0.000060743              -0.001552078               0.999999988               0.000099276              -0.001574723               0.999999988               0.000147007              -0.001595411               0.999999988              -0.000083871              -0.001292782               0.999999988              -0.000057137              -0.001319673               0.999999988              -0.000043976              -0.001331211               0.999999988              -0.000037382              -0.001341961               0.999999988              -0.000033807              -0.001356178               0.999999988              -0.000031673              -0.001374891               0.999999988              -0.000029835              -0.001397780               0.999999988              -0.000027446              -0.001424014               0.999999988              -0.000023961              -0.001452696               0.999999988              -0.000019280              -0.001482884               0.999999988              -0.000013261              -0.001514090               0.999999988              -0.000005303              -0.001545864               0.999999988               0.000004949              -0.001577776               0.999999988               0.000017994              -0.001609380               0.999999988               0.000034520              -0.001640181               0.999999988               0.000055287              -0.001669572               0.999999988               0.000081765              -0.001696827               0.999999988              -0.000000000              -0.001299785               0.999999988               0.000000000              -0.001331155               0.999999988              -0.000000000              -0.001345438               0.999999988               0.000000000              -0.001357793               0.999999988               0.000000000              -0.001373125               0.999999988              -0.000000000              -0.001392720               0.999999988              -0.000000000              -0.001416470               0.999999988               0.000000000              -0.001443610               0.999999988               0.000000000              -0.001473281               0.999999988               0.000000000              -0.001504558               0.999999988              -0.000000000              -0.001537129               0.999999988              -0.000000000              -0.001570581               0.999999988               0.000000000              -0.001604354               0.999999988              -0.000000000              -0.001638093               0.999999988              -0.000000000              -0.001671258               0.999999988               0.000000000              -0.001703169               0.999999988              -0.000000000              -0.001732921               0.999999988               0.000895171               0.000000000               0.999999988               0.000941688               0.000000000               0.999999988               0.000960608               0.000000000               0.999999988               0.000970461               0.000000000               0.999999988               0.000978052              -0.000000000               0.999999988               0.000985827              -0.000000000               0.999999988               0.000994425               0.000000000               0.999999988               0.001004020              -0.000000000               0.999999988               0.001014314              -0.000000000               0.999999988               0.001025106              -0.000000000               0.999999988               0.001036119               0.000000000               0.999999988               0.001046937               0.000000000               0.999999988               0.001057025              -0.000000000               0.999999988               0.001065931               0.000000000               0.999999988               0.001073170              -0.000000000               0.999999988               0.001078180              -0.000000000               0.999999988               0.001080093               0.000000000               0.999999988               0.000890169              -0.000122627               0.999999988               0.000932625              -0.000096521               0.999999988               0.000948908              -0.000084266               0.999999988               0.000957077              -0.000078817               0.999999988               0.000963493              -0.000076884               0.999999988               0.000970257              -0.000076434               0.999999988               0.000977948              -0.000076373               0.999999988               0.000986554              -0.000076138               0.999999988               0.000995736              -0.000075293               0.999999988               0.001005283              -0.000073550               0.999999988               0.001014851              -0.000070398               0.999999988               0.001023908              -0.000065338               0.999999988               0.001031980              -0.000058202               0.999999988               0.001038616              -0.000048767               0.999999988               0.001043389              -0.000036503               0.999999988               0.001045768              -0.000020320               0.999999988               0.001045064               0.000001274               0.999999988               0.000875500              -0.000244234               0.999999988               0.000906040              -0.000192816               0.999999988               0.000914839              -0.000169576               0.999999988               0.000918278              -0.000159850               0.999999988               0.000921419              -0.000156732               0.999999988               0.000925556              -0.000156280               0.999999988               0.000930816              -0.000156485               0.999999988               0.000936864              -0.000156225               0.999999988               0.000943183              -0.000154590               0.999999988               0.000949236              -0.000151014               0.999999988               0.000954611              -0.000144620               0.999999988               0.000958831              -0.000134754               0.999999988               0.000961460              -0.000121108               0.999999988               0.000962107              -0.000103235               0.999999988               0.000960407              -0.000080185               0.999999988               0.000956092              -0.000050670               0.999999988               0.000949001              -0.000012969               0.999999988               0.000851402              -0.000363791               0.999999988               0.000863066              -0.000288762               0.999999988               0.000861050              -0.000256901               0.999999988               0.000858162              -0.000244656               0.999999988               0.000857044              -0.000241562               0.999999988               0.000857813              -0.000241884               0.999999988               0.000859819              -0.000242766               0.999999988               0.000862184              -0.000242674               0.999999988               0.000864140              -0.000240386               0.999999988               0.000865056              -0.000234960               0.999999988               0.000864351              -0.000225529               0.999999988               0.000861616              -0.000211364               0.999999988               0.000856536              -0.000192004               0.999999988               0.000848750              -0.000167099               0.999999988               0.000838164              -0.000135968               0.999999988               0.000824848              -0.000097501               0.999999988               0.000809137              -0.000050957               0.999999988               0.000818201              -0.000480225               0.999999988               0.000805844              -0.000384402               0.999999988               0.000791773              -0.000346811               0.999999988               0.000782464              -0.000334114               0.999999988               0.000777508              -0.000332158               0.999999988               0.000775079              -0.000333904               0.999999988               0.000773593              -0.000335814               0.999999988               0.000771788              -0.000335990               0.999999988               0.000768492              -0.000332962               0.999999988               0.000762997              -0.000325583               0.999999988               0.000754833              -0.000313317               0.999999988               0.000743645              -0.000295283               0.999999988               0.000729222              -0.000271318               0.999999988               0.000711534              -0.000241108               0.999999988               0.000690748              -0.000204480               0.999999988               0.000667341              -0.000161304               0.999999988               0.000642040              -0.000111865               0.999999988               0.000776607              -0.000592477               0.999999988               0.000737259              -0.000479847               0.999999988               0.000711985              -0.000439509               0.999999988               0.000697756              -0.000428001               0.999999988               0.000689868              -0.000427992               0.999999988               0.000684765              -0.000431631               0.999999988               0.000679975              -0.000434688               0.999999988               0.000673584              -0.000434854               0.999999988               0.000664361              -0.000430751               0.999999988               0.000651610              -0.000421310               0.999999988               0.000634959              -0.000406094               0.999999988               0.000614233              -0.000384844               0.999999988               0.000589520              -0.000357135               0.999999988               0.000561169              -0.000323190               0.999999988               0.000529700              -0.000283394               0.999999988               0.000495853              -0.000238615               0.999999988               0.000460721              -0.000190094               0.999999988               0.000727319              -0.000699595               0.999999988               0.000660594              -0.000575202               0.999999988               0.000626787              -0.000534702               0.999999988               0.000609978              -0.000525297               0.999999988               0.000600653              -0.000527512               0.999999988               0.000593677              -0.000532990               0.999999988               0.000585503              -0.000536795               0.999999988               0.000574056              -0.000536607               0.999999988               0.000558137              -0.000531062               0.999999988               0.000537116              -0.000519415               0.999999988               0.000510944              -0.000501526               0.999999988               0.000479774              -0.000477317               0.999999988               0.000444019              -0.000446711               0.999999988               0.000404421              -0.000410322               0.999999988               0.000361948              -0.000369358               0.999999988               0.000317707              -0.000325205               0.999999988               0.000272947              -0.000279979               0.999999988               0.000671291              -0.000800431               0.999999988               0.000579441              -0.000670323               0.999999988               0.000540870              -0.000631437               0.999999988               0.000524164              -0.000624344               0.999999988               0.000514941              -0.000628492               0.999999988               0.000506445              -0.000635256               0.999999988               0.000494580              -0.000639352               0.999999988               0.000477316              -0.000638401               0.999999988               0.000453559              -0.000631278               0.999999988               0.000423235              -0.000617368               0.999999988               0.000386542              -0.000596836               0.999999988               0.000343995              -0.000570151               0.999999988               0.000296466              -0.000537554               0.999999988               0.000245139              -0.000500489               0.999999988               0.000191424              -0.000460572               0.999999988               0.000136775              -0.000419594               0.999999988               0.000082472              -0.000379125               0.999999988               0.000610230              -0.000893019               0.999999988               0.000496617              -0.000765153               0.999999988               0.000458642              -0.000728148               0.999999988               0.000444134              -0.000722790               0.999999988               0.000435719              -0.000728544               0.999999988               0.000425591              -0.000736073               0.999999988               0.000409329              -0.000740002               0.999999988               0.000385056              -0.000737970               0.999999988               0.000352420              -0.000729049               0.999999988               0.000311654              -0.000713026               0.999999988               0.000263308              -0.000690366               0.999999988               0.000208324              -0.000662009               0.999999988               0.000148040              -0.000629111               0.999999988               0.000084285              -0.000593557               0.999999988               0.000018904              -0.000557322               0.999999988              -0.000046685              -0.000522007               0.999999988              -0.000111696              -0.000488050               0.999999988               0.000546793              -0.000980796               0.999999988               0.000427038              -0.000872218               0.999999988               0.000386967              -0.000832107               0.999999988               0.000372387              -0.000822755               0.999999988               0.000365035              -0.000826365               0.999999988               0.000357293              -0.000834228               0.999999988               0.000344553              -0.000841297               0.999999988               0.000324674              -0.000844681               0.999999988               0.000297274              -0.000843159               0.999999988               0.000262163              -0.000836172               0.999999988               0.000219691              -0.000823777               0.999999988               0.000170109              -0.000806568               0.999999988               0.000114065              -0.000785255               0.999999988               0.000052903              -0.000760881               0.999999988              -0.000011881              -0.000735015               0.999999988              -0.000078615              -0.000709182               0.999999988              -0.000145798              -0.000684614               0.999999988               0.000477758              -0.001060765               0.999999988               0.000359930              -0.000976070               0.999999988               0.000317957              -0.000938936               0.999999988               0.000302357              -0.000927811               0.999999988               0.000295330              -0.000930222               0.999999988               0.000288974              -0.000938600               0.999999988               0.000279140              -0.000948425               0.999999988               0.000263418              -0.000956621               0.999999988               0.000241050              -0.000961737               0.999999988               0.000211537              -0.000962888               0.999999988               0.000174887              -0.000960002               0.999999988               0.000131081              -0.000953082               0.999999988               0.000080437              -0.000942634               0.999999988               0.000023435              -0.000929144               0.999999988              -0.000039007              -0.000913640               0.999999988              -0.000105502              -0.000897214               0.999999988              -0.000174274              -0.000881265               0.999999988               0.000404624              -0.001130885               0.999999988               0.000295386              -0.001073245               0.999999988               0.000253170              -0.001043739               0.999999988               0.000236485              -0.001033848               0.999999988               0.000229036              -0.001036460               0.999999988               0.000223519              -0.001045896               0.999999988               0.000215856              -0.001058346               0.999999988               0.000203614              -0.001071089               0.999999988               0.000185816              -0.001082227               0.999999988               0.000161758              -0.001090903               0.999999988               0.000131135              -0.001096700               0.999999988               0.000093675              -0.001099557               0.999999988               0.000049155              -0.001099498               0.999999988              -0.000002340              -0.001096619               0.999999988              -0.000060518              -0.001091460               0.999999988              -0.000125013              -0.001084762               0.999999988              -0.000194368              -0.001077714               0.999999988               0.000328035              -0.001190037               0.999999988               0.000233294              -0.001159720               0.999999988               0.000193622              -0.001140944               0.999999988               0.000176590              -0.001135211               0.999999988               0.000168832              -0.001139627               0.999999988               0.000163589              -0.001150988               0.999999988               0.000157414              -0.001166192               0.999999988               0.000148137              -0.001183022               0.999999988               0.000134444              -0.001199799               0.999999988               0.000115562              -0.001215472               0.999999988               0.000090990              -0.001229374               0.999999988               0.000060342              -0.001241250               0.999999988               0.000023141              -0.001250868               0.999999988              -0.000021248              -0.001258293               0.999999988              -0.000073247              -0.001263555               0.999999988              -0.000133064              -0.001267000               0.999999988              -0.000200465              -0.001269321               0.999999988               0.000248638              -0.001237179               0.999999988               0.000173215              -0.001231722               0.999999988               0.000139404              -0.001224869               0.999999988               0.000123757              -0.001224939               0.999999988               0.000116235              -0.001232703               0.999999988               0.000111428              -0.001246505               0.999999988               0.000106505              -0.001264620               0.999999988               0.000099657              -0.001285272               0.999999988               0.000089679              -0.001306957               0.999999988               0.000075717              -0.001328817               0.999999988               0.000057253              -0.001350033               0.999999988               0.000033869              -0.001370129               0.999999988               0.000004876              -0.001388739               0.999999988              -0.000030688              -0.001405753               0.999999988              -0.000073741              -0.001421022               0.999999988              -0.000125305              -0.001434457               0.999999988              -0.000186162              -0.001446271               0.999999988               0.000167006              -0.001271699               0.999999988               0.000114675              -0.001285895               0.999999988               0.000089931              -0.001289869               0.999999988               0.000077818              -0.001295990               0.999999988               0.000071603              -0.001307398               0.999999988               0.000067828              -0.001324010               0.999999988               0.000064199              -0.001344818               0.999999988               0.000059653              -0.001368687               0.999999988               0.000052977              -0.001394546               0.999999988               0.000043720              -0.001421497               0.999999988               0.000031511              -0.001448812               0.999999988               0.000015671              -0.001475863               0.999999988              -0.000004445              -0.001502326               0.999999988              -0.000029572              -0.001527851               0.999999988              -0.000060743              -0.001552078               0.999999988              -0.000099276              -0.001574723               0.999999988              -0.000147007              -0.001595411               0.999999988               0.000083871              -0.001292782               0.999999988               0.000057137              -0.001319673               0.999999988               0.000043976              -0.001331211               0.999999988               0.000037382              -0.001341961               0.999999988               0.000033807              -0.001356178               0.999999988               0.000031673              -0.001374891               0.999999988               0.000029835              -0.001397780               0.999999988               0.000027446              -0.001424014               0.999999988               0.000023961              -0.001452696               0.999999988               0.000019280              -0.001482884               0.999999988               0.000013261              -0.001514090               0.999999988               0.000005303              -0.001545864               0.999999988              -0.000004949              -0.001577776               0.999999988              -0.000017994              -0.001609380               0.999999988              -0.000034520              -0.001640181               0.999999988              -0.000055287              -0.001669572               0.999999988              -0.000081765              -0.001696827               0.999999988              -0.000000000              -0.001299785               0.999999988               0.000000000              -0.001331155               0.999999988              -0.000000000              -0.001345438               0.999999988               0.000000000              -0.001357793               0.999999988               0.000000000              -0.001373125               0.999999988              -0.000000000              -0.001392720               0.999999988              -0.000000000              -0.001416470               0.999999988               0.000000000              -0.001443610               0.999999988               0.000000000              -0.001473281               0.999999988               0.000000000              -0.001504558               0.999999988              -0.000000000              -0.001537129               0.999999988              -0.000000000              -0.001570581               0.999999988               0.000000000              -0.001604354               0.999999988              -0.000000000              -0.001638093               0.999999988              -0.000000000              -0.001671258               0.999999988               0.000000000              -0.001703169               0.999999988              -0.000000000              -0.001732921               0.999999988               0.000895171               0.000000000               0.999999988               0.000941688               0.000000000               0.999999988               0.000960608               0.000000000               0.999999988               0.000970461               0.000000000               0.999999988               0.000978052              -0.000000000               0.999999988               0.000985827              -0.000000000               0.999999988               0.000994425               0.000000000               0.999999988               0.001004020              -0.000000000               0.999999988               0.001014314              -0.000000000               0.999999988               0.001025106              -0.000000000               0.999999988               0.001036119               0.000000000               0.999999988               0.001046937               0.000000000               0.999999988               0.001057025              -0.000000000               0.999999988               0.001065931               0.000000000               0.999999988               0.001073170              -0.000000000               0.999999988               0.001078180              -0.000000000               0.999999988               0.001080093               0.000000000               0.999999988               0.000890169               0.000122627               0.999999988               0.000932625               0.000096521               0.999999988               0.000948908               0.000084266               0.999999988               0.000957077               0.000078817               0.999999988               0.000963493               0.000076884               0.999999988               0.000970257               0.000076434               0.999999988               0.000977948               0.000076373               0.999999988               0.000986554               0.000076138               0.999999988               0.000995736               0.000075293               0.999999988               0.001005283               0.000073550               0.999999988               0.001014851               0.000070398               0.999999988               0.001023908               0.000065338               0.999999988               0.001031980               0.000058202               0.999999988               0.001038616               0.000048767               0.999999988               0.001043389               0.000036503               0.999999988               0.001045768               0.000020320               0.999999988               0.001045064              -0.000001274               0.999999988               0.000875500               0.000244234               0.999999988               0.000906040               0.000192816               0.999999988               0.000914839               0.000169576               0.999999988               0.000918278               0.000159850               0.999999988               0.000921419               0.000156732               0.999999988               0.000925556               0.000156280               0.999999988               0.000930816               0.000156485               0.999999988               0.000936864               0.000156225               0.999999988               0.000943183               0.000154590               0.999999988               0.000949236               0.000151014               0.999999988               0.000954611               0.000144620               0.999999988               0.000958831               0.000134754               0.999999988               0.000961460               0.000121108               0.999999988               0.000962107               0.000103235               0.999999988               0.000960407               0.000080185               0.999999988               0.000956092               0.000050670               0.999999988               0.000949001               0.000012969               0.999999988               0.000851402               0.000363791               0.999999988               0.000863066               0.000288762               0.999999988               0.000861050               0.000256901               0.999999988               0.000858162               0.000244656               0.999999988               0.000857044               0.000241562               0.999999988               0.000857813               0.000241884               0.999999988               0.000859819               0.000242766               0.999999988               0.000862184               0.000242674               0.999999988               0.000864140               0.000240386               0.999999988               0.000865056               0.000234960               0.999999988               0.000864351               0.000225529               0.999999988               0.000861616               0.000211364               0.999999988               0.000856536               0.000192004               0.999999988               0.000848750               0.000167099               0.999999988               0.000838164               0.000135968               0.999999988               0.000824848               0.000097501               0.999999988               0.000809137               0.000050957               0.999999988               0.000818201               0.000480225               0.999999988               0.000805844               0.000384402               0.999999988               0.000791773               0.000346811               0.999999988               0.000782464               0.000334114               0.999999988               0.000777508               0.000332158               0.999999988               0.000775079               0.000333904               0.999999988               0.000773593               0.000335814               0.999999988               0.000771788               0.000335990               0.999999988               0.000768492               0.000332962               0.999999988               0.000762997               0.000325583               0.999999988               0.000754833               0.000313317               0.999999988               0.000743645               0.000295283               0.999999988               0.000729222               0.000271318               0.999999988               0.000711534               0.000241108               0.999999988               0.000690748               0.000204480               0.999999988               0.000667341               0.000161304               0.999999988               0.000642040               0.000111865               0.999999988               0.000776607               0.000592477               0.999999988               0.000737259               0.000479847               0.999999988               0.000711985               0.000439509               0.999999988               0.000697756               0.000428001               0.999999988               0.000689868               0.000427992               0.999999988               0.000684765               0.000431631               0.999999988               0.000679975               0.000434688               0.999999988               0.000673584               0.000434854               0.999999988               0.000664361               0.000430751               0.999999988               0.000651610               0.000421310               0.999999988               0.000634959               0.000406094               0.999999988               0.000614233               0.000384844               0.999999988               0.000589520               0.000357135               0.999999988               0.000561169               0.000323190               0.999999988               0.000529700               0.000283394               0.999999988               0.000495853               0.000238615               0.999999988               0.000460721               0.000190094               0.999999988               0.000727319               0.000699595               0.999999988               0.000660594               0.000575202               0.999999988               0.000626787               0.000534702               0.999999988               0.000609978               0.000525297               0.999999988               0.000600653               0.000527512               0.999999988               0.000593677               0.000532990               0.999999988               0.000585503               0.000536795               0.999999988               0.000574056               0.000536607               0.999999988               0.000558137               0.000531062               0.999999988               0.000537116               0.000519415               0.999999988               0.000510944               0.000501526               0.999999988               0.000479774               0.000477317               0.999999988               0.000444019               0.000446711               0.999999988               0.000404421               0.000410322               0.999999988               0.000361948               0.000369358               0.999999988               0.000317707               0.000325205               0.999999988               0.000272947               0.000279979               0.999999988               0.000671291               0.000800431               0.999999988               0.000579441               0.000670323               0.999999988               0.000540870               0.000631437               0.999999988               0.000524164               0.000624344               0.999999988               0.000514941               0.000628492               0.999999988               0.000506445               0.000635256               0.999999988               0.000494580               0.000639352               0.999999988               0.000477316               0.000638401               0.999999988               0.000453559               0.000631278               0.999999988               0.000423235               0.000617368               0.999999988               0.000386542               0.000596836               0.999999988               0.000343995               0.000570151               0.999999988               0.000296466               0.000537554               0.999999988               0.000245139               0.000500489               0.999999988               0.000191424               0.000460572               0.999999988               0.000136775               0.000419594               0.999999988               0.000082472               0.000379125               0.999999988               0.000610230               0.000893019               0.999999988               0.000496617               0.000765153               0.999999988               0.000458642               0.000728148               0.999999988               0.000444134               0.000722790               0.999999988               0.000435719               0.000728544               0.999999988               0.000425591               0.000736073               0.999999988               0.000409329               0.000740002               0.999999988               0.000385056               0.000737970               0.999999988               0.000352420               0.000729049               0.999999988               0.000311654               0.000713026               0.999999988               0.000263308               0.000690366               0.999999988               0.000208324               0.000662009               0.999999988               0.000148040               0.000629111               0.999999988               0.000084285               0.000593557               0.999999988               0.000018904               0.000557322               0.999999988              -0.000046685               0.000522007               0.999999988              -0.000111696               0.000488050               0.999999988               0.000546793               0.000980796               0.999999988               0.000427038               0.000872218               0.999999988               0.000386967               0.000832107               0.999999988               0.000372387               0.000822755               0.999999988               0.000365035               0.000826365               0.999999988               0.000357293               0.000834228               0.999999988               0.000344553               0.000841297               0.999999988               0.000324674               0.000844681               0.999999988               0.000297274               0.000843159               0.999999988               0.000262163               0.000836172               0.999999988               0.000219691               0.000823777               0.999999988               0.000170109               0.000806568               0.999999988               0.000114065               0.000785255               0.999999988               0.000052903               0.000760881               0.999999988              -0.000011881               0.000735015               0.999999988              -0.000078615               0.000709182               0.999999988              -0.000145798               0.000684614               0.999999988               0.000477758               0.001060765               0.999999988               0.000359930               0.000976070               0.999999988               0.000317957               0.000938936               0.999999988               0.000302357               0.000927811               0.999999988               0.000295330               0.000930222               0.999999988               0.000288974               0.000938600               0.999999988               0.000279140               0.000948425               0.999999988               0.000263418               0.000956621               0.999999988               0.000241050               0.000961737               0.999999988               0.000211537               0.000962888               0.999999988               0.000174887               0.000960002               0.999999988               0.000131081               0.000953082               0.999999988               0.000080437               0.000942634               0.999999988               0.000023435               0.000929144               0.999999988              -0.000039007               0.000913640               0.999999988              -0.000105502               0.000897214               0.999999988              -0.000174274               0.000881265               0.999999988               0.000404624               0.001130885               0.999999988               0.000295386               0.001073245               0.999999988               0.000253170               0.001043739               0.999999988               0.000236485               0.001033848               0.999999988               0.000229036               0.001036460               0.999999988               0.000223519               0.001045896               0.999999988               0.000215856               0.001058346               0.999999988               0.000203614               0.001071089               0.999999988               0.000185816               0.001082227               0.999999988               0.000161758               0.001090903               0.999999988               0.000131135               0.001096700               0.999999988               0.000093675               0.001099557               0.999999988               0.000049155               0.001099498               0.999999988              -0.000002340               0.001096619               0.999999988              -0.000060518               0.001091460               0.999999988              -0.000125013               0.001084762               0.999999988              -0.000194368               0.001077714               0.999999988               0.000328035               0.001190037               0.999999988               0.000233294               0.001159720               0.999999988               0.000193622               0.001140944               0.999999988               0.000176590               0.001135211               0.999999988               0.000168832               0.001139627               0.999999988               0.000163589               0.001150988               0.999999988               0.000157414               0.001166192               0.999999988               0.000148137               0.001183022               0.999999988               0.000134444               0.001199799               0.999999988               0.000115562               0.001215472               0.999999988               0.000090990               0.001229374               0.999999988               0.000060342               0.001241250               0.999999988               0.000023141               0.001250868               0.999999988              -0.000021248               0.001258293               0.999999988              -0.000073247               0.001263555               0.999999988              -0.000133064               0.001267000               0.999999988              -0.000200465               0.001269321               0.999999988               0.000248638               0.001237179               0.999999988               0.000173215               0.001231722               0.999999988               0.000139404               0.001224869               0.999999988               0.000123757               0.001224939               0.999999988               0.000116235               0.001232703               0.999999988               0.000111428               0.001246505               0.999999988               0.000106505               0.001264620               0.999999988               0.000099657               0.001285272               0.999999988               0.000089679               0.001306957               0.999999988               0.000075717               0.001328817               0.999999988               0.000057253               0.001350033               0.999999988               0.000033869               0.001370129               0.999999988               0.000004876               0.001388739               0.999999988              -0.000030688               0.001405753               0.999999988              -0.000073741               0.001421022               0.999999988              -0.000125305               0.001434457               0.999999988              -0.000186162               0.001446271               0.999999988               0.000167006               0.001271699               0.999999988               0.000114675               0.001285895               0.999999988               0.000089931               0.001289869               0.999999988               0.000077818               0.001295990               0.999999988               0.000071603               0.001307398               0.999999988               0.000067828               0.001324010               0.999999988               0.000064199               0.001344818               0.999999988               0.000059653               0.001368687               0.999999988               0.000052977               0.001394546               0.999999988               0.000043720               0.001421497               0.999999988               0.000031511               0.001448812               0.999999988               0.000015671               0.001475863               0.999999988              -0.000004445               0.001502326               0.999999988              -0.000029572               0.001527851               0.999999988              -0.000060743               0.001552078               0.999999988              -0.000099276               0.001574723               0.999999988              -0.000147007               0.001595411               0.999999988               0.000083871               0.001292782               0.999999988               0.000057137               0.001319673               0.999999988               0.000043976               0.001331211               0.999999988               0.000037382               0.001341961               0.999999988               0.000033807               0.001356178               0.999999988               0.000031673               0.001374891               0.999999988               0.000029835               0.001397780               0.999999988               0.000027446               0.001424014               0.999999988               0.000023961               0.001452696               0.999999988               0.000019280               0.001482884               0.999999988               0.000013261               0.001514090               0.999999988               0.000005303               0.001545864               0.999999988              -0.000004949               0.001577776               0.999999988              -0.000017994               0.001609380               0.999999988              -0.000034520               0.001640181               0.999999988              -0.000055287               0.001669572               0.999999988              -0.000081765               0.001696827               0.999999988               0.000000000               0.001299785               0.999999988               0.000000000               0.001331155               0.999999988              -0.000000000               0.001345438               0.999999988               0.000000000               0.001357793               0.999999988               0.000000000               0.001373125               0.999999988              -0.000000000               0.001392720               0.999999988               0.000000000               0.001416470               0.999999988              -0.000000000               0.001443610               0.999999988              -0.000000000               0.001473281               0.999999988              -0.000000000               0.001504558               0.999999988              -0.000000000               0.001537129               0.999999988              -0.000000000               0.001570581               0.999999988              -0.000000000               0.001604354               0.999999988               0.000000000               0.001638093               0.999999988               0.000000000               0.001671258               0.999999988               0.000000000               0.001703169               0.999999988              -0.000000000               0.001732921               0.999999988 </DataArray>
<DataArray type="Float64"                                    Name="stress"                                                      NumberOfComponents="10" format="ascii">
              0.002113441               0.022213582              -0.000000000              -0.001984153               0.008065837               0.006081685               0.000000000               0.000000000               0.000000000               0.000000000               0.002022805               0.016960430              -0.000000000              -0.001361498               0.006107253               0.004745755               0.000000000               0.000000000               0.000000000               0.000000000               0.002599740               0.012690404              -0.000000000              -0.000611397               0.004433891               0.003822495               0.000000000               0.000000000               0.000000000               0.000000000               0.002403439               0.010278462              -0.000000000              -0.000383517               0.003553959               0.003170442               0.000000000               0.000000000               0.000000000               0.000000000               0.002000047               0.008756056              -0.000000000              -0.000344489               0.003033486               0.002688997               0.000000000               0.000000000               0.000000000               0.000000000               0.001579757               0.007680931              -0.000000000              -0.000367707               0.002682853               0.002315147               0.000000000               0.000000000               0.000000000               0.000000000               0.001196255               0.006840633              -0.000000000              -0.000406483               0.002415682               0.002009200               0.000000000               0.000000000               0.000000000               0.000000000               0.000868964               0.006134054               0.000000000              -0.000440894               0.002191629               0.001750735               0.000000000               0.000000000               0.000000000               0.000000000               0.000595291               0.005501620               0.000000000              -0.000464467               0.001988677               0.001524210               0.000000000               0.000000000               0.000000000               0.000000000               0.000361714               0.004903325               0.000000000              -0.000477272               0.001793516               0.001316244               0.000000000               0.000000000               0.000000000               0.000000000               0.000172292               0.004307546              -0.000000000              -0.000473833               0.001593778               0.001119946               0.000000000               0.000000000               0.000000000               0.000000000               0.000032236               0.003693213              -0.000000000              -0.000449562               0.001380913               0.000931351               0.000000000               0.000000000               0.000000000               0.000000000              -0.000060804               0.003053722               0.000000000              -0.000404516               0.001152736               0.000748220               0.000000000               0.000000000               0.000000000               0.000000000              -0.000111992               0.002381174               0.000000000              -0.000339643               0.000906931               0.000567288               0.000000000               0.000000000               0.000000000               0.000000000              -0.000121774               0.001656083               0.000000000              -0.000252675               0.000636247               0.000383572               0.000000000               0.000000000               0.000000000               0.000000000              -0.000081399               0.000844006               0.000000000              -0.000136025               0.000326674               0.000190649               0.000000000               0.000000000               0.000000000               0.000000000              -0.000114538               0.000218625               0.000000000              -0.000070280               0.000096301               0.000026021               0.000000000               0.000000000               0.000000000               0.000000000               0.002169670               0.021735372              -0.001458945              -0.001903291               0.007879482               0.005976191               0.000000000               0.000000000               0.000000000               0.000000000               0.001956247               0.016661065              -0.000635195              -0.001349037               0.006003312               0.004654275               0.000000000               0.000000000               0.000000000               0.000000000               0.002400015               0.012578736               0.000177048              -0.000672335               0.004416982               0.003744647               0.000000000               0.000000000               0.000000000               0.000000000               0.002153779               0.010266856               0.000510166              -0.000475689               0.003580814               0.003105125               0.000000000               0.000000000               0.000000000               0.000000000               0.001743887               0.008792676               0.000635511              -0.000445126               0.003079238               0.002634112               0.000000000               0.000000000               0.000000000               0.000000000               0.001334482               0.007738206               0.000666348              -0.000466844               0.002734991               0.002268147               0.000000000               0.000000000               0.000000000               0.000000000               0.000970975               0.006908246               0.000657589              -0.000499414               0.002469197               0.001969783               0.000000000               0.000000000               0.000000000               0.000000000               0.000669127               0.006206629               0.000632972              -0.000524905               0.002243824               0.001718919               0.000000000               0.000000000               0.000000000               0.000000000               0.000421006               0.005573812               0.000602414              -0.000538848               0.002037535               0.001498686               0.000000000               0.000000000               0.000000000               0.000000000               0.000213033               0.004972045               0.000567001              -0.000541617               0.001837871               0.001296254               0.000000000               0.000000000               0.000000000               0.000000000               0.000051300               0.004375952               0.000523797              -0.000527756               0.001634555               0.001106799               0.000000000               0.000000000               0.000000000               0.000000000              -0.000060634               0.003771165               0.000478695              -0.000494132               0.001421753               0.000927621               0.000000000               0.000000000               0.000000000               0.000000000              -0.000127631               0.003150701               0.000433927              -0.000441699               0.001197456               0.000755758               0.000000000               0.000000000               0.000000000               0.000000000              -0.000154686               0.002505523               0.000380107              -0.000371197               0.000958898               0.000587701               0.000000000               0.000000000               0.000000000               0.000000000              -0.000143270               0.001819637               0.000300126              -0.000281180               0.000700266               0.000419086               0.000000000               0.000000000               0.000000000               0.000000000              -0.000086092               0.001074884               0.000174678              -0.000166645               0.000413839               0.000247195               0.000000000               0.000000000               0.000000000               0.000000000              -0.000104710               0.000518122               0.000110104              -0.000104031               0.000207383               0.000103351               0.000000000               0.000000000               0.000000000               0.000000000               0.002301274               0.020368326              -0.002696044              -0.001683060               0.007350394               0.005667334               0.000000000               0.000000000               0.000000000               0.000000000               0.001747179               0.015812647              -0.001164874              -0.001321386               0.005711292               0.004389906               0.000000000               0.000000000               0.000000000               0.000000000               0.001827344               0.012265529               0.000327777              -0.000847935               0.004371114               0.003523179               0.000000000               0.000000000               0.000000000               0.000000000               0.001456359               0.010221683               0.000915181              -0.000731574               0.003651052               0.002919477               0.000000000               0.000000000               0.000000000               0.000000000               0.001035477               0.008876470               0.001123632              -0.000721254               0.003199212               0.002477958               0.000000000               0.000000000               0.000000000               0.000000000               0.000664212               0.007880656               0.001165537              -0.000736001               0.002872193               0.002136191               0.000000000               0.000000000               0.000000000               0.000000000               0.000362236               0.007077015               0.001141521              -0.000748787               0.002608577               0.001859790               0.000000000               0.000000000               0.000000000               0.000000000               0.000131005               0.006385911               0.001091064              -0.000749111               0.002378319               0.001629209               0.000000000               0.000000000               0.000000000               0.000000000              -0.000039349               0.005757188               0.001030308              -0.000734403               0.002163844               0.001429441               0.000000000               0.000000000               0.000000000               0.000000000              -0.000164548               0.005157060               0.000962017              -0.000706337               0.001954448               0.001248111               0.000000000               0.000000000               0.000000000               0.000000000              -0.000248606               0.004570555               0.000883423              -0.000664545               0.001745018               0.001080473               0.000000000               0.000000000               0.000000000               0.000000000              -0.000290213               0.003992101               0.000801020              -0.000607841               0.001533301               0.000925459               0.000000000               0.000000000               0.000000000               0.000000000              -0.000292466               0.003415757               0.000715879              -0.000536643               0.001317455               0.000780812               0.000000000               0.000000000               0.000000000               0.000000000              -0.000259147               0.002838332               0.000613070              -0.000451971               0.001096758               0.000644787               0.000000000               0.000000000               0.000000000               0.000000000              -0.000195751               0.002257520               0.000470054              -0.000355596               0.000871031               0.000515435               0.000000000               0.000000000               0.000000000               0.000000000              -0.000106335               0.001676871               0.000265516              -0.000249484               0.000642113               0.000392629               0.000000000               0.000000000               0.000000000               0.000000000              -0.000097079               0.001278116               0.000160871              -0.000196169               0.000491424               0.000295255               0.000000000               0.000000000               0.000000000               0.000000000               0.002393473               0.018290281              -0.003529373              -0.001388731               0.006559609               0.005170878               0.000000000               0.000000000               0.000000000               0.000000000               0.001362948               0.014542093              -0.001513485              -0.001306653               0.005282867               0.003976213               0.000000000               0.000000000               0.000000000               0.000000000               0.000938783               0.011794374               0.000417299              -0.001122250               0.004305502               0.003183252               0.000000000               0.000000000               0.000000000               0.000000000               0.000430425               0.010125884               0.001128190              -0.001104324               0.003743369               0.002639045               0.000000000               0.000000000               0.000000000               0.000000000               0.000031694               0.008954789               0.001356253              -0.001107461               0.003354053               0.002246592               0.000000000               0.000000000               0.000000000               0.000000000              -0.000254187               0.008040356               0.001384681              -0.001100362               0.003046879               0.001946517               0.000000000               0.000000000               0.000000000               0.000000000              -0.000443994               0.007274877               0.001340858              -0.001075855               0.002783553               0.001707698               0.000000000               0.000000000               0.000000000               0.000000000              -0.000554544               0.006600744               0.001270383              -0.001033045               0.002544574               0.001511529               0.000000000               0.000000000               0.000000000               0.000000000              -0.000608913               0.005978629               0.001188374              -0.000975669               0.002318079               0.001342410               0.000000000               0.000000000               0.000000000               0.000000000              -0.000622295               0.005385590               0.001099286              -0.000906558               0.002097364               0.001190807               0.000000000               0.000000000               0.000000000               0.000000000              -0.000599555               0.004821553               0.000999740              -0.000827526               0.001883010               0.001055484               0.000000000               0.000000000               0.000000000               0.000000000              -0.000547973               0.004280787               0.000893063              -0.000740587               0.001673777               0.000933190               0.000000000               0.000000000               0.000000000               0.000000000              -0.000466209               0.003764797               0.000781008              -0.000645427               0.001470062               0.000824635               0.000000000               0.000000000               0.000000000               0.000000000              -0.000359947               0.003275656               0.000651495              -0.000544436               0.001273353               0.000728917               0.000000000               0.000000000               0.000000000               0.000000000              -0.000241505               0.002824006               0.000482921              -0.000443564               0.001089181               0.000645616               0.000000000               0.000000000               0.000000000               0.000000000              -0.000121034               0.002430123               0.000263453              -0.000349152               0.000926417               0.000577265               0.000000000               0.000000000               0.000000000               0.000000000              -0.000085183               0.002195719               0.000153466              -0.000306408               0.000834035               0.000527627               0.000000000               0.000000000               0.000000000               0.000000000               0.002295628               0.015748416              -0.003884090              -0.001107691               0.005618649               0.004510958               0.000000000               0.000000000               0.000000000               0.000000000               0.000776670               0.013017128              -0.001671946              -0.001335887               0.004784295               0.003448408               0.000000000               0.000000000               0.000000000               0.000000000              -0.000159829               0.011221680               0.000405920              -0.001462642               0.004228070               0.002765428               0.000000000               0.000000000               0.000000000               0.000000000              -0.000749822               0.009963513               0.001108027              -0.001526619               0.003830011               0.002303392               0.000000000               0.000000000               0.000000000               0.000000000              -0.001070655               0.008973101               0.001308314              -0.001523130               0.003498714               0.001975584               0.000000000               0.000000000               0.000000000               0.000000000              -0.001212965               0.008149364               0.001314749              -0.001473529               0.003207604               0.001734075               0.000000000               0.000000000               0.000000000               0.000000000              -0.001245934               0.007427597               0.001255145              -0.001395672               0.002941065               0.001545393               0.000000000               0.000000000               0.000000000               0.000000000              -0.001204279               0.006768748               0.001176181              -0.001297695               0.002688792               0.001391096               0.000000000               0.000000000               0.000000000               0.000000000              -0.001115769               0.006153632               0.001087334              -0.001187615               0.002447061               0.001259447               0.000000000               0.000000000               0.000000000               0.000000000              -0.001003619               0.005572886               0.000995571              -0.001072966               0.002215265               0.001142300               0.000000000               0.000000000               0.000000000               0.000000000              -0.000871031               0.005033323               0.000895986              -0.000955800               0.001996357               0.001040557               0.000000000               0.000000000               0.000000000               0.000000000              -0.000720653               0.004540554               0.000785837              -0.000837812               0.001792773               0.000954961               0.000000000               0.000000000               0.000000000               0.000000000              -0.000559691               0.004091961               0.000668167              -0.000721378               0.001604433               0.000883055               0.000000000               0.000000000               0.000000000               0.000000000              -0.000395329               0.003693046               0.000535220              -0.000609878               0.001434295               0.000824418               0.000000000               0.000000000               0.000000000               0.000000000              -0.000240689               0.003358945               0.000379156              -0.000510125               0.001289679               0.000779554               0.000000000               0.000000000               0.000000000               0.000000000              -0.000110670               0.003115677               0.000198253              -0.000430960               0.001182202               0.000751242               0.000000000               0.000000000               0.000000000               0.000000000              -0.000063335               0.003001719               0.000108806              -0.000398964               0.001133551               0.000734587               0.000000000               0.000000000               0.000000000               0.000000000               0.001888335               0.013017449              -0.003777962              -0.000919056               0.004645458               0.003726401               0.000000000               0.000000000               0.000000000               0.000000000              -0.000004927               0.011410050              -0.001673067              -0.001428101               0.004279345               0.002851244               0.000000000               0.000000000               0.000000000               0.000000000              -0.001343191               0.010595767               0.000266214              -0.001828163               0.004141275               0.002313112               0.000000000               0.000000000               0.000000000               0.000000000              -0.001897716               0.009718920               0.000863752              -0.001926504               0.003881776               0.001955272               0.000000000               0.000000000               0.000000000               0.000000000              -0.002064827               0.008894287               0.001019486              -0.001886091               0.003593430               0.001707338               0.000000000               0.000000000               0.000000000               0.000000000              -0.002027216               0.008151136               0.001012557              -0.001779094               0.003310049               0.001530956               0.000000000               0.000000000               0.000000000               0.000000000              -0.001882663               0.007463885               0.000953244              -0.001638980               0.003034263               0.001395283               0.000000000               0.000000000               0.000000000               0.000000000              -0.001680386               0.006819975               0.000884244              -0.001482638               0.002767515               0.001284877               0.000000000               0.000000000               0.000000000               0.000000000              -0.001452477               0.006217060               0.000810300              -0.001321808               0.002512935               0.001191127               0.000000000               0.000000000               0.000000000               0.000000000              -0.001220103               0.005659617               0.000734270              -0.001164988               0.002274849               0.001109861               0.000000000               0.000000000               0.000000000               0.000000000              -0.000987494               0.005155602               0.000655168              -0.001014758               0.002056769               0.001042011               0.000000000               0.000000000               0.000000000               0.000000000              -0.000757096               0.004712639               0.000562025              -0.000872989               0.001861860               0.000988871               0.000000000               0.000000000               0.000000000               0.000000000              -0.000542511               0.004326240               0.000456894              -0.000744220               0.001690139               0.000945919               0.000000000               0.000000000               0.000000000               0.000000000              -0.000351239               0.004006302               0.000344398              -0.000632501               0.001546254               0.000913753               0.000000000               0.000000000               0.000000000               0.000000000              -0.000189330               0.003770238               0.000225947              -0.000542277               0.001437493               0.000895215               0.000000000               0.000000000               0.000000000               0.000000000              -0.000075053               0.003631580               0.000109896              -0.000482091               0.001371211               0.000889120               0.000000000               0.000000000               0.000000000               0.000000000              -0.000032277               0.003592431               0.000053875              -0.000461156               0.001351184               0.000890027               0.000000000               0.000000000               0.000000000               0.000000000               0.001104909               0.010326994              -0.003297832              -0.000876534               0.003734474               0.002857940               0.000000000               0.000000000               0.000000000               0.000000000              -0.000940683               0.009852131              -0.001576576              -0.001584270               0.003812100               0.002227831               0.000000000               0.000000000               0.000000000               0.000000000              -0.002481387               0.009937553              -0.000007509              -0.002172709               0.004036721               0.001864012               0.000000000               0.000000000               0.000000000               0.000000000              -0.002872046               0.009378931               0.000441622              -0.002249378               0.003876072               0.001626694               0.000000000               0.000000000               0.000000000               0.000000000              -0.002817510               0.008691199               0.000561034              -0.002142961               0.003611358               0.001468397               0.000000000               0.000000000               0.000000000               0.000000000              -0.002575842               0.008009432               0.000564580              -0.001967115               0.003325489               0.001358374               0.000000000               0.000000000               0.000000000               0.000000000              -0.002253558               0.007352704               0.000531547              -0.001764168               0.003038933               0.001274765               0.000000000               0.000000000               0.000000000               0.000000000              -0.001905249               0.006733480               0.000493836              -0.001556150               0.002763187               0.001207038               0.000000000               0.000000000               0.000000000               0.000000000              -0.001558890               0.006158788               0.000453641              -0.001354429               0.002504385               0.001149956               0.000000000               0.000000000               0.000000000               0.000000000              -0.001231080               0.005636435               0.000411419              -0.001166207               0.002267528               0.001101322               0.000000000               0.000000000               0.000000000               0.000000000              -0.000927913               0.005174962               0.000365149              -0.000994835               0.002056582               0.001061747               0.000000000               0.000000000               0.000000000               0.000000000              -0.000651810               0.004780887               0.000302698              -0.000842037               0.001874292               0.001032255               0.000000000               0.000000000               0.000000000               0.000000000              -0.000414672               0.004458821               0.000227275              -0.000712853               0.001723876               0.001011023               0.000000000               0.000000000               0.000000000               0.000000000              -0.000226526               0.004220658               0.000152023              -0.000612528               0.001611048               0.000998520               0.000000000               0.000000000               0.000000000               0.000000000              -0.000092398               0.004075321               0.000082301              -0.000544063               0.001539781               0.000995718               0.000000000               0.000000000               0.000000000               0.000000000              -0.000022194               0.004020104               0.000030804              -0.000510835               0.001510299               0.000999465               0.000000000               0.000000000               0.000000000               0.000000000               0.000001479               0.004027016               0.000008282              -0.000502821               0.001509932               0.001007111               0.000000000               0.000000000               0.000000000               0.000000000              -0.000018363               0.007841530              -0.002553993              -0.000987077               0.002942842               0.001955765               0.000000000               0.000000000               0.000000000               0.000000000              -0.001969389               0.008433227              -0.001439703              -0.001792671               0.003408604               0.001615933               0.000000000               0.000000000               0.000000000               0.000000000              -0.003455773               0.009242546              -0.000402088              -0.002451227               0.003897894               0.001446666               0.000000000               0.000000000               0.000000000               0.000000000              -0.003579846               0.008924780              -0.000087109              -0.002458034               0.003794242               0.001336208               0.000000000               0.000000000               0.000000000               0.000000000              -0.003276487               0.008356580               0.000029123              -0.002273250               0.003543249               0.001269999               0.000000000               0.000000000               0.000000000               0.000000000              -0.002831388               0.007735537               0.000073529              -0.002028708               0.003254723               0.001226015               0.000000000               0.000000000               0.000000000               0.000000000              -0.002348780               0.007118834               0.000089788              -0.001770642               0.002963135               0.001192493               0.000000000               0.000000000               0.000000000               0.000000000              -0.001881541               0.006534850               0.000101876              -0.001522430               0.002685738               0.001163308               0.000000000               0.000000000               0.000000000               0.000000000              -0.001448980               0.005999007               0.000106046              -0.001293240               0.002430729               0.001137489               0.000000000               0.000000000               0.000000000               0.000000000              -0.001060325               0.005522127               0.000102200              -0.001087885               0.002203319               0.001115434               0.000000000               0.000000000               0.000000000               0.000000000              -0.000716422               0.005114195               0.000094563              -0.000907930               0.002007358               0.001099428               0.000000000               0.000000000               0.000000000               0.000000000              -0.000424859               0.004784706               0.000072220              -0.000757408               0.001847355               0.001089947               0.000000000               0.000000000               0.000000000               0.000000000              -0.000197308               0.004545782               0.000039754              -0.000642212               0.001729316               0.001087104               0.000000000               0.000000000               0.000000000               0.000000000              -0.000042032               0.004405682               0.000011319              -0.000566471               0.001657370               0.001090899               0.000000000               0.000000000               0.000000000               0.000000000               0.000038551               0.004359006              -0.000008771              -0.000530418               0.001629793               0.001099376               0.000000000               0.000000000               0.000000000               0.000000000               0.000044292               0.004384079              -0.000014134              -0.000531399               0.001638478               0.001107079               0.000000000               0.000000000               0.000000000               0.000000000               0.000032726               0.004425453              -0.000016733              -0.000540908               0.001655439               0.001114531               0.000000000               0.000000000               0.000000000               0.000000000              -0.001336729               0.005741642              -0.001664908              -0.001218976               0.002320187               0.001101210               0.000000000               0.000000000               0.000000000               0.000000000              -0.002971954               0.007156410              -0.001302312              -0.002009029               0.003055122               0.001046093               0.000000000               0.000000000               0.000000000               0.000000000              -0.004223797               0.008519914              -0.000881169              -0.002648907               0.003722912               0.001074005               0.000000000               0.000000000               0.000000000               0.000000000              -0.004067054               0.008454149              -0.000646150              -0.002581907               0.003678657               0.001096750               0.000000000               0.000000000               0.000000000               0.000000000              -0.003557123               0.008034319              -0.000501671              -0.002338205               0.003457481               0.001119276               0.000000000               0.000000000               0.000000000               0.000000000              -0.002950998               0.007501091              -0.000401155              -0.002044255               0.003181757               0.001137502               0.000000000               0.000000000               0.000000000               0.000000000              -0.002343795               0.006944232              -0.000323202              -0.001746948               0.002897037               0.001150089               0.000000000               0.000000000               0.000000000               0.000000000              -0.001787953               0.006407514              -0.000258232              -0.001471418               0.002626289               0.001154871               0.000000000               0.000000000               0.000000000               0.000000000              -0.001290221               0.005914923              -0.000209384              -0.001223195               0.002379353               0.001156158               0.000000000               0.000000000               0.000000000               0.000000000              -0.000853534               0.005482785              -0.000171479              -0.001005421               0.002162717               0.001157296               0.000000000               0.000000000               0.000000000               0.000000000              -0.000477869               0.005126064              -0.000138443              -0.000819957               0.001981990               0.001162033               0.000000000               0.000000000               0.000000000               0.000000000              -0.000177312               0.004850731              -0.000110544              -0.000672832               0.001841171               0.001168340               0.000000000               0.000000000               0.000000000               0.000000000               0.000034467               0.004671385              -0.000088058              -0.000570997               0.001747445               0.001176449               0.000000000               0.000000000               0.000000000               0.000000000               0.000155381               0.004596462              -0.000065680              -0.000516288               0.001704235               0.001187946               0.000000000               0.000000000               0.000000000               0.000000000               0.000196316               0.004619022              -0.000041968              -0.000503758               0.001707578               0.001203820               0.000000000               0.000000000               0.000000000               0.000000000               0.000174284               0.004704116              -0.000019739              -0.000522657               0.001742242               0.001219585               0.000000000               0.000000000               0.000000000               0.000000000               0.000141032               0.004761826              -0.000009327              -0.000542340               0.001768039               0.001225700               0.000000000               0.000000000               0.000000000               0.000000000              -0.002842680               0.003798909              -0.000743577              -0.001540865               0.001779911               0.000239046               0.000000000               0.000000000               0.000000000               0.000000000              -0.003815934               0.005660974              -0.001156918              -0.002138592               0.002599836               0.000461244               0.000000000               0.000000000               0.000000000               0.000000000              -0.004694771               0.007423000              -0.001380047              -0.002688407               0.003370444               0.000682037               0.000000000               0.000000000               0.000000000               0.000000000              -0.004386217               0.007742933              -0.001228529              -0.002612692               0.003451849               0.000839157               0.000000000               0.000000000               0.000000000               0.000000000              -0.003791494               0.007593141              -0.001054946              -0.002370947               0.003321337               0.000950390               0.000000000               0.000000000               0.000000000               0.000000000              -0.003138985               0.007258877              -0.000896876              -0.002084474               0.003114426               0.001029952               0.000000000               0.000000000               0.000000000               0.000000000              -0.002492922               0.006851022              -0.000757898              -0.001791219               0.002880724               0.001089505               0.000000000               0.000000000               0.000000000               0.000000000              -0.001894076               0.006427299              -0.000644004              -0.001513687               0.002646974               0.001133287               0.000000000               0.000000000               0.000000000               0.000000000              -0.001354629               0.006022690              -0.000551901              -0.001260819               0.002427816               0.001166997               0.000000000               0.000000000               0.000000000               0.000000000              -0.000880907               0.005653387              -0.000471292              -0.001037011               0.002230114               0.001193103               0.000000000               0.000000000               0.000000000               0.000000000              -0.000470969               0.005343402              -0.000394825              -0.000844536               0.002062628               0.001218092               0.000000000               0.000000000               0.000000000               0.000000000              -0.000134066               0.005095513              -0.000314734              -0.000687212               0.001927558               0.001240346               0.000000000               0.000000000               0.000000000               0.000000000               0.000118522               0.004913915              -0.000237284              -0.000569792               0.001827886               0.001258094               0.000000000               0.000000000               0.000000000               0.000000000               0.000280672               0.004815065              -0.000163454              -0.000496630               0.001770549               0.001273919               0.000000000               0.000000000               0.000000000               0.000000000               0.000356717               0.004807715              -0.000094658              -0.000467194               0.001758287               0.001291093               0.000000000               0.000000000               0.000000000               0.000000000               0.000362599               0.004877869              -0.000038491              -0.000473758               0.001783860               0.001310102               0.000000000               0.000000000               0.000000000               0.000000000               0.000331407               0.004920845              -0.000008379              -0.000490827               0.001803874               0.001313047               0.000000000               0.000000000               0.000000000               0.000000000              -0.004717043               0.002058267               0.000137751              -0.002026171               0.001361470              -0.000664701               0.000000000               0.000000000               0.000000000               0.000000000              -0.004761966               0.004145168              -0.000950845              -0.002303878               0.002149667              -0.000154211               0.000000000               0.000000000               0.000000000               0.000000000              -0.005090442               0.006110581              -0.001778627              -0.002672732               0.002927750               0.000255018               0.000000000               0.000000000               0.000000000               0.000000000              -0.004645878               0.006792781              -0.001777445              -0.002591296               0.003128003               0.000536707               0.000000000               0.000000000               0.000000000               0.000000000              -0.004004155               0.006949098              -0.001605832              -0.002370190               0.003106406               0.000736216               0.000000000               0.000000000               0.000000000               0.000000000              -0.003331693               0.006857400              -0.001411190              -0.002106555               0.002987962               0.000881407               0.000000000               0.000000000               0.000000000               0.000000000              -0.002669402               0.006639240              -0.001228569              -0.001830926               0.002823366               0.000992440               0.000000000               0.000000000               0.000000000               0.000000000              -0.002044709               0.006361458              -0.001072474              -0.001561944               0.002641113               0.001079168               0.000000000               0.000000000               0.000000000               0.000000000              -0.001473624               0.006065210              -0.000938108              -0.001310757               0.002458635               0.001147878               0.000000000               0.000000000               0.000000000               0.000000000              -0.000958331               0.005782451              -0.000816568              -0.001082178               0.002288190               0.001206012               0.000000000               0.000000000               0.000000000               0.000000000              -0.000501488               0.005531566              -0.000700015              -0.000879502               0.002137004               0.001257502               0.000000000               0.000000000               0.000000000               0.000000000              -0.000106115               0.005318445              -0.000581034              -0.000704597               0.002007663               0.001303066               0.000000000               0.000000000               0.000000000               0.000000000               0.000216589               0.005142845              -0.000458829              -0.000561633               0.001901476               0.001339842               0.000000000               0.000000000               0.000000000               0.000000000               0.000454422               0.005014292              -0.000332795              -0.000456377               0.001823540               0.001367162               0.000000000               0.000000000               0.000000000               0.000000000               0.000599909               0.004947097              -0.000206592              -0.000393420               0.001780156               0.001386736               0.000000000               0.000000000               0.000000000               0.000000000               0.000650856               0.004950572              -0.000091518              -0.000374750               0.001775091               0.001400341               0.000000000               0.000000000               0.000000000               0.000000000               0.000634316               0.004960843              -0.000032415              -0.000382236               0.001781010               0.001398774               0.000000000               0.000000000               0.000000000               0.000000000              -0.006836912               0.000665174               0.000888136              -0.002646986               0.001104046              -0.001542940               0.000000000               0.000000000               0.000000000               0.000000000              -0.005847127               0.002721311              -0.000674933              -0.002532832               0.001751369              -0.000781463               0.000000000               0.000000000               0.000000000               0.000000000              -0.005424933               0.004609381              -0.001974027              -0.002610517               0.002406616              -0.000203901               0.000000000               0.000000000               0.000000000               0.000000000              -0.004763555               0.005535796              -0.002163927              -0.002478302               0.002671347               0.000193045               0.000000000               0.000000000               0.000000000               0.000000000              -0.004056106               0.005973917              -0.002043695              -0.002267774               0.002747210               0.000479436               0.000000000               0.000000000               0.000000000               0.000000000              -0.003367697               0.006133901              -0.001848853              -0.002029620               0.002721153               0.000691533               0.000000000               0.000000000               0.000000000               0.000000000              -0.002706411               0.006128826              -0.001644996              -0.001781003               0.002636589               0.000855586               0.000000000               0.000000000               0.000000000               0.000000000              -0.002078670               0.006021938              -0.001461117              -0.001532240               0.002518039               0.000985799               0.000000000               0.000000000               0.000000000               0.000000000              -0.001494065               0.005863053              -0.001299081              -0.001293153               0.002385382               0.001092229               0.000000000               0.000000000               0.000000000               0.000000000              -0.000949319               0.005695401              -0.001151404              -0.001067917               0.002254420               0.001186503               0.000000000               0.000000000               0.000000000               0.000000000              -0.000447475               0.005535994              -0.001009433              -0.000859801               0.002131913               0.001272112               0.000000000               0.000000000               0.000000000               0.000000000               0.000008461               0.005392085              -0.000864126              -0.000670836               0.002020956               0.001350119               0.000000000               0.000000000               0.000000000               0.000000000               0.000403197               0.005255454              -0.000709029              -0.000505732               0.001920378               0.001414646               0.000000000               0.000000000               0.000000000               0.000000000               0.000722405               0.005135767              -0.000542529              -0.000371068               0.001835595               0.001464526               0.000000000               0.000000000               0.000000000               0.000000000               0.000951687               0.005046627              -0.000360726              -0.000273945               0.001773507               0.001499562               0.000000000               0.000000000               0.000000000               0.000000000               0.001078724               0.005008838              -0.000175375              -0.000221583               0.001743457               0.001521874               0.000000000               0.000000000               0.000000000               0.000000000               0.001103650               0.005000132              -0.000082544              -0.000211147               0.001737076               0.001525929               0.000000000               0.000000000               0.000000000               0.000000000              -0.009065512              -0.000310914               0.001390207              -0.003360700               0.001016588              -0.002344112               0.000000000               0.000000000               0.000000000               0.000000000              -0.007017458               0.001472341              -0.000387308              -0.002815586               0.001429299              -0.001386287               0.000000000               0.000000000               0.000000000               0.000000000              -0.005721352               0.003059320              -0.001942047              -0.002527918               0.001862399              -0.000665518               0.000000000               0.000000000               0.000000000               0.000000000              -0.004761988               0.004088023              -0.002298941              -0.002296744               0.002128240              -0.000168503               0.000000000               0.000000000               0.000000000               0.000000000              -0.003954394               0.004742918              -0.002260327              -0.002075758               0.002272875               0.000197117               0.000000000               0.000000000               0.000000000               0.000000000              -0.003243507               0.005130649              -0.002094793              -0.001857643               0.002329413               0.000471770               0.000000000               0.000000000               0.000000000               0.000000000              -0.002589731               0.005333479              -0.001901571              -0.001637831               0.002323752               0.000685921               0.000000000               0.000000000               0.000000000               0.000000000              -0.001970212               0.005413057              -0.001714402              -0.001415459               0.002276153               0.000860695               0.000000000               0.000000000               0.000000000               0.000000000              -0.001382919               0.005417313              -0.001543229              -0.001195756               0.002204338               0.001008582               0.000000000               0.000000000               0.000000000               0.000000000              -0.000824516               0.005382910              -0.001386956              -0.000982055               0.002121637               0.001139581               0.000000000               0.000000000               0.000000000               0.000000000              -0.000292784               0.005331541              -0.001238884              -0.000776235               0.002035907               0.001259672               0.000000000               0.000000000               0.000000000               0.000000000               0.000212467               0.005272414              -0.001087651              -0.000579376               0.001950579               0.001371203               0.000000000               0.000000000               0.000000000               0.000000000               0.000682677               0.005209392              -0.000919680              -0.000395170               0.001868170               0.001473000               0.000000000               0.000000000               0.000000000               0.000000000               0.001099051               0.005145481              -0.000727719              -0.000231041               0.001792157               0.001561116               0.000000000               0.000000000               0.000000000               0.000000000               0.001440530               0.005081095              -0.000507595              -0.000094938               0.001725328               0.001630389               0.000000000               0.000000000               0.000000000               0.000000000               0.001690497               0.005035434              -0.000261874               0.000004506               0.001676959               0.001681466               0.000000000               0.000000000               0.000000000               0.000000000               0.001802619               0.005025491              -0.000138603               0.000047795               0.001659215               0.001707010               0.000000000               0.000000000               0.000000000               0.000000000              -0.011191525              -0.000893528               0.001541781              -0.004085128               0.001063859              -0.003021269               0.000000000               0.000000000               0.000000000               0.000000000              -0.008164486               0.000472207              -0.000153543              -0.003120705               0.001197629              -0.001923076               0.000000000               0.000000000               0.000000000               0.000000000              -0.005993370               0.001614860              -0.001689580              -0.002449368               0.001354733              -0.001094635               0.000000000               0.000000000               0.000000000               0.000000000              -0.004683978               0.002623988              -0.002126131              -0.002084487               0.001569480              -0.000515007               0.000000000               0.000000000               0.000000000               0.000000000              -0.003751934               0.003403787              -0.002161424              -0.001832445               0.001745398              -0.000087047               0.000000000               0.000000000               0.000000000               0.000000000              -0.002998646               0.003967954              -0.002047945              -0.001620483               0.001862798               0.000242315               0.000000000               0.000000000               0.000000000               0.000000000              -0.002342932               0.004360387              -0.001890114              -0.001423645               0.001927995               0.000504350               0.000000000               0.000000000               0.000000000               0.000000000              -0.001737736               0.004616865              -0.001726402              -0.001228757               0.001948525               0.000719768               0.000000000               0.000000000               0.000000000               0.000000000              -0.001161664               0.004783922              -0.001570312              -0.001033612               0.001939162               0.000905549               0.000000000               0.000000000               0.000000000               0.000000000              -0.000599649               0.004893874              -0.001427698              -0.000836601               0.001910142               0.001073540               0.000000000               0.000000000               0.000000000               0.000000000              -0.000046508               0.004962519              -0.001295237              -0.000637755               0.001866741               0.001228986               0.000000000               0.000000000               0.000000000               0.000000000               0.000495131               0.005003702              -0.001159170              -0.000439788               0.001814480               0.001374692               0.000000000               0.000000000               0.000000000               0.000000000               0.001024942               0.005030548              -0.001003843              -0.000244465               0.001758321               0.001513855               0.000000000               0.000000000               0.000000000               0.000000000               0.001539023               0.005045516              -0.000818040              -0.000053557               0.001699674               0.001646117               0.000000000               0.000000000               0.000000000               0.000000000               0.002021333               0.005041790              -0.000592782               0.000127775               0.001637988               0.001765763               0.000000000               0.000000000               0.000000000               0.000000000               0.002450008               0.005025540              -0.000319796               0.000290558               0.001578311               0.001868868               0.000000000               0.000000000               0.000000000               0.000000000               0.002703631               0.005038320              -0.000183466               0.000384068               0.001551401               0.001935468               0.000000000               0.000000000               0.000000000               0.000000000              -0.012971740              -0.001187436               0.001304983              -0.004715970               0.001176170              -0.003539800               0.000000000               0.000000000               0.000000000               0.000000000              -0.009143995              -0.000248138              -0.000018929              -0.003397978               0.001049940              -0.002348039               0.000000000               0.000000000               0.000000000               0.000000000              -0.006224057               0.000439091              -0.001248397              -0.002388905               0.000942659              -0.001446247               0.000000000               0.000000000               0.000000000               0.000000000              -0.004580597               0.001350668              -0.001643593              -0.001886555               0.001079066              -0.000807489               0.000000000               0.000000000               0.000000000               0.000000000              -0.003510686               0.002181169              -0.001711912              -0.001589151               0.001256764              -0.000332387               0.000000000               0.000000000               0.000000000               0.000000000              -0.002708182               0.002863499              -0.001650908              -0.001373503               0.001412323               0.000038820               0.000000000               0.000000000               0.000000000               0.000000000              -0.002041507               0.003398839              -0.001544003              -0.001190418               0.001529740               0.000339323               0.000000000               0.000000000               0.000000000               0.000000000              -0.001447619               0.003805982              -0.001423932              -0.001018603               0.001608182               0.000589579               0.000000000               0.000000000               0.000000000               0.000000000              -0.000887491               0.004112943              -0.001305768              -0.000846926               0.001653275               0.000806350               0.000000000               0.000000000               0.000000000               0.000000000              -0.000332229               0.004347205              -0.001199698              -0.000667986               0.001671716               0.001003730               0.000000000               0.000000000               0.000000000               0.000000000               0.000230663               0.004528290              -0.001098631              -0.000479537               0.001669261               0.001189723               0.000000000               0.000000000               0.000000000               0.000000000               0.000801481               0.004673290              -0.000992321              -0.000283606               0.001652283               0.001368677               0.000000000               0.000000000               0.000000000               0.000000000               0.001387499               0.004795217              -0.000873778              -0.000079091               0.001624753               0.001545662               0.000000000               0.000000000               0.000000000               0.000000000               0.001993469               0.004891601              -0.000730464               0.000136099               0.001585151               0.001721250               0.000000000               0.000000000               0.000000000               0.000000000               0.002619797               0.004960253              -0.000547871               0.000362389               0.001532605               0.001894994               0.000000000               0.000000000               0.000000000               0.000000000               0.003261514               0.004996267              -0.000305951               0.000598529               0.001465896               0.002064425               0.000000000               0.000000000               0.000000000               0.000000000               0.003701952               0.005048257              -0.000183811               0.000757192               0.001430338               0.002187530               0.000000000               0.000000000               0.000000000               0.000000000              -0.014159943              -0.001301354               0.000746033              -0.005147306               0.001281975              -0.003865331               0.000000000               0.000000000               0.000000000               0.000000000              -0.009811280              -0.000678800               0.000019496              -0.003594377               0.000971852              -0.002622525               0.000000000               0.000000000               0.000000000               0.000000000              -0.006379706              -0.000329842              -0.000664651              -0.002351158               0.000673767              -0.001677391               0.000000000               0.000000000               0.000000000               0.000000000              -0.004497182               0.000474325              -0.000898363              -0.001745732               0.000740014              -0.001005719               0.000000000               0.000000000               0.000000000               0.000000000              -0.003313313               0.001312572              -0.000949840              -0.001406562               0.000906371              -0.000500190               0.000000000               0.000000000               0.000000000               0.000000000              -0.002468902               0.002063686              -0.000928232              -0.001183797               0.001082487              -0.000101310               0.000000000               0.000000000               0.000000000               0.000000000              -0.001792218               0.002691655              -0.000876194              -0.001008536               0.001233388               0.000224852               0.000000000               0.000000000               0.000000000               0.000000000              -0.001202150               0.003195019              -0.000811728              -0.000850182               0.001348389               0.000498208               0.000000000               0.000000000               0.000000000               0.000000000              -0.000647229               0.003586489              -0.000748317              -0.000691021               0.001425824               0.000734804               0.000000000               0.000000000               0.000000000               0.000000000              -0.000099179               0.003899164              -0.000692616              -0.000524587               0.001474571               0.000949984               0.000000000               0.000000000               0.000000000               0.000000000               0.000462107               0.004165583              -0.000637284              -0.000347407               0.001504316               0.001156909               0.000000000               0.000000000               0.000000000               0.000000000               0.001051260               0.004394076              -0.000577992              -0.000155037               0.001516356               0.001361319               0.000000000               0.000000000               0.000000000               0.000000000               0.001680159               0.004590528              -0.000512656               0.000056243               0.001511413               0.001567656               0.000000000               0.000000000               0.000000000               0.000000000               0.002358976               0.004754389              -0.000433131               0.000290314               0.001488009               0.001778323               0.000000000               0.000000000               0.000000000               0.000000000               0.003099938               0.004879826              -0.000331372               0.000552493               0.001442428               0.001994921               0.000000000               0.000000000               0.000000000               0.000000000               0.003918420               0.004957637              -0.000189866               0.000849694               0.001369298               0.002218992               0.000000000               0.000000000               0.000000000               0.000000000               0.004526592               0.005045910              -0.000118316               0.001066723               0.001326379               0.002393102               0.000000000               0.000000000               0.000000000               0.000000000              -0.014576613              -0.001322191               0.000000000              -0.005300953               0.001326245              -0.003974708               0.000000000               0.000000000               0.000000000               0.000000000              -0.010049440              -0.000819888               0.000000000              -0.003666052               0.000948715              -0.002717337               0.000000000               0.000000000               0.000000000               0.000000000              -0.006434401              -0.000600903              -0.000000000              -0.002337786               0.000578957              -0.001758829               0.000000000               0.000000000               0.000000000               0.000000000              -0.004466029               0.000158359               0.000000000              -0.001694554               0.000617633              -0.001076921               0.000000000               0.000000000               0.000000000               0.000000000              -0.003235747               0.001000032              -0.000000000              -0.001338407               0.000779474              -0.000558933               0.000000000               0.000000000               0.000000000               0.000000000              -0.002373928               0.001774953              -0.000000000              -0.001112090               0.000962341              -0.000149749               0.000000000               0.000000000               0.000000000               0.000000000              -0.001698073               0.002431833               0.000000000              -0.000940754               0.001124188               0.000183433               0.000000000               0.000000000               0.000000000               0.000000000              -0.001105894               0.002965662               0.000000000              -0.000785416               0.001250349               0.000464933               0.000000000               0.000000000               0.000000000               0.000000000              -0.000547613               0.003384459               0.000000000              -0.000628411               0.001337612               0.000709201               0.000000000               0.000000000               0.000000000               0.000000000               0.000000051               0.003726037              -0.000000000              -0.000465735               0.001397245               0.000931510               0.000000000               0.000000000               0.000000000               0.000000000               0.000558646               0.004025971               0.000000000              -0.000293754               0.001439895               0.001146141               0.000000000               0.000000000               0.000000000               0.000000000               0.001150253               0.004282940               0.000000000              -0.000104022               0.001462307               0.001358284               0.000000000               0.000000000               0.000000000               0.000000000               0.001790946               0.004504622               0.000000000               0.000108526               0.001465350               0.001573876               0.000000000               0.000000000               0.000000000               0.000000000               0.002496996               0.004695606               0.000000000               0.000349419               0.001448713               0.001798133               0.000000000               0.000000000               0.000000000               0.000000000               0.003284020               0.004845233              -0.000000000               0.000625847               0.001406446               0.002032293               0.000000000               0.000000000               0.000000000               0.000000000               0.004172019               0.004941295              -0.000000000               0.000946836               0.001331470               0.002278306               0.000000000               0.000000000               0.000000000               0.000000000               0.004845857               0.005044169              -0.000000000               0.001186663               0.001285819               0.002472482               0.000000000               0.000000000               0.000000000               0.000000000               0.000000000               0.000000000               0.000000000               0.000000000               0.000000000               0.000000000               0.000000000               0.000000000               0.000000000               0.000000000               0.000000000               0.000000000               0.000000000               0.000000000               0.000000000               0.000000000               0.000000000               0.000000000               0.000000000               0.000000000               0.000000000               0.000000000               0.000000000               0.000000000               0.000000000               0.000000000               0.000000000               0.000000000               0.000000000               0.000000000               0.000000000               0.000000000               0.000000000               0.000000000               0.000000000               0.000000000               0.000000000               0.000000000               0.000000000               0.000000000               0.000000000               0.000000000               0.000000000               0.000000000               0.000000000               0.000000000               0.000000000               0.000000000               0.000000000               0.000000000               0.000000000               0.000000000               0.000000000               0.000000000               0.000000000               0.000000000               0.000000000               0.000000000               0.000000000               0.000000000               0.000000000               0.000000000               0.000000000               0.000000000               0.000000000               0.000000000               0.000000000               0.000000000               0.000000000               0.000000000               0.000000000               0.000000000               0.000000000               0.000000000               0.000000000               0.000000000               0.000000000               0.000000000               0.000000000               0.000000000               0.000000000               0.000000000               0.000000000               0.000000000               0.000000000               0.000000000               0.000000000               0.000000000               0.000000000               0.000000000               0.000000000               0.000000000               0.000000000               0.000000000               0.000000000               0.000000000               0.000000000               0.000000000               0.000000000               0.000000000               0.000000000               0.000000000               0.000000000               0.000000000               0.000000000               0.000000000               0.000000000               0.000000000               0.000000000               0.000000000               0.000000000               0.000000000               0.000000000               0.000000000               0.000000000               0.000000000               0.000000000               0.000000000               0.000000000               0.000000000               0.000000000               0.000000000               0.000000000               0.000000000               0.000000000               0.000000000               0.000000000               0.000000000               0.000000000               0.000000000               0.000000000               0.000000000               0.000000000               0.000000000               0.000000000               0.000000000               0.000000000               0.000000000               0.000000000               0.000000000               0.000000000               0.000000000               0.000000000               0.000000000               0.000000000               0.000000000               0.000000000               0.000000000               0.000000000               0.000000000               0.000000000               0.000000000               0.000000000               0.000000000               0.000000000               0.000000000               0.000000000               0.000000000               0.000000000               0.000000000               0.000000000               0.000000000               0.000000000               0.000000000               0.000000000               0.000000000               0.000000000               0.000000000               0.000000000               0.000000000               0.002169670               0.021735372               0.001458945              -0.001903291               0.007879482               0.005976191               0.000000000               0.000000000               0.000000000               0.000000000               0.001956247               0.016661065               0.000635195              -0.001349037               0.006003312               0.004654275               0.000000000               0.000000000               0.000000000               0.000000000               0.002400015               0.012578736              -0.000177048              -0.000672335               0.004416982               0.003744647               0.000000000               0.000000000               0.000000000               0.000000000               0.002153779               0.010266856              -0.000510166              -0.000475689               0.003580814               0.003105125               0.000000000               0.000000000               0.000000000               0.000000000               0.001743887               0.008792676              -0.000635511              -0.000445126               0.003079238               0.002634112               0.000000000               0.000000000               0.000000000               0.000000000               0.001334482               0.007738206              -0.000666348              -0.000466844               0.002734991               0.002268147               0.000000000               0.000000000               0.000000000               0.000000000               0.000970975               0.006908246              -0.000657589              -0.000499414               0.002469197               0.001969783               0.000000000               0.000000000               0.000000000               0.000000000               0.000669127               0.006206629              -0.000632972              -0.000524905               0.002243824               0.001718919               0.000000000               0.000000000               0.000000000               0.000000000               0.000421006               0.005573812              -0.000602414              -0.000538848               0.002037535               0.001498686               0.000000000               0.000000000               0.000000000               0.000000000               0.000213033               0.004972045              -0.000567001              -0.000541617               0.001837871               0.001296254               0.000000000               0.000000000               0.000000000               0.000000000               0.000051300               0.004375952              -0.000523797              -0.000527756               0.001634555               0.001106799               0.000000000               0.000000000               0.000000000               0.000000000              -0.000060634               0.003771165              -0.000478695              -0.000494132               0.001421753               0.000927621               0.000000000               0.000000000               0.000000000               0.000000000              -0.000127631               0.003150701              -0.000433927              -0.000441699               0.001197456               0.000755758               0.000000000               0.000000000               0.000000000               0.000000000              -0.000154686               0.002505523              -0.000380107              -0.000371197               0.000958898               0.000587701               0.000000000               0.000000000               0.000000000               0.000000000              -0.000143270               0.001819637              -0.000300126              -0.000281180               0.000700266               0.000419086               0.000000000               0.000000000               0.000000000               0.000000000              -0.000086092               0.001074884              -0.000174678              -0.000166645               0.000413839               0.000247195               0.000000000               0.000000000               0.000000000               0.000000000              -0.000104710               0.000518122              -0.000110104              -0.000104031               0.000207383               0.000103351               0.000000000               0.000000000               0.000000000               0.000000000               0.002301274               0.020368326               0.002696044              -0.001683060               0.007350394               0.005667334               0.000000000               0.000000000               0.000000000               0.000000000               0.001747179               0.015812647               0.001164874              -0.001321386               0.005711292               0.004389906               0.000000000               0.000000000               0.000000000               0.000000000               0.001827344               0.012265529              -0.000327777              -0.000847935               0.004371114               0.003523179               0.000000000               0.000000000               0.000000000               0.000000000               0.001456359               0.010221683              -0.000915181              -0.000731574               0.003651052               0.002919477               0.000000000               0.000000000               0.000000000               0.000000000               0.001035477               0.008876470              -0.001123632              -0.000721254               0.003199212               0.002477958               0.000000000               0.000000000               0.000000000               0.000000000               0.000664212               0.007880656              -0.001165537              -0.000736001               0.002872193               0.002136191               0.000000000               0.000000000               0.000000000               0.000000000               0.000362236               0.007077015              -0.001141521              -0.000748787               0.002608577               0.001859790               0.000000000               0.000000000               0.000000000               0.000000000               0.000131005               0.006385911              -0.001091064              -0.000749111               0.002378319               0.001629209               0.000000000               0.000000000               0.000000000               0.000000000              -0.000039349               0.005757188              -0.001030308              -0.000734403               0.002163844               0.001429441               0.000000000               0.000000000               0.000000000               0.000000000              -0.000164548               0.005157060              -0.000962017              -0.000706337               0.001954448               0.001248111               0.000000000               0.000000000               0.000000000               0.000000000              -0.000248606               0.004570555              -0.000883423              -0.000664545               0.001745018               0.001080473               0.000000000               0.000000000               0.000000000               0.000000000              -0.000290213               0.003992101              -0.000801020              -0.000607841               0.001533301               0.000925459               0.000000000               0.000000000               0.000000000               0.000000000              -0.000292466               0.003415757              -0.000715879              -0.000536643               0.001317455               0.000780812               0.000000000               0.000000000               0.000000000               0.000000000              -0.000259147               0.002838332              -0.000613070              -0.000451971               0.001096758               0.000644787               0.000000000               0.000000000               0.000000000               0.000000000              -0.000195751               0.002257520              -0.000470054              -0.000355596               0.000871031               0.000515435               0.000000000               0.000000000               0.000000000               0.000000000              -0.000106335               0.001676871              -0.000265516              -0.000249484               0.000642113               0.000392629               0.000000000               0.000000000               0.000000000               0.000000000              -0.000097079               0.001278116              -0.000160871              -0.000196169               0.000491424               0.000295255               0.000000000               0.000000000               0.000000000               0.000000000               0.002393473               0.018290281               0.003529373              -0.001388731               0.006559609               0.005170878               0.000000000               0.000000000               0.000000000               0.000000000               0.001362948               0.014542093               0.001513485              -0.001306653               0.005282867               0.003976213               0.000000000               0.000000000               0.000000000               0.000000000               0.000938783               0.011794374              -0.000417299              -0.001122250               0.004305502               0.003183252               0.000000000               0.000000000               0.000000000               0.000000000               0.000430425               0.010125884              -0.001128190              -0.001104324               0.003743369               0.002639045               0.000000000               0.000000000               0.000000000               0.000000000               0.000031694               0.008954789              -0.001356253              -0.001107461               0.003354053               0.002246592               0.000000000               0.000000000               0.000000000               0.000000000              -0.000254187               0.008040356              -0.001384681              -0.001100362               0.003046879               0.001946517               0.000000000               0.000000000               0.000000000               0.000000000              -0.000443994               0.007274877              -0.001340858              -0.001075855               0.002783553               0.001707698               0.000000000               0.000000000               0.000000000               0.000000000              -0.000554544               0.006600744              -0.001270383              -0.001033045               0.002544574               0.001511529               0.000000000               0.000000000               0.000000000               0.000000000              -0.000608913               0.005978629              -0.001188374              -0.000975669               0.002318079               0.001342410               0.000000000               0.000000000               0.000000000               0.000000000              -0.000622295               0.005385590              -0.001099286              -0.000906558               0.002097364               0.001190807               0.000000000               0.000000000               0.000000000               0.000000000              -0.000599555               0.004821553              -0.000999740              -0.000827526               0.001883010               0.001055484               0.000000000               0.000000000               0.000000000               0.000000000              -0.000547973               0.004280787              -0.000893063              -0.000740587               0.001673777               0.000933190               0.000000000               0.000000000               0.000000000               0.000000000              -0.000466209               0.003764797              -0.000781008              -0.000645427               0.001470062               0.000824635               0.000000000               0.000000000               0.000000000               0.000000000              -0.000359947               0.003275656              -0.000651495              -0.000544436               0.001273353               0.000728917               0.000000000               0.000000000               0.000000000               0.000000000              -0.000241505               0.002824006              -0.000482921              -0.000443564               0.001089181               0.000645616               0.000000000               0.000000000               0.000000000               0.000000000              -0.000121034               0.002430123              -0.000263453              -0.000349152               0.000926417               0.000577265               0.000000000               0.000000000               0.000000000               0.000000000              -0.000085183               0.002195719              -0.000153466              -0.000306408               0.000834035               0.000527627               0.000000000               0.000000000               0.000000000               0.000000000               0.002295628               0.015748416               0.003884090              -0.001107691               0.005618649               0.004510958               0.000000000               0.000000000               0.000000000               0.000000000               0.000776670               0.013017128               0.001671946              -0.001335887               0.004784295               0.003448408               0.000000000               0.000000000               0.000000000               0.000000000              -0.000159829               0.011221680              -0.000405920              -0.001462642               0.004228070               0.002765428               0.000000000               0.000000000               0.000000000               0.000000000              -0.000749822               0.009963513              -0.001108027              -0.001526619               0.003830011               0.002303392               0.000000000               0.000000000               0.000000000               0.000000000              -0.001070655               0.008973101              -0.001308314              -0.001523130               0.003498714               0.001975584               0.000000000               0.000000000               0.000000000               0.000000000              -0.001212965               0.008149364              -0.001314749              -0.001473529               0.003207604               0.001734075               0.000000000               0.000000000               0.000000000               0.000000000              -0.001245934               0.007427597              -0.001255145              -0.001395672               0.002941065               0.001545393               0.000000000               0.000000000               0.000000000               0.000000000              -0.001204279               0.006768748              -0.001176181              -0.001297695               0.002688792               0.001391096               0.000000000               0.000000000               0.000000000               0.000000000              -0.001115769               0.006153632              -0.001087334              -0.001187615               0.002447061               0.001259447               0.000000000               0.000000000               0.000000000               0.000000000              -0.001003619               0.005572886              -0.000995571              -0.001072966               0.002215265               0.001142300               0.000000000               0.000000000               0.000000000               0.000000000              -0.000871031               0.005033323              -0.000895986              -0.000955800               0.001996357               0.001040557               0.000000000               0.000000000               0.000000000               0.000000000              -0.000720653               0.004540554              -0.000785837              -0.000837812               0.001792773               0.000954961               0.000000000               0.000000000               0.000000000               0.000000000              -0.000559691               0.004091961              -0.000668167              -0.000721378               0.001604433               0.000883055               0.000000000               0.000000000               0.000000000               0.000000000              -0.000395329               0.003693046              -0.000535220              -0.000609878               0.001434295               0.000824418               0.000000000               0.000000000               0.000000000               0.000000000              -0.000240689               0.003358945              -0.000379156              -0.000510125               0.001289679               0.000779554               0.000000000               0.000000000               0.000000000               0.000000000              -0.000110670               0.003115677              -0.000198253              -0.000430960               0.001182202               0.000751242               0.000000000               0.000000000               0.000000000               0.000000000              -0.000063335               0.003001719              -0.000108806              -0.000398964               0.001133551               0.000734587               0.000000000               0.000000000               0.000000000               0.000000000               0.001888335               0.013017449               0.003777962              -0.000919056               0.004645458               0.003726401               0.000000000               0.000000000               0.000000000               0.000000000              -0.000004927               0.011410050               0.001673067              -0.001428101               0.004279345               0.002851244               0.000000000               0.000000000               0.000000000               0.000000000              -0.001343191               0.010595767              -0.000266214              -0.001828163               0.004141275               0.002313112               0.000000000               0.000000000               0.000000000               0.000000000              -0.001897716               0.009718920              -0.000863752              -0.001926504               0.003881776               0.001955272               0.000000000               0.000000000               0.000000000               0.000000000              -0.002064827               0.008894287              -0.001019486              -0.001886091               0.003593430               0.001707338               0.000000000               0.000000000               0.000000000               0.000000000              -0.002027216               0.008151136              -0.001012557              -0.001779094               0.003310049               0.001530956               0.000000000               0.000000000               0.000000000               0.000000000              -0.001882663               0.007463885              -0.000953244              -0.001638980               0.003034263               0.001395283               0.000000000               0.000000000               0.000000000               0.000000000              -0.001680386               0.006819975              -0.000884244              -0.001482638               0.002767515               0.001284877               0.000000000               0.000000000               0.000000000               0.000000000              -0.001452477               0.006217060              -0.000810300              -0.001321808               0.002512935               0.001191127               0.000000000               0.000000000               0.000000000               0.000000000              -0.001220103               0.005659617              -0.000734270              -0.001164988               0.002274849               0.001109861               0.000000000               0.000000000               0.000000000               0.000000000              -0.000987494               0.005155602              -0.000655168              -0.001014758               0.002056769               0.001042011               0.000000000               0.000000000               0.000000000               0.000000000              -0.000757096               0.004712639              -0.000562025              -0.000872989               0.001861860               0.000988871               0.000000000               0.000000000               0.000000000               0.000000000              -0.000542511               0.004326240              -0.000456894              -0.000744220               0.001690139               0.000945919               0.000000000               0.000000000               0.000000000               0.000000000              -0.000351239               0.004006302              -0.000344398              -0.000632501               0.001546254               0.000913753               0.000000000               0.000000000               0.000000000               0.000000000              -0.000189330               0.003770238              -0.000225947              -0.000542277               0.001437493               0.000895215               0.000000000               0.000000000               0.000000000               0.000000000              -0.000075053               0.003631580              -0.000109896              -0.000482091               0.001371211               0.000889120               0.000000000               0.000000000               0.000000000               0.000000000              -0.000032277               0.003592431              -0.000053875              -0.000461156               0.001351184               0.000890027               0.000000000               0.000000000               0.000000000               0.000000000               0.001104909               0.010326994               0.003297832              -0.000876534               0.003734474               0.002857940               0.000000000               0.000000000               0.000000000               0.000000000              -0.000940683               0.009852131               0.001576576              -0.001584270               0.003812100               0.002227831               0.000000000               0.000000000               0.000000000               0.000000000              -0.002481387               0.009937553               0.000007509              -0.002172709               0.004036721               0.001864012               0.000000000               0.000000000               0.000000000               0.000000000              -0.002872046               0.009378931              -0.000441622              -0.002249378               0.003876072               0.001626694               0.000000000               0.000000000               0.000000000               0.000000000              -0.002817510               0.008691199              -0.000561034              -0.002142961               0.003611358               0.001468397               0.000000000               0.000000000               0.000000000               0.000000000              -0.002575842               0.008009432              -0.000564580              -0.001967115               0.003325489               0.001358374               0.000000000               0.000000000               0.000000000               0.000000000              -0.002253558               0.007352704              -0.000531547              -0.001764168               0.003038933               0.001274765               0.000000000               0.000000000               0.000000000               0.000000000              -0.001905249               0.006733480              -0.000493836              -0.001556150               0.002763187               0.001207038               0.000000000               0.000000000               0.000000000               0.000000000              -0.001558890               0.006158788              -0.000453641              -0.001354429               0.002504385               0.001149956               0.000000000               0.000000000               0.000000000               0.000000000              -0.001231080               0.005636435              -0.000411419              -0.001166207               0.002267528               0.001101322               0.000000000               0.000000000               0.000000000               0.000000000              -0.000927913               0.005174962              -0.000365149              -0.000994835               0.002056582               0.001061747               0.000000000               0.000000000               0.000000000               0.000000000              -0.000651810               0.004780887              -0.000302698              -0.000842037               0.001874292               0.001032255               0.000000000               0.000000000               0.000000000               0.000000000              -0.000414672               0.004458821              -0.000227275              -0.000712853               0.001723876               0.001011023               0.000000000               0.000000000               0.000000000               0.000000000              -0.000226526               0.004220658              -0.000152023              -0.000612528               0.001611048               0.000998520               0.000000000               0.000000000               0.000000000               0.000000000              -0.000092398               0.004075321              -0.000082301              -0.000544063               0.001539781               0.000995718               0.000000000               0.000000000               0.000000000               0.000000000              -0.000022194               0.004020104              -0.000030804              -0.000510835               0.001510299               0.000999465               0.000000000               0.000000000               0.000000000               0.000000000               0.000001479               0.004027016              -0.000008282              -0.000502821               0.001509932               0.001007111               0.000000000               0.000000000               0.000000000               0.000000000              -0.000018363               0.007841530               0.002553993              -0.000987077               0.002942842               0.001955765               0.000000000               0.000000000               0.000000000               0.000000000              -0.001969389               0.008433227               0.001439703              -0.001792671               0.003408604               0.001615933               0.000000000               0.000000000               0.000000000               0.000000000              -0.003455773               0.009242546               0.000402088              -0.002451227               0.003897894               0.001446666               0.000000000               0.000000000               0.000000000               0.000000000              -0.003579846               0.008924780               0.000087109              -0.002458034               0.003794242               0.001336208               0.000000000               0.000000000               0.000000000               0.000000000              -0.003276487               0.008356580              -0.000029123              -0.002273250               0.003543249               0.001269999               0.000000000               0.000000000               0.000000000               0.000000000              -0.002831388               0.007735537              -0.000073529              -0.002028708               0.003254723               0.001226015               0.000000000               0.000000000               0.000000000               0.000000000              -0.002348780               0.007118834              -0.000089788              -0.001770642               0.002963135               0.001192493               0.000000000               0.000000000               0.000000000               0.000000000              -0.001881541               0.006534850              -0.000101876              -0.001522430               0.002685738               0.001163308               0.000000000               0.000000000               0.000000000               0.000000000              -0.001448980               0.005999007              -0.000106046              -0.001293240               0.002430729               0.001137489               0.000000000               0.000000000               0.000000000               0.000000000              -0.001060325               0.005522127              -0.000102200              -0.001087885               0.002203319               0.001115434               0.000000000               0.000000000               0.000000000               0.000000000              -0.000716422               0.005114195              -0.000094563              -0.000907930               0.002007358               0.001099428               0.000000000               0.000000000               0.000000000               0.000000000              -0.000424859               0.004784706              -0.000072220              -0.000757408               0.001847355               0.001089947               0.000000000               0.000000000               0.000000000               0.000000000              -0.000197308               0.004545782              -0.000039754              -0.000642212               0.001729316               0.001087104               0.000000000               0.000000000               0.000000000               0.000000000              -0.000042032               0.004405682              -0.000011319              -0.000566471               0.001657370               0.001090899               0.000000000               0.000000000               0.000000000               0.000000000               0.000038551               0.004359006               0.000008771              -0.000530418               0.001629793               0.001099376               0.000000000               0.000000000               0.000000000               0.000000000               0.000044292               0.004384079               0.000014134              -0.000531399               0.001638478               0.001107079               0.000000000               0.000000000               0.000000000               0.000000000               0.000032726               0.004425453               0.000016733              -0.000540908               0.001655439               0.001114531               0.000000000               0.000000000               0.000000000               0.000000000              -0.001336729               0.005741642               0.001664908              -0.001218976               0.002320187               0.001101210               0.000000000               0.000000000               0.000000000               0.000000000              -0.002971954               0.007156410               0.001302312              -0.002009029               0.003055122               0.001046093               0.000000000               0.000000000               0.000000000               0.000000000              -0.004223797               0.008519914               0.000881169              -0.002648907               0.003722912               0.001074005               0.000000000               0.000000000               0.000000000               0.000000000              -0.004067054               0.008454149               0.000646150              -0.002581907               0.003678657               0.001096750               0.000000000               0.000000000               0.000000000               0.000000000              -0.003557123               0.008034319               0.000501671              -0.002338205               0.003457481               0.001119276               0.000000000               0.000000000               0.000000000               0.000000000              -0.002950998               0.007501091               0.000401155              -0.002044255               0.003181757               0.001137502               0.000000000               0.000000000               0.000000000               0.000000000              -0.002343795               0.006944232               0.000323202              -0.001746948               0.002897037               0.001150089               0.000000000               0.000000000               0.000000000               0.000000000              -0.001787953               0.006407514               0.000258232              -0.001471418               0.002626289               0.001154871               0.000000000               0.000000000               0.000000000               0.000000000              -0.001290221               0.005914923               0.000209384              -0.001223195               0.002379353               0.001156158               0.000000000               0.000000000               0.000000000               0.000000000              -0.000853534               0.005482785               0.000171479              -0.001005421               0.002162717               0.001157296               0.000000000               0.000000000               0.000000000               0.000000000              -0.000477869               0.005126064               0.000138443              -0.000819957               0.001981990               0.001162033               0.000000000               0.000000000               0.000000000               0.000000000              -0.000177312               0.004850731               0.000110544              -0.000672832               0.001841171               0.001168340               0.000000000               0.000000000               0.000000000               0.000000000               0.000034467               0.004671385               0.000088058              -0.000570997               0.001747445               0.001176449               0.000000000               0.000000000               0.000000000               0.000000000               0.000155381               0.004596462               0.000065680              -0.000516288               0.001704235               0.001187946               0.000000000               0.000000000               0.000000000               0.000000000               0.000196316               0.004619022               0.000041968              -0.000503758               0.001707578               0.001203820               0.000000000               0.000000000               0.000000000               0.000000000               0.000174284               0.004704116               0.000019739              -0.000522657               0.001742242               0.001219585               0.000000000               0.000000000               0.000000000               0.000000000               0.000141032               0.004761826               0.000009327              -0.000542340               0.001768039               0.001225700               0.000000000               0.000000000               0.000000000               0.000000000              -0.002842680               0.003798909               0.000743577              -0.001540865               0.001779911               0.000239046               0.000000000               0.000000000               0.000000000               0.000000000              -0.003815934               0.005660974               0.001156918              -0.002138592               0.002599836               0.000461244               0.000000000               0.000000000               0.000000000               0.000000000              -0.004694771               0.007423000               0.001380047              -0.002688407               0.003370444               0.000682037               0.000000000               0.000000000               0.000000000               0.000000000              -0.004386217               0.007742933               0.001228529              -0.002612692               0.003451849               0.000839157               0.000000000               0.000000000               0.000000000               0.000000000              -0.003791494               0.007593141               0.001054946              -0.002370947               0.003321337               0.000950390               0.000000000               0.000000000               0.000000000               0.000000000              -0.003138985               0.007258877               0.000896876              -0.002084474               0.003114426               0.001029952               0.000000000               0.000000000               0.000000000               0.000000000              -0.002492922               0.006851022               0.000757898              -0.001791219               0.002880724               0.001089505               0.000000000               0.000000000               0.000000000               0.000000000              -0.001894076               0.006427299               0.000644004              -0.001513687               0.002646974               0.001133287               0.000000000               0.000000000               0.000000000               0.000000000              -0.001354629               0.006022690               0.000551901              -0.001260819               0.002427816               0.001166997               0.000000000               0.000000000               0.000000000               0.000000000              -0.000880907               0.005653387               0.000471292              -0.001037011               0.002230114               0.001193103               0.000000000               0.000000000               0.000000000               0.000000000              -0.000470969               0.005343402               0.000394825              -0.000844536               0.002062628               0.001218092               0.000000000               0.000000000               0.000000000               0.000000000              -0.000134066               0.005095513               0.000314734              -0.000687212               0.001927558               0.001240346               0.000000000               0.000000000               0.000000000               0.000000000               0.000118522               0.004913915               0.000237284              -0.000569792               0.001827886               0.001258094               0.000000000               0.000000000               0.000000000               0.000000000               0.000280672               0.004815065               0.000163454              -0.000496630               0.001770549               0.001273919               0.000000000               0.000000000               0.000000000               0.000000000               0.000356717               0.004807715               0.000094658              -0.000467194               0.001758287               0.001291093               0.000000000               0.000000000               0.000000000               0.000000000               0.000362599               0.004877869               0.000038491              -0.000473758               0.001783860               0.001310102               0.000000000               0.000000000               0.000000000               0.000000000               0.000331407               0.004920845               0.000008379              -0.000490827               0.001803874               0.001313047               0.000000000               0.000000000               0.000000000               0.000000000              -0.004717043               0.002058267              -0.000137751              -0.002026171               0.001361470              -0.000664701               0.000000000               0.000000000               0.000000000               0.000000000              -0.004761966               0.004145168               0.000950845              -0.002303878               0.002149667              -0.000154211               0.000000000               0.000000000               0.000000000               0.000000000              -0.005090442               0.006110581               0.001778627              -0.002672732               0.002927750               0.000255018               0.000000000               0.000000000               0.000000000               0.000000000              -0.004645878               0.006792781               0.001777445              -0.002591296               0.003128003               0.000536707               0.000000000               0.000000000               0.000000000               0.000000000              -0.004004155               0.006949098               0.001605832              -0.002370190               0.003106406               0.000736216               0.000000000               0.000000000               0.000000000               0.000000000              -0.003331693               0.006857400               0.001411190              -0.002106555               0.002987962               0.000881407               0.000000000               0.000000000               0.000000000               0.000000000              -0.002669402               0.006639240               0.001228569              -0.001830926               0.002823366               0.000992440               0.000000000               0.000000000               0.000000000               0.000000000              -0.002044709               0.006361458               0.001072474              -0.001561944               0.002641113               0.001079168               0.000000000               0.000000000               0.000000000               0.000000000              -0.001473624               0.006065210               0.000938108              -0.001310757               0.002458635               0.001147878               0.000000000               0.000000000               0.000000000               0.000000000              -0.000958331               0.005782451               0.000816568              -0.001082178               0.002288190               0.001206012               0.000000000               0.000000000               0.000000000               0.000000000              -0.000501488               0.005531566               0.000700015              -0.000879502               0.002137004               0.001257502               0.000000000               0.000000000               0.000000000               0.000000000              -0.000106115               0.005318445               0.000581034              -0.000704597               0.002007663               0.001303066               0.000000000               0.000000000               0.000000000               0.000000000               0.000216589               0.005142845               0.000458829              -0.000561633               0.001901476               0.001339842               0.000000000               0.000000000               0.000000000               0.000000000               0.000454422               0.005014292               0.000332795              -0.000456377               0.001823540               0.001367162               0.000000000               0.000000000               0.000000000               0.000000000               0.000599909               0.004947097               0.000206592              -0.000393420               0.001780156               0.001386736               0.000000000               0.000000000               0.000000000               0.000000000               0.000650856               0.004950572               0.000091518              -0.000374750               0.001775091               0.001400341               0.000000000               0.000000000               0.000000000               0.000000000               0.000634316               0.004960843               0.000032415              -0.000382236               0.001781010               0.001398774               0.000000000               0.000000000               0.000000000               0.000000000              -0.006836912               0.000665174              -0.000888136              -0.002646986               0.001104046              -0.001542940               0.000000000               0.000000000               0.000000000               0.000000000              -0.005847127               0.002721311               0.000674933              -0.002532832               0.001751369              -0.000781463               0.000000000               0.000000000               0.000000000               0.000000000              -0.005424933               0.004609381               0.001974027              -0.002610517               0.002406616              -0.000203901               0.000000000               0.000000000               0.000000000               0.000000000              -0.004763555               0.005535796               0.002163927              -0.002478302               0.002671347               0.000193045               0.000000000               0.000000000               0.000000000               0.000000000              -0.004056106               0.005973917               0.002043695              -0.002267774               0.002747210               0.000479436               0.000000000               0.000000000               0.000000000               0.000000000              -0.003367697               0.006133901               0.001848853              -0.002029620               0.002721153               0.000691533               0.000000000               0.000000000               0.000000000               0.000000000              -0.002706411               0.006128826               0.001644996              -0.001781003               0.002636589               0.000855586               0.000000000               0.000000000               0.000000000               0.000000000              -0.002078670               0.006021938               0.001461117              -0.001532240               0.002518039               0.000985799               0.000000000               0.000000000               0.000000000               0.000000000              -0.001494065               0.005863053               0.001299081              -0.001293153               0.002385382               0.001092229               0.000000000               0.000000000               0.000000000               0.000000000              -0.000949319               0.005695401               0.001151404              -0.001067917               0.002254420               0.001186503               0.000000000               0.000000000               0.000000000               0.000000000              -0.000447475               0.005535994               0.001009433              -0.000859801               0.002131913               0.001272112               0.000000000               0.000000000               0.000000000               0.000000000               0.000008461               0.005392085               0.000864126              -0.000670836               0.002020956               0.001350119               0.000000000               0.000000000               0.000000000               0.000000000               0.000403197               0.005255454               0.000709029              -0.000505732               0.001920378               0.001414646               0.000000000               0.000000000               0.000000000               0.000000000               0.000722405               0.005135767               0.000542529              -0.000371068               0.001835595               0.001464526               0.000000000               0.000000000               0.000000000               0.000000000               0.000951687               0.005046627               0.000360726              -0.000273945               0.001773507               0.001499562               0.000000000               0.000000000               0.000000000               0.000000000               0.001078724               0.005008838               0.000175375              -0.000221583               0.001743457               0.001521874               0.000000000               0.000000000               0.000000000               0.000000000               0.001103650               0.005000132               0.000082544              -0.000211147               0.001737076               0.001525929               0.000000000               0.000000000               0.000000000               0.000000000              -0.009065512              -0.000310914              -0.001390207              -0.003360700               0.001016588              -0.002344112               0.000000000               0.000000000               0.000000000               0.000000000              -0.007017458               0.001472341               0.000387308              -0.002815586               0.001429299              -0.001386287               0.000000000               0.000000000               0.000000000               0.000000000              -0.005721352               0.003059320               0.001942047              -0.002527918               0.001862399              -0.000665518               0.000000000               0.000000000               0.000000000               0.000000000              -0.004761988               0.004088023               0.002298941              -0.002296744               0.002128240              -0.000168503               0.000000000               0.000000000               0.000000000               0.000000000              -0.003954394               0.004742918               0.002260327              -0.002075758               0.002272875               0.000197117               0.000000000               0.000000000               0.000000000               0.000000000              -0.003243507               0.005130649               0.002094793              -0.001857643               0.002329413               0.000471770               0.000000000               0.000000000               0.000000000               0.000000000              -0.002589731               0.005333479               0.001901571              -0.001637831               0.002323752               0.000685921               0.000000000               0.000000000               0.000000000               0.000000000              -0.001970212               0.005413057               0.001714402              -0.001415459               0.002276153               0.000860695               0.000000000               0.000000000               0.000000000               0.000000000              -0.001382919               0.005417313               0.001543229              -0.001195756               0.002204338               0.001008582               0.000000000               0.000000000               0.000000000               0.000000000              -0.000824516               0.005382910               0.001386956              -0.000982055               0.002121637               0.001139581               0.000000000               0.000000000               0.000000000               0.000000000              -0.000292784               0.005331541               0.001238884              -0.000776235               0.002035907               0.001259672               0.000000000               0.000000000               0.000000000               0.000000000               0.000212467               0.005272414               0.001087651              -0.000579376               0.001950579               0.001371203               0.000000000               0.000000000               0.000000000               0.000000000               0.000682677               0.005209392               0.000919680              -0.000395170               0.001868170               0.001473000               0.000000000               0.000000000               0.000000000               0.000000000               0.001099051               0.005145481               0.000727719              -0.000231041               0.001792157               0.001561116               0.000000000               0.000000000               0.000000000               0.000000000               0.001440530               0.005081095               0.000507595              -0.000094938               0.001725328               0.001630389               0.000000000               0.000000000               0.000000000               0.000000000               0.001690497               0.005035434               0.000261874               0.000004506               0.001676959               0.001681466               0.000000000               0.000000000               0.000000000               0.000000000               0.001802619               0.005025491               0.000138603               0.000047795               0.001659215               0.001707010               0.000000000               0.000000000               0.000000000               0.000000000              -0.011191525              -0.000893528              -0.001541781              -0.004085128               0.001063859              -0.003021269               0.000000000               0.000000000               0.000000000               0.000000000              -0.008164486               0.000472207               0.000153543              -0.003120705               0.001197629              -0.001923076               0.000000000               0.000000000               0.000000000               0.000000000              -0.005993370               0.001614860               0.001689580              -0.002449368               0.001354733              -0.001094635               0.000000000               0.000000000               0.000000000               0.000000000              -0.004683978               0.002623988               0.002126131              -0.002084487               0.001569480              -0.000515007               0.000000000               0.000000000               0.000000000               0.000000000              -0.003751934               0.003403787               0.002161424              -0.001832445               0.001745398              -0.000087047               0.000000000               0.000000000               0.000000000               0.000000000              -0.002998646               0.003967954               0.002047945              -0.001620483               0.001862798               0.000242315               0.000000000               0.000000000               0.000000000               0.000000000              -0.002342932               0.004360387               0.001890114              -0.001423645               0.001927995               0.000504350               0.000000000               0.000000000               0.000000000               0.000000000              -0.001737736               0.004616865               0.001726402              -0.001228757               0.001948525               0.000719768               0.000000000               0.000000000               0.000000000               0.000000000              -0.001161664               0.004783922               0.001570312              -0.001033612               0.001939162               0.000905549               0.000000000               0.000000000               0.000000000               0.000000000              -0.000599649               0.004893874               0.001427698              -0.000836601               0.001910142               0.001073540               0.000000000               0.000000000               0.000000000               0.000000000              -0.000046508               0.004962519               0.001295237              -0.000637755               0.001866741               0.001228986               0.000000000               0.000000000               0.000000000               0.000000000               0.000495131               0.005003702               0.001159170              -0.000439788               0.001814480               0.001374692               0.000000000               0.000000000               0.000000000               0.000000000               0.001024942               0.005030548               0.001003843              -0.000244465               0.001758321               0.001513855               0.000000000               0.000000000               0.000000000               0.000000000               0.001539023               0.005045516               0.000818040              -0.000053557               0.001699674               0.001646117               0.000000000               0.000000000               0.000000000               0.000000000               0.002021333               0.005041790               0.000592782               0.000127775               0.001637988               0.001765763               0.000000000               0.000000000               0.000000000               0.000000000               0.002450008               0.005025540               0.000319796               0.000290558               0.001578311               0.001868868               0.000000000               0.000000000               0.000000000               0.000000000               0.002703631               0.005038320               0.000183466               0.000384068               0.001551401               0.001935468               0.000000000               0.000000000               0.000000000               0.000000000              -0.012971740              -0.001187436              -0.001304983              -0.004715970               0.001176170              -0.003539800               0.000000000               0.000000000               0.000000000               0.000000000              -0.009143995              -0.000248138               0.000018929              -0.003397978               0.001049940              -0.002348039               0.000000000               0.000000000               0.000000000               0.000000000              -0.006224057               0.000439091               0.001248397              -0.002388905               0.000942659              -0.001446247               0.000000000               0.000000000               0.000000000               0.000000000              -0.004580597               0.001350668               0.001643593              -0.001886555               0.001079066              -0.000807489               0.000000000               0.000000000               0.000000000               0.000000000              -0.003510686               0.002181169               0.001711912              -0.001589151               0.001256764              -0.000332387               0.000000000               0.000000000               0.000000000               0.000000000              -0.002708182               0.002863499               0.001650908              -0.001373503               0.001412323               0.000038820               0.000000000               0.000000000               0.000000000               0.000000000              -0.002041507               0.003398839               0.001544003              -0.001190418               0.001529740               0.000339323               0.000000000               0.000000000               0.000000000               0.000000000              -0.001447619               0.003805982               0.001423932              -0.001018603               0.001608182               0.000589579               0.000000000               0.000000000               0.000000000               0.000000000              -0.000887491               0.004112943               0.001305768              -0.000846926               0.001653275               0.000806350               0.000000000               0.000000000               0.000000000               0.000000000              -0.000332229               0.004347205               0.001199698              -0.000667986               0.001671716               0.001003730               0.000000000               0.000000000               0.000000000               0.000000000               0.000230663               0.004528290               0.001098631              -0.000479537               0.001669261               0.001189723               0.000000000               0.000000000               0.000000000               0.000000000               0.000801481               0.004673290               0.000992321              -0.000283606               0.001652283               0.001368677               0.000000000               0.000000000               0.000000000               0.000000000               0.001387499               0.004795217               0.000873778              -0.000079091               0.001624753               0.001545662               0.000000000               0.000000000               0.000000000               0.000000000               0.001993469               0.004891601               0.000730464               0.000136099               0.001585151               0.001721250               0.000000000               0.000000000               0.000000000               0.000000000               0.002619797               0.004960253               0.000547871               0.000362389               0.001532605               0.001894994               0.000000000               0.000000000               0.000000000               0.000000000               0.003261514               0.004996267               0.000305951               0.000598529               0.001465896               0.002064425               0.000000000               0.000000000               0.000000000               0.000000000               0.003701952               0.005048257               0.000183811               0.000757192               0.001430338               0.002187530               0.000000000               0.000000000               0.000000000               0.000000000              -0.014159943              -0.001301354              -0.000746033              -0.005147306               0.001281975              -0.003865331               0.000000000               0.000000000               0.000000000               0.000000000              -0.009811280              -0.000678800              -0.000019496              -0.003594377               0.000971852              -0.002622525               0.000000000               0.000000000               0.000000000               0.000000000              -0.006379706              -0.000329842               0.000664651              -0.002351158               0.000673767              -0.001677391               0.000000000               0.000000000               0.000000000               0.000000000              -0.004497182               0.000474325               0.000898363              -0.001745732               0.000740014              -0.001005719               0.000000000               0.000000000               0.000000000               0.000000000              -0.003313313               0.001312572               0.000949840              -0.001406562               0.000906371              -0.000500190               0.000000000               0.000000000               0.000000000               0.000000000              -0.002468902               0.002063686               0.000928232              -0.001183797               0.001082487              -0.000101310               0.000000000               0.000000000               0.000000000               0.000000000              -0.001792218               0.002691655               0.000876194              -0.001008536               0.001233388               0.000224852               0.000000000               0.000000000               0.000000000               0.000000000              -0.001202150               0.003195019               0.000811728              -0.000850182               0.001348389               0.000498208               0.000000000               0.000000000               0.000000000               0.000000000              -0.000647229               0.003586489               0.000748317              -0.000691021               0.001425824               0.000734804               0.000000000               0.000000000               0.000000000               0.000000000              -0.000099179               0.003899164               0.000692616              -0.000524587               0.001474571               0.000949984               0.000000000               0.000000000               0.000000000               0.000000000               0.000462107               0.004165583               0.000637284              -0.000347407               0.001504316               0.001156909               0.000000000               0.000000000               0.000000000               0.000000000               0.001051260               0.004394076               0.000577992              -0.000155037               0.001516356               0.001361319               0.000000000               0.000000000               0.000000000               0.000000000               0.001680159               0.004590528               0.000512656               0.000056243               0.001511413               0.001567656               0.000000000               0.000000000               0.000000000               0.000000000               0.002358976               0.004754389               0.000433131               0.000290314               0.001488009               0.001778323               0.000000000               0.000000000               0.000000000               0.000000000               0.003099938               0.004879826               0.000331372               0.000552493               0.001442428               0.001994921               0.000000000               0.000000000               0.000000000               0.000000000               0.003918420               0.004957637               0.000189866               0.000849694               0.001369298               0.002218992               0.000000000               0.000000000               0.000000000               0.000000000               0.004526592               0.005045910               0.000118316               0.001066723               0.001326379               0.002393102               0.000000000               0.000000000               0.000000000               0.000000000              -0.014576613              -0.001322191               0.000000000              -0.005300953               0.001326245              -0.003974708               0.000000000               0.000000000               0.000000000               0.000000000              -0.010049440              -0.000819888               0.000000000              -0.003666052               0.000948715              -0.002717337               0.000000000               0.000000000               0.000000000               0.000000000              -0.006434401              -0.000600903              -0.000000000              -0.002337786               0.000578957              -0.001758829               0.000000000               0.000000000               0.000000000               0.000000000              -0.004466029               0.000158359              -0.000000000              -0.001694554               0.000617633              -0.001076921               0.000000000               0.000000000               0.000000000               0.000000000              -0.003235747               0.001000032               0.000000000              -0.001338407               0.000779474              -0.000558933               0.000000000               0.000000000               0.000000000               0.000000000              -0.002373928               0.001774953               0.000000000              -0.001112090               0.000962341              -0.000149749               0.000000000               0.000000000               0.000000000               0.000000000              -0.001698073               0.002431833              -0.000000000              -0.000940754               0.001124188               0.000183433               0.000000000               0.000000000               0.000000000               0.000000000              -0.001105894               0.002965662              -0.000000000              -0.000785416               0.001250349               0.000464933               0.000000000               0.000000000               0.000000000               0.000000000              -0.000547613               0.003384459              -0.000000000              -0.000628411               0.001337612               0.000709201               0.000000000               0.000000000               0.000000000               0.000000000               0.000000051               0.003726037               0.000000000              -0.000465735               0.001397245               0.000931510               0.000000000               0.000000000               0.000000000               0.000000000               0.000558646               0.004025971               0.000000000              -0.000293754               0.001439895               0.001146141               0.000000000               0.000000000               0.000000000               0.000000000               0.001150253               0.004282940              -0.000000000              -0.000104022               0.001462307               0.001358284               0.000000000               0.000000000               0.000000000               0.000000000               0.001790946               0.004504622              -0.000000000               0.000108526               0.001465350               0.001573876               0.000000000               0.000000000               0.000000000               0.000000000               0.002496996               0.004695606               0.000000000               0.000349419               0.001448713               0.001798133               0.000000000               0.000000000               0.000000000               0.000000000               0.003284020               0.004845233              -0.000000000               0.000625847               0.001406446               0.002032293               0.000000000               0.000000000               0.000000000               0.000000000               0.004172019               0.004941295              -0.000000000               0.000946836               0.001331470               0.002278306               0.000000000               0.000000000               0.000000000               0.000000000               0.004845857               0.005044169               0.000000000               0.001186663               0.001285819               0.002472482               0.000000000               0.000000000               0.000000000               0.000000000               0.002113441               0.022213582              -0.000000000              -0.001984153               0.008065837               0.006081685               0.000000000               0.000000000               0.000000000               0.000000000               0.002022805               0.016960430              -0.000000000              -0.001361498               0.006107253               0.004745755               0.000000000               0.000000000               0.000000000               0.000000000               0.002599740               0.012690404              -0.000000000              -0.000611397               0.004433891               0.003822495               0.000000000               0.000000000               0.000000000               0.000000000               0.002403439               0.010278462               0.000000000              -0.000383517               0.003553959               0.003170442               0.000000000               0.000000000               0.000000000               0.000000000               0.002000047               0.008756056               0.000000000              -0.000344489               0.003033486               0.002688997               0.000000000               0.000000000               0.000000000               0.000000000               0.001579757               0.007680931              -0.000000000              -0.000367707               0.002682853               0.002315147               0.000000000               0.000000000               0.000000000               0.000000000               0.001196255               0.006840633               0.000000000              -0.000406483               0.002415682               0.002009200               0.000000000               0.000000000               0.000000000               0.000000000               0.000868964               0.006134054               0.000000000              -0.000440894               0.002191629               0.001750735               0.000000000               0.000000000               0.000000000               0.000000000               0.000595291               0.005501620              -0.000000000              -0.000464467               0.001988677               0.001524210               0.000000000               0.000000000               0.000000000               0.000000000               0.000361714               0.004903325              -0.000000000              -0.000477272               0.001793516               0.001316244               0.000000000               0.000000000               0.000000000               0.000000000               0.000172292               0.004307546              -0.000000000              -0.000473833               0.001593778               0.001119946               0.000000000               0.000000000               0.000000000               0.000000000               0.000032236               0.003693213               0.000000000              -0.000449562               0.001380913               0.000931351               0.000000000               0.000000000               0.000000000               0.000000000              -0.000060804               0.003053722               0.000000000              -0.000404516               0.001152736               0.000748220               0.000000000               0.000000000               0.000000000               0.000000000              -0.000111992               0.002381174              -0.000000000              -0.000339643               0.000906931               0.000567288               0.000000000               0.000000000               0.000000000               0.000000000              -0.000121774               0.001656083               0.000000000              -0.000252675               0.000636247               0.000383572               0.000000000               0.000000000               0.000000000               0.000000000              -0.000081399               0.000844006              -0.000000000              -0.000136025               0.000326674               0.000190649               0.000000000               0.000000000               0.000000000               0.000000000              -0.000114538               0.000218625              -0.000000000              -0.000070280               0.000096301               0.000026021               0.000000000               0.000000000               0.000000000               0.000000000               0.002169670               0.021735372              -0.001458945              -0.001903291               0.007879482               0.005976191               0.000000000               0.000000000               0.000000000               0.000000000               0.001956247               0.016661065              -0.000635195              -0.001349037               0.006003312               0.004654275               0.000000000               0.000000000               0.000000000               0.000000000               0.002400015               0.012578736               0.000177048              -0.000672335               0.004416982               0.003744647               0.000000000               0.000000000               0.000000000               0.000000000               0.002153779               0.010266856               0.000510166              -0.000475689               0.003580814               0.003105125               0.000000000               0.000000000               0.000000000               0.000000000               0.001743887               0.008792676               0.000635511              -0.000445126               0.003079238               0.002634112               0.000000000               0.000000000               0.000000000               0.000000000               0.001334482               0.007738206               0.000666348              -0.000466844               0.002734991               0.002268147               0.000000000               0.000000000               0.000000000               0.000000000               0.000970975               0.006908246               0.000657589              -0.000499414               0.002469197               0.001969783               0.000000000               0.000000000               0.000000000               0.000000000               0.000669127               0.006206629               0.000632972              -0.000524905               0.002243824               0.001718919               0.000000000               0.000000000               0.000000000               0.000000000               0.000421006               0.005573812               0.000602414              -0.000538848               0.002037535               0.001498686               0.000000000               0.000000000               0.000000000               0.000000000               0.000213033               0.004972045               0.000567001              -0.000541617               0.001837871               0.001296254               0.000000000               0.000000000               0.000000000               0.000000000               0.000051300               0.004375952               0.000523797              -0.000527756               0.001634555               0.001106799               0.000000000               0.000000000               0.000000000               0.000000000              -0.000060634               0.003771165               0.000478695              -0.000494132               0.001421753               0.000927621               0.000000000               0.000000000               0.000000000               0.000000000              -0.000127631               0.003150701               0.000433927              -0.000441699               0.001197456               0.000755758               0.000000000               0.000000000               0.000000000               0.000000000              -0.000154686               0.002505523               0.000380107              -0.000371197               0.000958898               0.000587701               0.000000000               0.000000000               0.000000000               0.000000000              -0.000143270               0.001819637               0.000300126              -0.000281180               0.000700266               0.000419086               0.000000000               0.000000000               0.000000000               0.000000000              -0.000086092               0.001074884               0.000174678              -0.000166645               0.000413839               0.000247195               0.000000000               0.000000000               0.000000000               0.000000000              -0.000104710               0.000518122               0.000110104              -0.000104031               0.000207383               0.000103351               0.000000000               0.000000000               0.000000000               0.000000000               0.002301274               0.020368326              -0.002696044              -0.001683060               0.007350394               0.005667334               0.000000000               0.000000000               0.000000000               0.000000000               0.001747179               0.015812647              -0.001164874              -0.001321386               0.005711292               0.004389906               0.000000000               0.000000000               0.000000000               0.000000000               0.001827344               0.012265529               0.000327777              -0.000847935               0.004371114               0.003523179               0.000000000               0.000000000               0.000000000               0.000000000               0.001456359               0.010221683               0.000915181              -0.000731574               0.003651052               0.002919477               0.000000000               0.000000000               0.000000000               0.000000000               0.001035477               0.008876470               0.001123632              -0.000721254               0.003199212               0.002477958               0.000000000               0.000000000               0.000000000               0.000000000               0.000664212               0.007880656               0.001165537              -0.000736001               0.002872193               0.002136191               0.000000000               0.000000000               0.000000000               0.000000000               0.000362236               0.007077015               0.001141521              -0.000748787               0.002608577               0.001859790               0.000000000               0.000000000               0.000000000               0.000000000               0.000131005               0.006385911               0.001091064              -0.000749111               0.002378319               0.001629209               0.000000000               0.000000000               0.000000000               0.000000000              -0.000039349               0.005757188               0.001030308              -0.000734403               0.002163844               0.001429441               0.000000000               0.000000000               0.000000000               0.000000000              -0.000164548               0.005157060               0.000962017              -0.000706337               0.001954448               0.001248111               0.000000000               0.000000000               0.000000000               0.000000000              -0.000248606               0.004570555               0.000883423              -0.000664545               0.001745018               0.001080473               0.000000000               0.000000000               0.000000000               0.000000000              -0.000290213               0.003992101               0.000801020              -0.000607841               0.001533301               0.000925459               0.000000000               0.000000000               0.000000000               0.000000000              -0.000292466               0.003415757               0.000715879              -0.000536643               0.001317455               0.000780812               0.000000000               0.000000000               0.000000000               0.000000000              -0.000259147               0.002838332               0.000613070              -0.000451971               0.001096758               0.000644787               0.000000000               0.000000000               0.000000000               0.000000000              -0.000195751               0.002257520               0.000470054              -0.000355596               0.000871031               0.000515435               0.000000000               0.000000000               0.000000000               0.000000000              -0.000106335               0.001676871               0.000265516              -0.000249484               0.000642113               0.000392629               0.000000000               0.000000000               0.000000000               0.000000000              -0.000097079               0.001278116               0.000160871              -0.000196169               0.000491424               0.000295255               0.000000000               0.000000000               0.000000000               0.000000000               0.002393473               0.018290281              -0.003529373              -0.001388731               0.006559609               0.005170878               0.000000000               0.000000000               0.000000000               0.000000000               0.001362948               0.014542093              -0.001513485              -0.001306653               0.005282867               0.003976213               0.000000000               0.000000000               0.000000000               0.000000000               0.000938783               0.011794374               0.000417299              -0.001122250               0.004305502               0.003183252               0.000000000               0.000000000               0.000000000               0.000000000               0.000430425               0.010125884               0.001128190              -0.001104324               0.003743369               0.002639045               0.000000000               0.000000000               0.000000000               0.000000000               0.000031694               0.008954789               0.001356253              -0.001107461               0.003354053               0.002246592               0.000000000               0.000000000               0.000000000               0.000000000              -0.000254187               0.008040356               0.001384681              -0.001100362               0.003046879               0.001946517               0.000000000               0.000000000               0.000000000               0.000000000              -0.000443994               0.007274877               0.001340858              -0.001075855               0.002783553               0.001707698               0.000000000               0.000000000               0.000000000               0.000000000              -0.000554544               0.006600744               0.001270383              -0.001033045               0.002544574               0.001511529               0.000000000               0.000000000               0.000000000               0.000000000              -0.000608913               0.005978629               0.001188374              -0.000975669               0.002318079               0.001342410               0.000000000               0.000000000               0.000000000               0.000000000              -0.000622295               0.005385590               0.001099286              -0.000906558               0.002097364               0.001190807               0.000000000               0.000000000               0.000000000               0.000000000              -0.000599555               0.004821553               0.000999740              -0.000827526               0.001883010               0.001055484               0.000000000               0.000000000               0.000000000               0.000000000              -0.000547973               0.004280787               0.000893063              -0.000740587               0.001673777               0.000933190               0.000000000               0.000000000               0.000000000               0.000000000              -0.000466209               0.003764797               0.000781008              -0.000645427               0.001470062               0.000824635               0.000000000               0.000000000               0.000000000               0.000000000              -0.000359947               0.003275656               0.000651495              -0.000544436               0.001273353               0.000728917               0.000000000               0.000000000               0.000000000               0.000000000              -0.000241505               0.002824006               0.000482921              -0.000443564               0.001089181               0.000645616               0.000000000               0.000000000               0.000000000               0.000000000              -0.000121034               0.002430123               0.000263453              -0.000349152               0.000926417               0.000577265               0.000000000               0.000000000               0.000000000               0.000000000              -0.000085183               0.002195719               0.000153466              -0.000306408               0.000834035               0.000527627               0.000000000               0.000000000               0.000000000               0.000000000               0.002295628               0.015748416              -0.003884090              -0.001107691               0.005618649               0.004510958               0.000000000               0.000000000               0.000000000               0.000000000               0.000776670               0.013017128              -0.001671946              -0.001335887               0.004784295               0.003448408               0.000000000               0.000000000               0.000000000               0.000000000              -0.000159829               0.011221680               0.000405920              -0.001462642               0.004228070               0.002765428               0.000000000               0.000000000               0.000000000               0.000000000              -0.000749822               0.009963513               0.001108027              -0.001526619               0.003830011               0.002303392               0.000000000               0.000000000               0.000000000               0.000000000              -0.001070655               0.008973101               0.001308314              -0.001523130               0.003498714               0.001975584               0.000000000               0.000000000               0.000000000               0.000000000              -0.001212965               0.008149364               0.001314749              -0.001473529               0.003207604               0.001734075               0.000000000               0.000000000               0.000000000               0.000000000              -0.001245934               0.007427597               0.001255145              -0.001395672               0.002941065               0.001545393               0.000000000               0.000000000               0.000000000               0.000000000              -0.001204279               0.006768748               0.001176181              -0.001297695               0.002688792               0.001391096               0.000000000               0.000000000               0.000000000               0.000000000              -0.001115769               0.006153632               0.001087334              -0.001187615               0.002447061               0.001259447               0.000000000               0.000000000               0.000000000               0.000000000              -0.001003619               0.005572886               0.000995571              -0.001072966               0.002215265               0.001142300               0.000000000               0.000000000               0.000000000               0.000000000              -0.000871031               0.005033323               0.000895986              -0.000955800               0.001996357               0.001040557               0.000000000               0.000000000               0.000000000               0.000000000              -0.000720653               0.004540554               0.000785837              -0.000837812               0.001792773               0.000954961               0.000000000               0.000000000               0.000000000               0.000000000              -0.000559691               0.004091961               0.000668167              -0.000721378               0.001604433               0.000883055               0.000000000               0.000000000               0.000000000               0.000000000              -0.000395329               0.003693046               0.000535220              -0.000609878               0.001434295               0.000824418               0.000000000               0.000000000               0.000000000               0.000000000              -0.000240689               0.003358945               0.000379156              -0.000510125               0.001289679               0.000779554               0.000000000               0.000000000               0.000000000               0.000000000              -0.000110670               0.003115677               0.000198253              -0.000430960               0.001182202               0.000751242               0.000000000               0.000000000               0.000000000               0.000000000              -0.000063335               0.003001719               0.000108806              -0.000398964               0.001133551               0.000734587               0.000000000               0.000000000               0.000000000               0.000000000               0.001888335               0.013017449              -0.003777962              -0.000919056               0.004645458               0.003726401               0.000000000               0.000000000               0.000000000               0.000000000              -0.000004927               0.011410050              -0.001673067              -0.001428101               0.004279345               0.002851244               0.000000000               0.000000000               0.000000000               0.000000000              -0.001343191               0.010595767               0.000266214              -0.001828163               0.004141275               0.002313112               0.000000000               0.000000000               0.000000000               0.000000000              -0.001897716               0.009718920               0.000863752              -0.001926504               0.003881776               0.001955272               0.000000000               0.000000000               0.000000000               0.000000000              -0.002064827               0.008894287               0.001019486              -0.001886091               0.003593430               0.001707338               0.000000000               0.000000000               0.000000000               0.000000000              -0.002027216               0.008151136               0.001012557              -0.001779094               0.003310049               0.001530956               0.000000000               0.000000000               0.000000000               0.000000000              -0.001882663               0.007463885               0.000953244              -0.001638980               0.003034263               0.001395283               0.000000000               0.000000000               0.000000000               0.000000000              -0.001680386               0.006819975               0.000884244              -0.001482638               0.002767515               0.001284877               0.000000000               0.000000000               0.000000000               0.000000000              -0.001452477               0.006217060               0.000810300              -0.001321808               0.002512935               0.001191127               0.000000000               0.000000000               0.000000000               0.000000000              -0.001220103               0.005659617               0.000734270              -0.001164988               0.002274849               0.001109861               0.000000000               0.000000000               0.000000000               0.000000000              -0.000987494               0.005155602               0.000655168              -0.001014758               0.002056769               0.001042011               0.000000000               0.000000000               0.000000000               0.000000000              -0.000757096               0.004712639               0.000562025              -0.000872989               0.001861860               0.000988871               0.000000000               0.000000000               0.000000000               0.000000000              -0.000542511               0.004326240               0.000456894              -0.000744220               0.001690139               0.000945919               0.000000000               0.000000000               0.000000000               0.000000000              -0.000351239               0.004006302               0.000344398              -0.000632501               0.001546254               0.000913753               0.000000000               0.000000000               0.000000000               0.000000000              -0.000189330               0.003770238               0.000225947              -0.000542277               0.001437493               0.000895215               0.000000000               0.000000000               0.000000000               0.000000000              -0.000075053               0.003631580               0.000109896              -0.000482091               0.001371211               0.000889120               0.000000000               0.000000000               0.000000000               0.000000000              -0.000032277               0.003592431               0.000053875              -0.000461156               0.001351184               0.000890027               0.000000000               0.000000000               0.000000000               0.000000000               0.001104909               0.010326994              -0.003297832              -0.000876534               0.003734474               0.002857940               0.000000000               0.000000000               0.000000000               0.000000000              -0.000940683               0.009852131              -0.001576576              -0.001584270               0.003812100               0.002227831               0.000000000               0.000000000               0.000000000               0.000000000              -0.002481387               0.009937553              -0.000007509              -0.002172709               0.004036721               0.001864012               0.000000000               0.000000000               0.000000000               0.000000000              -0.002872046               0.009378931               0.000441622              -0.002249378               0.003876072               0.001626694               0.000000000               0.000000000               0.000000000               0.000000000              -0.002817510               0.008691199               0.000561034              -0.002142961               0.003611358               0.001468397               0.000000000               0.000000000               0.000000000               0.000000000              -0.002575842               0.008009432               0.000564580              -0.001967115               0.003325489               0.001358374               0.000000000               0.000000000               0.000000000               0.000000000              -0.002253558               0.007352704               0.000531547              -0.001764168               0.003038933               0.001274765               0.000000000               0.000000000               0.000000000               0.000000000              -0.001905249               0.006733480               0.000493836              -0.001556150               0.002763187               0.001207038               0.000000000               0.000000000               0.000000000               0.000000000              -0.001558890               0.006158788               0.000453641              -0.001354429               0.002504385               0.001149956               0.000000000               0.000000000               0.000000000               0.000000000              -0.001231080               0.005636435               0.000411419              -0.001166207               0.002267528               0.001101322               0.000000000               0.000000000               0.000000000               0.000000000              -0.000927913               0.005174962               0.000365149              -0.000994835               0.002056582               0.001061747               0.000000000               0.000000000               0.000000000               0.000000000              -0.000651810               0.004780887               0.000302698              -0.000842037               0.001874292               0.001032255               0.000000000               0.000000000               0.000000000               0.000000000              -0.000414672               0.004458821               0.000227275              -0.000712853               0.001723876               0.001011023               0.000000000               0.000000000               0.000000000               0.000000000              -0.000226526               0.004220658               0.000152023              -0.000612528               0.001611048               0.000998520               0.000000000               0.000000000               0.000000000               0.000000000              -0.000092398               0.004075321               0.000082301              -0.000544063               0.001539781               0.000995718               0.000000000               0.000000000               0.000000000               0.000000000              -0.000022194               0.004020104               0.000030804              -0.000510835               0.001510299               0.000999465               0.000000000               0.000000000               0.000000000               0.000000000               0.000001479               0.004027016               0.000008282              -0.000502821               0.001509932               0.001007111               0.000000000               0.000000000               0.000000000               0.000000000              -0.000018363               0.007841530              -0.002553993              -0.000987077               0.002942842               0.001955765               0.000000000               0.000000000               0.000000000               0.000000000              -0.001969389               0.008433227              -0.001439703              -0.001792671               0.003408604               0.001615933               0.000000000               0.000000000               0.000000000               0.000000000              -0.003455773               0.009242546              -0.000402088              -0.002451227               0.003897894               0.001446666               0.000000000               0.000000000               0.000000000               0.000000000              -0.003579846               0.008924780              -0.000087109              -0.002458034               0.003794242               0.001336208               0.000000000               0.000000000               0.000000000               0.000000000              -0.003276487               0.008356580               0.000029123              -0.002273250               0.003543249               0.001269999               0.000000000               0.000000000               0.000000000               0.000000000              -0.002831388               0.007735537               0.000073529              -0.002028708               0.003254723               0.001226015               0.000000000               0.000000000               0.000000000               0.000000000              -0.002348780               0.007118834               0.000089788              -0.001770642               0.002963135               0.001192493               0.000000000               0.000000000               0.000000000               0.000000000              -0.001881541               0.006534850               0.000101876              -0.001522430               0.002685738               0.001163308               0.000000000               0.000000000               0.000000000               0.000000000              -0.001448980               0.005999007               0.000106046              -0.001293240               0.002430729               0.001137489               0.000000000               0.000000000               0.000000000               0.000000000              -0.001060325               0.005522127               0.000102200              -0.001087885               0.002203319               0.001115434               0.000000000               0.000000000               0.000000000               0.000000000              -0.000716422               0.005114195               0.000094563              -0.000907930               0.002007358               0.001099428               0.000000000               0.000000000               0.000000000               0.000000000              -0.000424859               0.004784706               0.000072220              -0.000757408               0.001847355               0.001089947               0.000000000               0.000000000               0.000000000               0.000000000              -0.000197308               0.004545782               0.000039754              -0.000642212               0.001729316               0.001087104               0.000000000               0.000000000               0.000000000               0.000000000              -0.000042032               0.004405682               0.000011319              -0.000566471               0.001657370               0.001090899               0.000000000               0.000000000               0.000000000               0.000000000               0.000038551               0.004359006              -0.000008771              -0.000530418               0.001629793               0.001099376               0.000000000               0.000000000               0.000000000               0.000000000               0.000044292               0.004384079              -0.000014134              -0.000531399               0.001638478               0.001107079               0.000000000               0.000000000               0.000000000               0.000000000               0.000032726               0.004425453              -0.000016733              -0.000540908               0.001655439               0.001114531               0.000000000               0.000000000               0.000000000               0.000000000              -0.001336729               0.005741642              -0.001664908              -0.001218976               0.002320187               0.001101210               0.000000000               0.000000000               0.000000000               0.000000000              -0.002971954               0.007156410              -0.001302312              -0.002009029               0.003055122               0.001046093               0.000000000               0.000000000               0.000000000               0.000000000              -0.004223797               0.008519914              -0.000881169              -0.002648907               0.003722912               0.001074005               0.000000000               0.000000000               0.000000000               0.000000000              -0.004067054               0.008454149              -0.000646150              -0.002581907               0.003678657               0.001096750               0.000000000               0.000000000               0.000000000               0.000000000              -0.003557123               0.008034319              -0.000501671              -0.002338205               0.003457481               0.001119276               0.000000000               0.000000000               0.000000000               0.000000000              -0.002950998               0.007501091              -0.000401155              -0.002044255               0.003181757               0.001137502               0.000000000               0.000000000               0.000000000               0.000000000              -0.002343795               0.006944232              -0.000323202              -0.001746948               0.002897037               0.001150089               0.000000000               0.000000000               0.000000000               0.000000000              -0.001787953               0.006407514              -0.000258232              -0.001471418               0.002626289               0.001154871               0.000000000               0.000000000               0.000000000               0.000000000              -0.001290221               0.005914923              -0.000209384              -0.001223195               0.002379353               0.001156158               0.000000000               0.000000000               0.000000000               0.000000000              -0.000853534               0.005482785              -0.000171479              -0.001005421               0.002162717               0.001157296               0.000000000               0.000000000               0.000000000               0.000000000              -0.000477869               0.005126064              -0.000138443              -0.000819957               0.001981990               0.001162033               0.000000000               0.000000000               0.000000000               0.000000000              -0.000177312               0.004850731              -0.000110544              -0.000672832               0.001841171               0.001168340               0.000000000               0.000000000               0.000000000               0.000000000               0.000034467               0.004671385              -0.000088058              -0.000570997               0.001747445               0.001176449               0.000000000               0.000000000               0.000000000               0.000000000               0.000155381               0.004596462              -0.000065680              -0.000516288               0.001704235               0.001187946               0.000000000               0.000000000               0.000000000               0.000000000               0.000196316               0.004619022              -0.000041968              -0.000503758               0.001707578               0.001203820               0.000000000               0.000000000               0.000000000               0.000000000               0.000174284               0.004704116              -0.000019739              -0.000522657               0.001742242               0.001219585               0.000000000               0.000000000               0.000000000               0.000000000               0.000141032               0.004761826              -0.000009327              -0.000542340               0.001768039               0.001225700               0.000000000               0.000000000               0.000000000               0.000000000              -0.002842680               0.003798909              -0.000743577              -0.001540865               0.001779911               0.000239046               0.000000000               0.000000000               0.000000000               0.000000000              -0.003815934               0.005660974              -0.001156918              -0.002138592               0.002599836               0.000461244               0.000000000               0.000000000               0.000000000               0.000000000              -0.004694771               0.007423000              -0.001380047              -0.002688407               0.003370444               0.000682037               0.000000000               0.000000000               0.000000000               0.000000000              -0.004386217               0.007742933              -0.001228529              -0.002612692               0.003451849               0.000839157               0.000000000               0.000000000               0.000000000               0.000000000              -0.003791494               0.007593141              -0.001054946              -0.002370947               0.003321337               0.000950390               0.000000000               0.000000000               0.000000000               0.000000000              -0.003138985               0.007258877              -0.000896876              -0.002084474               0.003114426               0.001029952               0.000000000               0.000000000               0.000000000               0.000000000              -0.002492922               0.006851022              -0.000757898              -0.001791219               0.002880724               0.001089505               0.000000000               0.000000000               0.000000000               0.000000000              -0.001894076               0.006427299              -0.000644004              -0.001513687               0.002646974               0.001133287               0.000000000               0.000000000               0.000000000               0.000000000              -0.001354629               0.006022690              -0.000551901              -0.001260819               0.002427816               0.001166997               0.000000000               0.000000000               0.000000000               0.000000000              -0.000880907               0.005653387              -0.000471292              -0.001037011               0.002230114               0.001193103               0.000000000               0.000000000               0.000000000               0.000000000              -0.000470969               0.005343402              -0.000394825              -0.000844536               0.002062628               0.001218092               0.000000000               0.000000000               0.000000000               0.000000000              -0.000134066               0.005095513              -0.000314734              -0.000687212               0.001927558               0.001240346               0.000000000               0.000000000               0.000000000               0.000000000               0.000118522               0.004913915              -0.000237284              -0.000569792               0.001827886               0.001258094               0.000000000               0.000000000               0.000000000               0.000000000               0.000280672               0.004815065              -0.000163454              -0.000496630               0.001770549               0.001273919               0.000000000               0.000000000               0.000000000               0.000000000               0.000356717               0.004807715              -0.000094658              -0.000467194               0.001758287               0.001291093               0.000000000               0.000000000               0.000000000               0.000000000               0.000362599               0.004877869              -0.000038491              -0.000473758               0.001783860               0.001310102               0.000000000               0.000000000               0.000000000               0.000000000               0.000331407               0.004920845              -0.000008379              -0.000490827               0.001803874               0.001313047               0.000000000               0.000000000               0.000000000               0.000000000              -0.004717043               0.002058267               0.000137751              -0.002026171               0.001361470              -0.000664701               0.000000000               0.000000000               0.000000000               0.000000000              -0.004761966               0.004145168              -0.000950845              -0.002303878               0.002149667              -0.000154211               0.000000000               0.000000000               0.000000000               0.000000000              -0.005090442               0.006110581              -0.001778627              -0.002672732               0.002927750               0.000255018               0.000000000               0.000000000               0.000000000               0.000000000              -0.004645878               0.006792781              -0.001777445              -0.002591296               0.003128003               0.000536707               0.000000000               0.000000000               0.000000000               0.000000000              -0.004004155               0.006949098              -0.001605832              -0.002370190               0.003106406               0.000736216               0.000000000               0.000000000               0.000000000               0.000000000              -0.003331693               0.006857400              -0.001411190              -0.002106555               0.002987962               0.000881407               0.000000000               0.000000000               0.000000000               0.000000000              -0.002669402               0.006639240              -0.001228569              -0.001830926               0.002823366               0.000992440               0.000000000               0.000000000               0.000000000               0.000000000              -0.002044709               0.006361458              -0.001072474              -0.001561944               0.002641113               0.001079168               0.000000000               0.000000000               0.000000000               0.000000000              -0.001473624               0.006065210              -0.000938108              -0.001310757               0.002458635               0.001147878               0.000000000               0.000000000               0.000000000               0.000000000              -0.000958331               0.005782451              -0.000816568              -0.001082178               0.002288190               0.001206012               0.000000000               0.000000000               0.000000000               0.000000000              -0.000501488               0.005531566              -0.000700015              -0.000879502               0.002137004               0.001257502               0.000000000               0.000000000               0.000000000               0.000000000              -0.000106115               0.005318445              -0.000581034              -0.000704597               0.002007663               0.001303066               0.000000000               0.000000000               0.000000000               0.000000000               0.000216589               0.005142845              -0.000458829              -0.000561633               0.001901476               0.001339842               0.000000000               0.000000000               0.000000000               0.000000000               0.000454422               0.005014292              -0.000332795              -0.000456377               0.001823540               0.001367162               0.000000000               0.000000000               0.000000000               0.000000000               0.000599909               0.004947097              -0.000206592              -0.000393420               0.001780156               0.001386736               0.000000000               0.000000000               0.000000000               0.000000000               0.000650856               0.004950572              -0.000091518              -0.000374750               0.001775091               0.001400341               0.000000000               0.000000000               0.000000000               0.000000000               0.000634316               0.004960843              -0.000032415              -0.000382236               0.001781010               0.001398774               0.000000000               0.000000000               0.000000000               0.000000000              -0.006836912               0.000665174               0.000888136              -0.002646986               0.001104046              -0.001542940               0.000000000               0.000000000               0.000000000               0.000000000              -0.005847127               0.002721311              -0.000674933              -0.002532832               0.001751369              -0.000781463               0.000000000               0.000000000               0.000000000               0.000000000              -0.005424933               0.004609381              -0.001974027              -0.002610517               0.002406616              -0.000203901               0.000000000               0.000000000               0.000000000               0.000000000              -0.004763555               0.005535796              -0.002163927              -0.002478302               0.002671347               0.000193045               0.000000000               0.000000000               0.000000000               0.000000000              -0.004056106               0.005973917              -0.002043695              -0.002267774               0.002747210               0.000479436               0.000000000               0.000000000               0.000000000               0.000000000              -0.003367697               0.006133901              -0.001848853              -0.002029620               0.002721153               0.000691533               0.000000000               0.000000000               0.000000000               0.000000000              -0.002706411               0.006128826              -0.001644996              -0.001781003               0.002636589               0.000855586               0.000000000               0.000000000               0.000000000               0.000000000              -0.002078670               0.006021938              -0.001461117              -0.001532240               0.002518039               0.000985799               0.000000000               0.000000000               0.000000000               0.000000000              -0.001494065               0.005863053              -0.001299081              -0.001293153               0.002385382               0.001092229               0.000000000               0.000000000               0.000000000               0.000000000              -0.000949319               0.005695401              -0.001151404              -0.001067917               0.002254420               0.001186503               0.000000000               0.000000000               0.000000000               0.000000000              -0.000447475               0.005535994              -0.001009433              -0.000859801               0.002131913               0.001272112               0.000000000               0.000000000               0.000000000               0.000000000               0.000008461               0.005392085              -0.000864126              -0.000670836               0.002020956               0.001350119               0.000000000               0.000000000               0.000000000               0.000000000               0.000403197               0.005255454              -0.000709029              -0.000505732               0.001920378               0.001414646               0.000000000               0.000000000               0.000000000               0.000000000               0.000722405               0.005135767              -0.000542529              -0.000371068               0.001835595               0.001464526               0.000000000               0.000000000               0.000000000               0.000000000               0.000951687               0.005046627              -0.000360726              -0.000273945               0.001773507               0.001499562               0.000000000               0.000000000               0.000000000               0.000000000               0.001078724               0.005008838              -0.000175375              -0.000221583               0.001743457               0.001521874               0.000000000               0.000000000               0.000000000               0.000000000               0.001103650               0.005000132              -0.000082544              -0.000211147               0.001737076               0.001525929               0.000000000               0.000000000               0.000000000               0.000000000              -0.009065512              -0.000310914               0.001390207              -0.003360700               0.001016588              -0.002344112               0.000000000               0.000000000               0.000000000               0.000000000              -0.007017458               0.001472341              -0.000387308              -0.002815586               0.001429299              -0.001386287               0.000000000               0.000000000               0.000000000               0.000000000              -0.005721352               0.003059320              -0.001942047              -0.002527918               0.001862399              -0.000665518               0.000000000               0.000000000               0.000000000               0.000000000              -0.004761988               0.004088023              -0.002298941              -0.002296744               0.002128240              -0.000168503               0.000000000               0.000000000               0.000000000               0.000000000              -0.003954394               0.004742918              -0.002260327              -0.002075758               0.002272875               0.000197117               0.000000000               0.000000000               0.000000000               0.000000000              -0.003243507               0.005130649              -0.002094793              -0.001857643               0.002329413               0.000471770               0.000000000               0.000000000               0.000000000               0.000000000              -0.002589731               0.005333479              -0.001901571              -0.001637831               0.002323752               0.000685921               0.000000000               0.000000000               0.000000000               0.000000000              -0.001970212               0.005413057              -0.001714402              -0.001415459               0.002276153               0.000860695               0.000000000               0.000000000               0.000000000               0.000000000              -0.001382919               0.005417313              -0.001543229              -0.001195756               0.002204338               0.001008582               0.000000000               0.000000000               0.000000000               0.000000000              -0.000824516               0.005382910              -0.001386956              -0.000982055               0.002121637               0.001139581               0.000000000               0.000000000               0.000000000               0.000000000              -0.000292784               0.005331541              -0.001238884              -0.000776235               0.002035907               0.001259672               0.000000000               0.000000000               0.000000000               0.000000000               0.000212467               0.005272414              -0.001087651              -0.000579376               0.001950579               0.001371203               0.000000000               0.000000000               0.000000000               0.000000000               0.000682677               0.005209392              -0.000919680              -0.000395170               0.001868170               0.001473000               0.000000000               0.000000000               0.000000000               0.000000000               0.001099051               0.005145481              -0.000727719              -0.000231041               0.001792157               0.001561116               0.000000000               0.000000000               0.000000000               0.000000000               0.001440530               0.005081095              -0.000507595              -0.000094938               0.001725328               0.001630389               0.000000000               0.000000000               0.000000000               0.000000000               0.001690497               0.005035434              -0.000261874               0.000004506               0.001676959               0.001681466               0.000000000               0.000000000               0.000000000               0.000000000               0.001802619               0.005025491              -0.000138603               0.000047795               0.001659215               0.001707010               0.000000000               0.000000000               0.000000000               0.000000000              -0.011191525              -0.000893528               0.001541781              -0.004085128               0.001063859              -0.003021269               0.000000000               0.000000000               0.000000000               0.000000000              -0.008164486               0.000472207              -0.000153543              -0.003120705               0.001197629              -0.001923076               0.000000000               0.000000000               0.000000000               0.000000000              -0.005993370               0.001614860              -0.001689580              -0.002449368               0.001354733              -0.001094635               0.000000000               0.000000000               0.000000000               0.000000000              -0.004683978               0.002623988              -0.002126131              -0.002084487               0.001569480              -0.000515007               0.000000000               0.000000000               0.000000000               0.000000000              -0.003751934               0.003403787              -0.002161424              -0.001832445               0.001745398              -0.000087047               0.000000000               0.000000000               0.000000000               0.000000000              -0.002998646               0.003967954              -0.002047945              -0.001620483               0.001862798               0.000242315               0.000000000               0.000000000               0.000000000               0.000000000              -0.002342932               0.004360387              -0.001890114              -0.001423645               0.001927995               0.000504350               0.000000000               0.000000000               0.000000000               0.000000000              -0.001737736               0.004616865              -0.001726402              -0.001228757               0.001948525               0.000719768               0.000000000               0.000000000               0.000000000               0.000000000              -0.001161664               0.004783922              -0.001570312              -0.001033612               0.001939162               0.000905549               0.000000000               0.000000000               0.000000000               0.000000000              -0.000599649               0.004893874              -0.001427698              -0.000836601               0.001910142               0.001073540               0.000000000               0.000000000               0.000000000               0.000000000              -0.000046508               0.004962519              -0.001295237              -0.000637755               0.001866741               0.001228986               0.000000000               0.000000000               0.000000000               0.000000000               0.000495131               0.005003702              -0.001159170              -0.000439788               0.001814480               0.001374692               0.000000000               0.000000000               0.000000000               0.000000000               0.001024942               0.005030548              -0.001003843              -0.000244465               0.001758321               0.001513855               0.000000000               0.000000000               0.000000000               0.000000000               0.001539023               0.005045516              -0.000818040              -0.000053557               0.001699674               0.001646117               0.000000000               0.000000000               0.000000000               0.000000000               0.002021333               0.005041790              -0.000592782               0.000127775               0.001637988               0.001765763               0.000000000               0.000000000               0.000000000               0.000000000               0.002450008               0.005025540              -0.000319796               0.000290558               0.001578311               0.001868868               0.000000000               0.000000000               0.000000000               0.000000000               0.002703631               0.005038320              -0.000183466               0.000384068               0.001551401               0.001935468               0.000000000               0.000000000               0.000000000               0.000000000              -0.012971740              -0.001187436               0.001304983              -0.004715970               0.001176170              -0.003539800               0.000000000               0.000000000               0.000000000               0.000000000              -0.009143995              -0.000248138              -0.000018929              -0.003397978               0.001049940              -0.002348039               0.000000000               0.000000000               0.000000000               0.000000000              -0.006224057               0.000439091              -0.001248397              -0.002388905               0.000942659              -0.001446247               0.000000000               0.000000000               0.000000000               0.000000000              -0.004580597               0.001350668              -0.001643593              -0.001886555               0.001079066              -0.000807489               0.000000000               0.000000000               0.000000000               0.000000000              -0.003510686               0.002181169              -0.001711912              -0.001589151               0.001256764              -0.000332387               0.000000000               0.000000000               0.000000000               0.000000000              -0.002708182               0.002863499              -0.001650908              -0.001373503               0.001412323               0.000038820               0.000000000               0.000000000               0.000000000               0.000000000              -0.002041507               0.003398839              -0.001544003              -0.001190418               0.001529740               0.000339323               0.000000000               0.000000000               0.000000000               0.000000000              -0.001447619               0.003805982              -0.001423932              -0.001018603               0.001608182               0.000589579               0.000000000               0.000000000               0.000000000               0.000000000              -0.000887491               0.004112943              -0.001305768              -0.000846926               0.001653275               0.000806350               0.000000000               0.000000000               0.000000000               0.000000000              -0.000332229               0.004347205              -0.001199698              -0.000667986               0.001671716               0.001003730               0.000000000               0.000000000               0.000000000               0.000000000               0.000230663               0.004528290              -0.001098631              -0.000479537               0.001669261               0.001189723               0.000000000               0.000000000               0.000000000               0.000000000               0.000801481               0.004673290              -0.000992321              -0.000283606               0.001652283               0.001368677               0.000000000               0.000000000               0.000000000               0.000000000               0.001387499               0.004795217              -0.000873778              -0.000079091               0.001624753               0.001545662               0.000000000               0.000000000               0.000000000               0.000000000               0.001993469               0.004891601              -0.000730464               0.000136099               0.001585151               0.001721250               0.000000000               0.000000000               0.000000000               0.000000000               0.002619797               0.004960253              -0.000547871               0.000362389               0.001532605               0.001894994               0.000000000               0.000000000               0.000000000               0.000000000               0.003261514               0.004996267              -0.000305951               0.000598529               0.001465896               0.002064425               0.000000000               0.000000000               0.000000000               0.000000000               0.003701952               0.005048257              -0.000183811               0.000757192               0.001430338               0.002187530               0.000000000               0.000000000               0.000000000               0.000000000              -0.014159943              -0.001301354               0.000746033              -0.005147306               0.001281975              -0.003865331               0.000000000               0.000000000               0.000000000               0.000000000              -0.009811280              -0.000678800               0.000019496              -0.003594377               0.000971852              -0.002622525               0.000000000               0.000000000               0.000000000               0.000000000              -0.006379706              -0.000329842              -0.000664651              -0.002351158               0.000673767              -0.001677391               0.000000000               0.000000000               0.000000000               0.000000000              -0.004497182               0.000474325              -0.000898363              -0.001745732               0.000740014              -0.001005719               0.000000000               0.000000000               0.000000000               0.000000000              -0.003313313               0.001312572              -0.000949840              -0.001406562               0.000906371              -0.000500190               0.000000000               0.000000000               0.000000000               0.000000000              -0.002468902               0.002063686              -0.000928232              -0.001183797               0.001082487              -0.000101310               0.000000000               0.000000000               0.000000000               0.000000000              -0.001792218               0.002691655              -0.000876194              -0.001008536               0.001233388               0.000224852               0.000000000               0.000000000               0.000000000               0.000000000              -0.001202150               0.003195019              -0.000811728              -0.000850182               0.001348389               0.000498208               0.000000000               0.000000000               0.000000000               0.000000000              -0.000647229               0.003586489              -0.000748317              -0.000691021               0.001425824               0.000734804               0.000000000               0.000000000               0.000000000               0.000000000              -0.000099179               0.003899164              -0.000692616              -0.000524587               0.001474571               0.000949984               0.000000000               0.000000000               0.000000000               0.000000000               0.000462107               0.004165583              -0.000637284              -0.000347407               0.001504316               0.001156909               0.000000000               0.000000000               0.000000000               0.000000000               0.001051260               0.004394076              -0.000577992              -0.000155037               0.001516356               0.001361319               0.000000000               0.000000000               0.000000000               0.000000000               0.001680159               0.004590528              -0.000512656               0.000056243               0.001511413               0.001567656               0.000000000               0.000000000               0.000000000               0.000000000               0.002358976               0.004754389              -0.000433131               0.000290314               0.001488009               0.001778323               0.000000000               0.000000000               0.000000000               0.000000000               0.003099938               0.004879826              -0.000331372               0.000552493               0.001442428               0.001994921               0.000000000               0.000000000               0.000000000               0.000000000               0.003918420               0.004957637              -0.000189866               0.000849694               0.001369298               0.002218992               0.000000000               0.000000000               0.000000000               0.000000000               0.004526592               0.005045910              -0.000118316               0.001066723               0.001326379               0.002393102               0.000000000               0.000000000               0.000000000               0.000000000               0.000000000               0.000000000               0.000000000               0.000000000               0.000000000               0.000000000               0.000000000               0.000000000               0.000000000               0.000000000               0.000000000               0.000000000               0.000000000               0.000000000               0.000000000               0.000000000               0.000000000               0.000000000               0.000000000               0.000000000               0.000000000               0.000000000               0.000000000               0.000000000               0.000000000               0.000000000               0.000000000               0.000000000               0.000000000               0.000000000               0.000000000               0.000000000               0.000000000               0.000000000               0.000000000               0.000000000               0.000000000               0.000000000               0.000000000               0.000000000               0.000000000               0.000000000               0.000000000               0.000000000               0.000000000               0.000000000               0.000000000               0.000000000               0.000000000               0.000000000               0.000000000               0.000000000               0.000000000               0.000000000               0.000000000               0.000000000               0.000000000               0.000000000               0.000000000               0.000000000               0.000000000               0.000000000               0.000000000               0.000000000               0.000000000               0.000000000               0.000000000               0.000000000               0.000000000               0.000000000               0.000000000               0.000000000               0.000000000               0.000000000               0.000000000               0.000000000               0.000000000               0.000000000               0.000000000               0.000000000               0.000000000               0.000000000               0.000000000               0.000000000               0.000000000               0.000000000               0.000000000               0.000000000               0.000000000               0.000000000               0.000000000               0.000000000               0.000000000               0.000000000               0.000000000               0.000000000               0.000000000               0.000000000               0.000000000               0.000000000               0.000000000               0.000000000               0.000000000               0.000000000               0.000000000               0.000000000               0.000000000               0.000000000               0.000000000               0.000000000               0.000000000               0.000000000               0.000000000               0.000000000               0.000000000               0.000000000               0.000000000               0.000000000               0.000000000               0.000000000               0.000000000               0.000000000               0.000000000               0.000000000               0.000000000               0.000000000               0.000000000               0.000000000               0.000000000               0.000000000               0.000000000               0.000000000               0.000000000               0.000000000               0.000000000               0.000000000               0.000000000               0.000000000               0.000000000               0.000000000               0.000000000               0.000000000               0.000000000               0.000000000               0.000000000               0.000000000               0.000000000               0.000000000               0.000000000               0.000000000               0.000000000               0.000000000               0.000000000               0.000000000               0.000000000               0.000000000               0.000000000               0.000000000               0.000000000               0.000000000               0.000000000               0.000000000               0.000000000               0.000000000               0.000000000               0.000000000               0.000000000               0.000000000               0.000000000               0.000000000               0.000000000               0.000000000               0.000000000               0.000000000               0.000000000               0.000000000               0.000000000               0.000000000               0.000000000               0.000000000               0.000000000               0.000000000               0.000000000               0.000000000               0.000000000               0.000000000               0.000000000               0.000000000               0.000000000               0.000000000               0.000000000               0.000000000               0.000000000               0.000000000               0.000000000               0.000000000               0.000000000               0.000000000               0.000000000               0.000000000               0.000000000               0.000000000               0.000000000               0.000000000               0.000000000               0.000000000               0.000000000               0.000000000               0.000000000               0.000000000               0.000000000               0.000000000               0.000000000               0.000000000               0.000000000               0.000000000               0.000000000               0.000000000               0.000000000               0.000000000               0.000000000               0.000000000               0.000000000               0.000000000               0.000000000               0.000000000               0.000000000               0.000000000               0.000000000               0.000000000               0.000000000               0.000000000               0.000000000               0.000000000               0.000000000               0.000000000               0.000000000               0.000000000               0.000000000               0.000000000               0.000000000               0.000000000               0.000000000               0.000000000               0.000000000               0.000000000               0.000000000               0.000000000               0.000000000               0.000000000               0.000000000               0.000000000               0.000000000               0.000000000               0.000000000               0.000000000               0.000000000               0.000000000               0.000000000               0.000000000               0.000000000               0.000000000               0.000000000               0.000000000               0.000000000               0.000000000               0.000000000               0.000000000               0.000000000               0.000000000               0.000000000               0.000000000               0.000000000               0.000000000               0.000000000               0.000000000               0.000000000               0.000000000               0.000000000               0.000000000               0.000000000               0.000000000               0.000000000               0.000000000               0.000000000               0.000000000               0.000000000               0.000000000               0.000000000               0.000000000               0.000000000               0.000000000               0.000000000               0.000000000               0.000000000               0.000000000               0.000000000               0.000000000               0.000000000               0.000000000               0.000000000               0.000000000               0.000000000               0.000000000               0.000000000               0.000000000               0.000000000               0.000000000               0.000000000               0.000000000               0.000000000               0.000000000               0.000000000               0.000000000               0.000000000               0.000000000               0.000000000               0.000000000               0.000000000               0.000000000               0.000000000               0.000000000               0.000000000               0.000000000               0.000000000               0.000000000               0.000000000               0.000000000               0.000000000               0.000000000               0.000000000               0.000000000               0.000000000               0.000000000               0.000000000               0.000000000               0.000000000               0.000000000               0.000000000               0.000000000               0.002169670               0.021735372               0.001458945              -0.001903291               0.007879482               0.005976191               0.000000000               0.000000000               0.000000000               0.000000000               0.001956247               0.016661065               0.000635195              -0.001349037               0.006003312               0.004654275               0.000000000               0.000000000               0.000000000               0.000000000               0.002400015               0.012578736              -0.000177048              -0.000672335               0.004416982               0.003744647               0.000000000               0.000000000               0.000000000               0.000000000               0.002153779               0.010266856              -0.000510166              -0.000475689               0.003580814               0.003105125               0.000000000               0.000000000               0.000000000               0.000000000               0.001743887               0.008792676              -0.000635511              -0.000445126               0.003079238               0.002634112               0.000000000               0.000000000               0.000000000               0.000000000               0.001334482               0.007738206              -0.000666348              -0.000466844               0.002734991               0.002268147               0.000000000               0.000000000               0.000000000               0.000000000               0.000970975               0.006908246              -0.000657589              -0.000499414               0.002469197               0.001969783               0.000000000               0.000000000               0.000000000               0.000000000               0.000669127               0.006206629              -0.000632972              -0.000524905               0.002243824               0.001718919               0.000000000               0.000000000               0.000000000               0.000000000               0.000421006               0.005573812              -0.000602414              -0.000538848               0.002037535               0.001498686               0.000000000               0.000000000               0.000000000               0.000000000               0.000213033               0.004972045              -0.000567001              -0.000541617               0.001837871               0.001296254               0.000000000               0.000000000               0.000000000               0.000000000               0.000051300               0.004375952              -0.000523797              -0.000527756               0.001634555               0.001106799               0.000000000               0.000000000               0.000000000               0.000000000              -0.000060634               0.003771165              -0.000478695              -0.000494132               0.001421753               0.000927621               0.000000000               0.000000000               0.000000000               0.000000000              -0.000127631               0.003150701              -0.000433927              -0.000441699               0.001197456               0.000755758               0.000000000               0.000000000               0.000000000               0.000000000              -0.000154686               0.002505523              -0.000380107              -0.000371197               0.000958898               0.000587701               0.000000000               0.000000000               0.000000000               0.000000000              -0.000143270               0.001819637              -0.000300126              -0.000281180               0.000700266               0.000419086               0.000000000               0.000000000               0.000000000               0.000000000              -0.000086092               0.001074884              -0.000174678              -0.000166645               0.000413839               0.000247195               0.000000000               0.000000000               0.000000000               0.000000000              -0.000104710               0.000518122              -0.000110104              -0.000104031               0.000207383               0.000103351               0.000000000               0.000000000               0.000000000               0.000000000               0.002301274               0.020368326               0.002696044              -0.001683060               0.007350394               0.005667334               0.000000000               0.000000000               0.000000000               0.000000000               0.001747179               0.015812647               0.001164874              -0.001321386               0.005711292               0.004389906               0.000000000               0.000000000               0.000000000               0.000000000               0.001827344               0.012265529              -0.000327777              -0.000847935               0.004371114               0.003523179               0.000000000               0.000000000               0.000000000               0.000000000               0.001456359               0.010221683              -0.000915181              -0.000731574               0.003651052               0.002919477               0.000000000               0.000000000               0.000000000               0.000000000               0.001035477               0.008876470              -0.001123632              -0.000721254               0.003199212               0.002477958               0.000000000               0.000000000               0.000000000               0.000000000               0.000664212               0.007880656              -0.001165537              -0.000736001               0.002872193               0.002136191               0.000000000               0.000000000               0.000000000               0.000000000               0.000362236               0.007077015              -0.001141521              -0.000748787               0.002608577               0.001859790               0.000000000               0.000000000               0.000000000               0.000000000               0.000131005               0.006385911              -0.001091064              -0.000749111               0.002378319               0.001629209               0.000000000               0.000000000               0.000000000               0.000000000              -0.000039349               0.005757188              -0.001030308              -0.000734403               0.002163844               0.001429441               0.000000000               0.000000000               0.000000000               0.000000000              -0.000164548               0.005157060              -0.000962017              -0.000706337               0.001954448               0.001248111               0.000000000               0.000000000               0.000000000               0.000000000              -0.000248606               0.004570555              -0.000883423              -0.000664545               0.001745018               0.001080473               0.000000000               0.000000000               0.000000000               0.000000000              -0.000290213               0.003992101              -0.000801020              -0.000607841               0.001533301               0.000925459               0.000000000               0.000000000               0.000000000               0.000000000              -0.000292466               0.003415757              -0.000715879              -0.000536643               0.001317455               0.000780812               0.000000000               0.000000000               0.000000000               0.000000000              -0.000259147               0.002838332              -0.000613070              -0.000451971               0.001096758               0.000644787               0.000000000               0.000000000               0.000000000               0.000000000              -0.000195751               0.002257520              -0.000470054              -0.000355596               0.000871031               0.000515435               0.000000000               0.000000000               0.000000000               0.000000000              -0.000106335               0.001676871              -0.000265516              -0.000249484               0.000642113               0.000392629               0.000000000               0.000000000               0.000000000               0.000000000              -0.000097079               0.001278116              -0.000160871              -0.000196169               0.000491424               0.000295255               0.000000000               0.000000000               0.000000000               0.000000000               0.002393473               0.018290281               0.003529373              -0.001388731               0.006559609               0.005170878               0.000000000               0.000000000               0.000000000               0.000000000               0.001362948               0.014542093               0.001513485              -0.001306653               0.005282867               0.003976213               0.000000000               0.000000000               0.000000000               0.000000000               0.000938783               0.011794374              -0.000417299              -0.001122250               0.004305502               0.003183252               0.000000000               0.000000000               0.000000000               0.000000000               0.000430425               0.010125884              -0.001128190              -0.001104324               0.003743369               0.002639045               0.000000000               0.000000000               0.000000000               0.000000000               0.000031694               0.008954789              -0.001356253              -0.001107461               0.003354053               0.002246592               0.000000000               0.000000000               0.000000000               0.000000000              -0.000254187               0.008040356              -0.001384681              -0.001100362               0.003046879               0.001946517               0.000000000               0.000000000               0.000000000               0.000000000              -0.000443994               0.007274877              -0.001340858              -0.001075855               0.002783553               0.001707698               0.000000000               0.000000000               0.000000000               0.000000000              -0.000554544               0.006600744              -0.001270383              -0.001033045               0.002544574               0.001511529               0.000000000               0.000000000               0.000000000               0.000000000              -0.000608913               0.005978629              -0.001188374              -0.000975669               0.002318079               0.001342410               0.000000000               0.000000000               0.000000000               0.000000000              -0.000622295               0.005385590              -0.001099286              -0.000906558               0.002097364               0.001190807               0.000000000               0.000000000               0.000000000               0.000000000              -0.000599555               0.004821553              -0.000999740              -0.000827526               0.001883010               0.001055484               0.000000000               0.000000000               0.000000000               0.000000000              -0.000547973               0.004280787              -0.000893063              -0.000740587               0.001673777               0.000933190               0.000000000               0.000000000               0.000000000               0.000000000              -0.000466209               0.003764797              -0.000781008              -0.000645427               0.001470062               0.000824635               0.000000000               0.000000000               0.000000000               0.000000000              -0.000359947               0.003275656              -0.000651495              -0.000544436               0.001273353               0.000728917               0.000000000               0.000000000               0.000000000               0.000000000              -0.000241505               0.002824006              -0.000482921              -0.000443564               0.001089181               0.000645616               0.000000000               0.000000000               0.000000000               0.000000000              -0.000121034               0.002430123              -0.000263453              -0.000349152               0.000926417               0.000577265               0.000000000               0.000000000               0.000000000               0.000000000              -0.000085183               0.002195719              -0.000153466              -0.000306408               0.000834035               0.000527627               0.000000000               0.000000000               0.000000000               0.000000000               0.002295628               0.015748416               0.003884090              -0.001107691               0.005618649               0.004510958               0.000000000               0.000000000               0.000000000               0.000000000               0.000776670               0.013017128               0.001671946              -0.001335887               0.004784295               0.003448408               0.000000000               0.000000000               0.000000000               0.000000000              -0.000159829               0.011221680              -0.000405920              -0.001462642               0.004228070               0.002765428               0.000000000               0.000000000               0.000000000               0.000000000              -0.000749822               0.009963513              -0.001108027              -0.001526619               0.003830011               0.002303392               0.000000000               0.000000000               0.000000000               0.000000000              -0.001070655               0.008973101              -0.001308314              -0.001523130               0.003498714               0.001975584               0.000000000               0.000000000               0.000000000               0.000000000              -0.001212965               0.008149364              -0.001314749              -0.001473529               0.003207604               0.001734075               0.000000000               0.000000000               0.000000000               0.000000000              -0.001245934               0.007427597              -0.001255145              -0.001395672               0.002941065               0.001545393               0.000000000               0.000000000               0.000000000               0.000000000              -0.001204279               0.006768748              -0.001176181              -0.001297695               0.002688792               0.001391096               0.000000000               0.000000000               0.000000000               0.000000000              -0.001115769               0.006153632              -0.001087334              -0.001187615               0.002447061               0.001259447               0.000000000               0.000000000               0.000000000               0.000000000              -0.001003619               0.005572886              -0.000995571              -0.001072966               0.002215265               0.001142300               0.000000000               0.000000000               0.000000000               0.000000000              -0.000871031               0.005033323              -0.000895986              -0.000955800               0.001996357               0.001040557               0.000000000               0.000000000               0.000000000               0.000000000              -0.000720653               0.004540554              -0.000785837              -0.000837812               0.001792773               0.000954961               0.000000000               0.000000000               0.000000000               0.000000000              -0.000559691               0.004091961              -0.000668167              -0.000721378               0.001604433               0.000883055               0.000000000               0.000000000               0.000000000               0.000000000              -0.000395329               0.003693046              -0.000535220              -0.000609878               0.001434295               0.000824418               0.000000000               0.000000000               0.000000000               0.000000000              -0.000240689               0.003358945              -0.000379156              -0.000510125               0.001289679               0.000779554               0.000000000               0.000000000               0.000000000               0.000000000              -0.000110670               0.003115677              -0.000198253              -0.000430960               0.001182202               0.000751242               0.000000000               0.000000000               0.000000000               0.000000000              -0.000063335               0.003001719              -0.000108806              -0.000398964               0.001133551               0.000734587               0.000000000               0.000000000               0.000000000               0.000000000               0.001888335               0.013017449               0.003777962              -0.000919056               0.004645458               0.003726401               0.000000000               0.000000000               0.000000000               0.000000000              -0.000004927               0.011410050               0.001673067              -0.001428101               0.004279345               0.002851244               0.000000000               0.000000000               0.000000000               0.000000000              -0.001343191               0.010595767              -0.000266214              -0.001828163               0.004141275               0.002313112               0.000000000               0.000000000               0.000000000               0.000000000              -0.001897716               0.009718920              -0.000863752              -0.001926504               0.003881776               0.001955272               0.000000000               0.000000000               0.000000000               0.000000000              -0.002064827               0.008894287              -0.001019486              -0.001886091               0.003593430               0.001707338               0.000000000               0.000000000               0.000000000               0.000000000              -0.002027216               0.008151136              -0.001012557              -0.001779094               0.003310049               0.001530956               0.000000000               0.000000000               0.000000000               0.000000000              -0.001882663               0.007463885              -0.000953244              -0.001638980               0.003034263               0.001395283               0.000000000               0.000000000               0.000000000               0.000000000              -0.001680386               0.006819975              -0.000884244              -0.001482638               0.002767515               0.001284877               0.000000000               0.000000000               0.000000000               0.000000000              -0.001452477               0.006217060              -0.000810300              -0.001321808               0.002512935               0.001191127               0.000000000               0.000000000               0.000000000               0.000000000              -0.001220103               0.005659617              -0.000734270              -0.001164988               0.002274849               0.001109861               0.000000000               0.000000000               0.000000000               0.000000000              -0.000987494               0.005155602              -0.000655168              -0.001014758               0.002056769               0.001042011               0.000000000               0.000000000               0.000000000               0.000000000              -0.000757096               0.004712639              -0.000562025              -0.000872989               0.001861860               0.000988871               0.000000000               0.000000000               0.000000000               0.000000000              -0.000542511               0.004326240              -0.000456894              -0.000744220               0.001690139               0.000945919               0.000000000               0.000000000               0.000000000               0.000000000              -0.000351239               0.004006302              -0.000344398              -0.000632501               0.001546254               0.000913753               0.000000000               0.000000000               0.000000000               0.000000000              -0.000189330               0.003770238              -0.000225947              -0.000542277               0.001437493               0.000895215               0.000000000               0.000000000               0.000000000               0.000000000              -0.000075053               0.003631580              -0.000109896              -0.000482091               0.001371211               0.000889120               0.000000000               0.000000000               0.000000000               0.000000000              -0.000032277               0.003592431              -0.000053875              -0.000461156               0.001351184               0.000890027               0.000000000               0.000000000               0.000000000               0.000000000               0.001104909               0.010326994               0.003297832              -0.000876534               0.003734474               0.002857940               0.000000000               0.000000000               0.000000000               0.000000000              -0.000940683               0.009852131               0.001576576              -0.001584270               0.003812100               0.002227831               0.000000000               0.000000000               0.000000000               0.000000000              -0.002481387               0.009937553               0.000007509              -0.002172709               0.004036721               0.001864012               0.000000000               0.000000000               0.000000000               0.000000000              -0.002872046               0.009378931              -0.000441622              -0.002249378               0.003876072               0.001626694               0.000000000               0.000000000               0.000000000               0.000000000              -0.002817510               0.008691199              -0.000561034              -0.002142961               0.003611358               0.001468397               0.000000000               0.000000000               0.000000000               0.000000000              -0.002575842               0.008009432              -0.000564580              -0.001967115               0.003325489               0.001358374               0.000000000               0.000000000               0.000000000               0.000000000              -0.002253558               0.007352704              -0.000531547              -0.001764168               0.003038933               0.001274765               0.000000000               0.000000000               0.000000000               0.000000000              -0.001905249               0.006733480              -0.000493836              -0.001556150               0.002763187               0.001207038               0.000000000               0.000000000               0.000000000               0.000000000              -0.001558890               0.006158788              -0.000453641              -0.001354429               0.002504385               0.001149956               0.000000000               0.000000000               0.000000000               0.000000000              -0.001231080               0.005636435              -0.000411419              -0.001166207               0.002267528               0.001101322               0.000000000               0.000000000               0.000000000               0.000000000              -0.000927913               0.005174962              -0.000365149              -0.000994835               0.002056582               0.001061747               0.000000000               0.000000000               0.000000000               0.000000000              -0.000651810               0.004780887              -0.000302698              -0.000842037               0.001874292               0.001032255               0.000000000               0.000000000               0.000000000               0.000000000              -0.000414672               0.004458821              -0.000227275              -0.000712853               0.001723876               0.001011023               0.000000000               0.000000000               0.000000000               0.000000000              -0.000226526               0.004220658              -0.000152023              -0.000612528               0.001611048               0.000998520               0.000000000               0.000000000               0.000000000               0.000000000              -0.000092398               0.004075321              -0.000082301              -0.000544063               0.001539781               0.000995718               0.000000000               0.000000000               0.000000000               0.000000000              -0.000022194               0.004020104              -0.000030804              -0.000510835               0.001510299               0.000999465               0.000000000               0.000000000               0.000000000               0.000000000               0.000001479               0.004027016              -0.000008282              -0.000502821               0.001509932               0.001007111               0.000000000               0.000000000               0.000000000               0.000000000              -0.000018363               0.007841530               0.002553993              -0.000987077               0.002942842               0.001955765               0.000000000               0.000000000               0.000000000               0.000000000              -0.001969389               0.008433227               0.001439703              -0.001792671               0.003408604               0.001615933               0.000000000               0.000000000               0.000000000               0.000000000              -0.003455773               0.009242546               0.000402088              -0.002451227               0.003897894               0.001446666               0.000000000               0.000000000               0.000000000               0.000000000              -0.003579846               0.008924780               0.000087109              -0.002458034               0.003794242               0.001336208               0.000000000               0.000000000               0.000000000               0.000000000              -0.003276487               0.008356580              -0.000029123              -0.002273250               0.003543249               0.001269999               0.000000000               0.000000000               0.000000000               0.000000000              -0.002831388               0.007735537              -0.000073529              -0.002028708               0.003254723               0.001226015               0.000000000               0.000000000               0.000000000               0.000000000              -0.002348780               0.007118834              -0.000089788              -0.001770642               0.002963135               0.001192493               0.000000000               0.000000000               0.000000000               0.000000000              -0.001881541               0.006534850              -0.000101876              -0.001522430               0.002685738               0.001163308               0.000000000               0.000000000               0.000000000               0.000000000              -0.001448980               0.005999007              -0.000106046              -0.001293240               0.002430729               0.001137489               0.000000000               0.000000000               0.000000000               0.000000000              -0.001060325               0.005522127              -0.000102200              -0.001087885               0.002203319               0.001115434               0.000000000               0.000000000               0.000000000               0.000000000              -0.000716422               0.005114195              -0.000094563              -0.000907930               0.002007358               0.001099428               0.000000000               0.000000000               0.000000000               0.000000000              -0.000424859               0.004784706              -0.000072220              -0.000757408               0.001847355               0.001089947               0.000000000               0.000000000               0.000000000               0.000000000              -0.000197308               0.004545782              -0.000039754              -0.000642212               0.001729316               0.001087104               0.000000000               0.000000000               0.000000000               0.000000000              -0.000042032               0.004405682              -0.000011319              -0.000566471               0.001657370               0.001090899               0.000000000               0.000000000               0.000000000               0.000000000               0.000038551               0.004359006               0.000008771              -0.000530418               0.001629793               0.001099376               0.000000000               0.000000000               0.000000000               0.000000000               0.000044292               0.004384079               0.000014134              -0.000531399               0.001638478               0.001107079               0.000000000               0.000000000               0.000000000               0.000000000               0.000032726               0.004425453               0.000016733              -0.000540908               0.001655439               0.001114531               0.000000000               0.000000000               0.000000000               0.000000000              -0.001336729               0.005741642               0.001664908              -0.001218976               0.002320187               0.001101210               0.000000000               0.000000000               0.000000000               0.000000000              -0.002971954               0.007156410               0.001302312              -0.002009029               0.003055122               0.001046093               0.000000000               0.000000000               0.000000000               0.000000000              -0.004223797               0.008519914               0.000881169              -0.002648907               0.003722912               0.001074005               0.000000000               0.000000000               0.000000000               0.000000000              -0.004067054               0.008454149               0.000646150              -0.002581907               0.003678657               0.001096750               0.000000000               0.000000000               0.000000000               0.000000000              -0.003557123               0.008034319               0.000501671              -0.002338205               0.003457481               0.001119276               0.000000000               0.000000000               0.000000000               0.000000000              -0.002950998               0.007501091               0.000401155              -0.002044255               0.003181757               0.001137502               0.000000000               0.000000000               0.000000000               0.000000000              -0.002343795               0.006944232               0.000323202              -0.001746948               0.002897037               0.001150089               0.000000000               0.000000000               0.000000000               0.000000000              -0.001787953               0.006407514               0.000258232              -0.001471418               0.002626289               0.001154871               0.000000000               0.000000000               0.000000000               0.000000000              -0.001290221               0.005914923               0.000209384              -0.001223195               0.002379353               0.001156158               0.000000000               0.000000000               0.000000000               0.000000000              -0.000853534               0.005482785               0.000171479              -0.001005421               0.002162717               0.001157296               0.000000000               0.000000000               0.000000000               0.000000000              -0.000477869               0.005126064               0.000138443              -0.000819957               0.001981990               0.001162033               0.000000000               0.000000000               0.000000000               0.000000000              -0.000177312               0.004850731               0.000110544              -0.000672832               0.001841171               0.001168340               0.000000000               0.000000000               0.000000000               0.000000000               0.000034467               0.004671385               0.000088058              -0.000570997               0.001747445               0.001176449               0.000000000               0.000000000               0.000000000               0.000000000               0.000155381               0.004596462               0.000065680              -0.000516288               0.001704235               0.001187946               0.000000000               0.000000000               0.000000000               0.000000000               0.000196316               0.004619022               0.000041968              -0.000503758               0.001707578               0.001203820               0.000000000               0.000000000               0.000000000               0.000000000               0.000174284               0.004704116               0.000019739              -0.000522657               0.001742242               0.001219585               0.000000000               0.000000000               0.000000000               0.000000000               0.000141032               0.004761826               0.000009327              -0.000542340               0.001768039               0.001225700               0.000000000               0.000000000               0.000000000               0.000000000              -0.002842680               0.003798909               0.000743577              -0.001540865               0.001779911               0.000239046               0.000000000               0.000000000               0.000000000               0.000000000              -0.003815934               0.005660974               0.001156918              -0.002138592               0.002599836               0.000461244               0.000000000               0.000000000               0.000000000               0.000000000              -0.004694771               0.007423000               0.001380047              -0.002688407               0.003370444               0.000682037               0.000000000               0.000000000               0.000000000               0.000000000              -0.004386217               0.007742933               0.001228529              -0.002612692               0.003451849               0.000839157               0.000000000               0.000000000               0.000000000               0.000000000              -0.003791494               0.007593141               0.001054946              -0.002370947               0.003321337               0.000950390               0.000000000               0.000000000               0.000000000               0.000000000              -0.003138985               0.007258877               0.000896876              -0.002084474               0.003114426               0.001029952               0.000000000               0.000000000               0.000000000               0.000000000              -0.002492922               0.006851022               0.000757898              -0.001791219               0.002880724               0.001089505               0.000000000               0.000000000               0.000000000               0.000000000              -0.001894076               0.006427299               0.000644004              -0.001513687               0.002646974               0.001133287               0.000000000               0.000000000               0.000000000               0.000000000              -0.001354629               0.006022690               0.000551901              -0.001260819               0.002427816               0.001166997               0.000000000               0.000000000               0.000000000               0.000000000              -0.000880907               0.005653387               0.000471292              -0.001037011               0.002230114               0.001193103               0.000000000               0.000000000               0.000000000               0.000000000              -0.000470969               0.005343402               0.000394825              -0.000844536               0.002062628               0.001218092               0.000000000               0.000000000               0.000000000               0.000000000              -0.000134066               0.005095513               0.000314734              -0.000687212               0.001927558               0.001240346               0.000000000               0.000000000               0.000000000               0.000000000               0.000118522               0.004913915               0.000237284              -0.000569792               0.001827886               0.001258094               0.000000000               0.000000000               0.000000000               0.000000000               0.000280672               0.004815065               0.000163454              -0.000496630               0.001770549               0.001273919               0.000000000               0.000000000               0.000000000               0.000000000               0.000356717               0.004807715               0.000094658              -0.000467194               0.001758287               0.001291093               0.000000000               0.000000000               0.000000000               0.000000000               0.000362599               0.004877869               0.000038491              -0.000473758               0.001783860               0.001310102               0.000000000               0.000000000               0.000000000               0.000000000               0.000331407               0.004920845               0.000008379              -0.000490827               0.001803874               0.001313047               0.000000000               0.000000000               0.000000000               0.000000000              -0.004717043               0.002058267              -0.000137751              -0.002026171               0.001361470              -0.000664701               0.000000000               0.000000000               0.000000000               0.000000000              -0.004761966               0.004145168               0.000950845              -0.002303878               0.002149667              -0.000154211               0.000000000               0.000000000               0.000000000               0.000000000              -0.005090442               0.006110581               0.001778627              -0.002672732               0.002927750               0.000255018               0.000000000               0.000000000               0.000000000               0.000000000              -0.004645878               0.006792781               0.001777445              -0.002591296               0.003128003               0.000536707               0.000000000               0.000000000               0.000000000               0.000000000              -0.004004155               0.006949098               0.001605832              -0.002370190               0.003106406               0.000736216               0.000000000               0.000000000               0.000000000               0.000000000              -0.003331693               0.006857400               0.001411190              -0.002106555               0.002987962               0.000881407               0.000000000               0.000000000               0.000000000               0.000000000              -0.002669402               0.006639240               0.001228569              -0.001830926               0.002823366               0.000992440               0.000000000               0.000000000               0.000000000               0.000000000              -0.002044709               0.006361458               0.001072474              -0.001561944               0.002641113               0.001079168               0.000000000               0.000000000               0.000000000               0.000000000              -0.001473624               0.006065210               0.000938108              -0.001310757               0.002458635               0.001147878               0.000000000               0.000000000               0.000000000               0.000000000              -0.000958331               0.005782451               0.000816568              -0.001082178               0.002288190               0.001206012               0.000000000               0.000000000               0.000000000               0.000000000              -0.000501488               0.005531566               0.000700015              -0.000879502               0.002137004               0.001257502               0.000000000               0.000000000               0.000000000               0.000000000              -0.000106115               0.005318445               0.000581034              -0.000704597               0.002007663               0.001303066               0.000000000               0.000000000               0.000000000               0.000000000               0.000216589               0.005142845               0.000458829              -0.000561633               0.001901476               0.001339842               0.000000000               0.000000000               0.000000000               0.000000000               0.000454422               0.005014292               0.000332795              -0.000456377               0.001823540               0.001367162               0.000000000               0.000000000               0.000000000               0.000000000               0.000599909               0.004947097               0.000206592              -0.000393420               0.001780156               0.001386736               0.000000000               0.000000000               0.000000000               0.000000000               0.000650856               0.004950572               0.000091518              -0.000374750               0.001775091               0.001400341               0.000000000               0.000000000               0.000000000               0.000000000               0.000634316               0.004960843               0.000032415              -0.000382236               0.001781010               0.001398774               0.000000000               0.000000000               0.000000000               0.000000000              -0.006836912               0.000665174              -0.000888136              -0.002646986               0.001104046              -0.001542940               0.000000000               0.000000000               0.000000000               0.000000000              -0.005847127               0.002721311               0.000674933              -0.002532832               0.001751369              -0.000781463               0.000000000               0.000000000               0.000000000               0.000000000              -0.005424933               0.004609381               0.001974027              -0.002610517               0.002406616              -0.000203901               0.000000000               0.000000000               0.000000000               0.000000000              -0.004763555               0.005535796               0.002163927              -0.002478302               0.002671347               0.000193045               0.000000000               0.000000000               0.000000000               0.000000000              -0.004056106               0.005973917               0.002043695              -0.002267774               0.002747210               0.000479436               0.000000000               0.000000000               0.000000000               0.000000000              -0.003367697               0.006133901               0.001848853              -0.002029620               0.002721153               0.000691533               0.000000000               0.000000000               0.000000000               0.000000000              -0.002706411               0.006128826               0.001644996              -0.001781003               0.002636589               0.000855586               0.000000000               0.000000000               0.000000000               0.000000000              -0.002078670               0.006021938               0.001461117              -0.001532240               0.002518039               0.000985799               0.000000000               0.000000000               0.000000000               0.000000000              -0.001494065               0.005863053               0.001299081              -0.001293153               0.002385382               0.001092229               0.000000000               0.000000000               0.000000000               0.000000000              -0.000949319               0.005695401               0.001151404              -0.001067917               0.002254420               0.001186503               0.000000000               0.000000000               0.000000000               0.000000000              -0.000447475               0.005535994               0.001009433              -0.000859801               0.002131913               0.001272112               0.000000000               0.000000000               0.000000000               0.000000000               0.000008461               0.005392085               0.000864126              -0.000670836               0.002020956               0.001350119               0.000000000               0.000000000               0.000000000               0.000000000               0.000403197               0.005255454               0.000709029              -0.000505732               0.001920378               0.001414646               0.000000000               0.000000000               0.000000000               0.000000000               0.000722405               0.005135767               0.000542529              -0.000371068               0.001835595               0.001464526               0.000000000               0.000000000               0.000000000               0.000000000               0.000951687               0.005046627               0.000360726              -0.000273945               0.001773507               0.001499562               0.000000000               0.000000000               0.000000000               0.000000000               0.001078724               0.005008838               0.000175375              -0.000221583               0.001743457               0.001521874               0.000000000               0.000000000               0.000000000               0.000000000               0.001103650               0.005000132               0.000082544              -0.000211147               0.001737076               0.001525929               0.000000000               0.000000000               0.000000000               0.000000000              -0.009065512              -0.000310914              -0.001390207              -0.003360700               0.001016588              -0.002344112               0.000000000               0.000000000               0.000000000               0.000000000              -0.007017458               0.001472341               0.000387308              -0.002815586               0.001429299              -0.001386287               0.000000000               0.000000000               0.000000000               0.000000000              -0.005721352               0.003059320               0.001942047              -0.002527918               0.001862399              -0.000665518               0.000000000               0.000000000               0.000000000               0.000000000              -0.004761988               0.004088023               0.002298941              -0.002296744               0.002128240              -0.000168503               0.000000000               0.000000000               0.000000000               0.000000000              -0.003954394               0.004742918               0.002260327              -0.002075758               0.002272875               0.000197117               0.000000000               0.000000000               0.000000000               0.000000000              -0.003243507               0.005130649               0.002094793              -0.001857643               0.002329413               0.000471770               0.000000000               0.000000000               0.000000000               0.000000000              -0.002589731               0.005333479               0.001901571              -0.001637831               0.002323752               0.000685921               0.000000000               0.000000000               0.000000000               0.000000000              -0.001970212               0.005413057               0.001714402              -0.001415459               0.002276153               0.000860695               0.000000000               0.000000000               0.000000000               0.000000000              -0.001382919               0.005417313               0.001543229              -0.001195756               0.002204338               0.001008582               0.000000000               0.000000000               0.000000000               0.000000000              -0.000824516               0.005382910               0.001386956              -0.000982055               0.002121637               0.001139581               0.000000000               0.000000000               0.000000000               0.000000000              -0.000292784               0.005331541               0.001238884              -0.000776235               0.002035907               0.001259672               0.000000000               0.000000000               0.000000000               0.000000000               0.000212467               0.005272414               0.001087651              -0.000579376               0.001950579               0.001371203               0.000000000               0.000000000               0.000000000               0.000000000               0.000682677               0.005209392               0.000919680              -0.000395170               0.001868170               0.001473000               0.000000000               0.000000000               0.000000000               0.000000000               0.001099051               0.005145481               0.000727719              -0.000231041               0.001792157               0.001561116               0.000000000               0.000000000               0.000000000               0.000000000               0.001440530               0.005081095               0.000507595              -0.000094938               0.001725328               0.001630389               0.000000000               0.000000000               0.000000000               0.000000000               0.001690497               0.005035434               0.000261874               0.000004506               0.001676959               0.001681466               0.000000000               0.000000000               0.000000000               0.000000000               0.001802619               0.005025491               0.000138603               0.000047795               0.001659215               0.001707010               0.000000000               0.000000000               0.000000000               0.000000000              -0.011191525              -0.000893528              -0.001541781              -0.004085128               0.001063859              -0.003021269               0.000000000               0.000000000               0.000000000               0.000000000              -0.008164486               0.000472207               0.000153543              -0.003120705               0.001197629              -0.001923076               0.000000000               0.000000000               0.000000000               0.000000000              -0.005993370               0.001614860               0.001689580              -0.002449368               0.001354733              -0.001094635               0.000000000               0.000000000               0.000000000               0.000000000              -0.004683978               0.002623988               0.002126131              -0.002084487               0.001569480              -0.000515007               0.000000000               0.000000000               0.000000000               0.000000000              -0.003751934               0.003403787               0.002161424              -0.001832445               0.001745398              -0.000087047               0.000000000               0.000000000               0.000000000               0.000000000              -0.002998646               0.003967954               0.002047945              -0.001620483               0.001862798               0.000242315               0.000000000               0.000000000               0.000000000               0.000000000              -0.002342932               0.004360387               0.001890114              -0.001423645               0.001927995               0.000504350               0.000000000               0.000000000               0.000000000               0.000000000              -0.001737736               0.004616865               0.001726402              -0.001228757               0.001948525               0.000719768               0.000000000               0.000000000               0.000000000               0.000000000              -0.001161664               0.004783922               0.001570312              -0.001033612               0.001939162               0.000905549               0.000000000               0.000000000               0.000000000               0.000000000              -0.000599649               0.004893874               0.001427698              -0.000836601               0.001910142               0.001073540               0.000000000               0.000000000               0.000000000               0.000000000              -0.000046508               0.004962519               0.001295237              -0.000637755               0.001866741               0.001228986               0.000000000               0.000000000               0.000000000               0.000000000               0.000495131               0.005003702               0.001159170              -0.000439788               0.001814480               0.001374692               0.000000000               0.000000000               0.000000000               0.000000000               0.001024942               0.005030548               0.001003843              -0.000244465               0.001758321               0.001513855               0.000000000               0.000000000               0.000000000               0.000000000               0.001539023               0.005045516               0.000818040              -0.000053557               0.001699674               0.001646117               0.000000000               0.000000000               0.000000000               0.000000000               0.002021333               0.005041790               0.000592782               0.000127775               0.001637988               0.001765763               0.000000000               0.000000000               0.000000000               0.000000000               0.002450008               0.005025540               0.000319796               0.000290558               0.001578311               0.001868868               0.000000000               0.000000000               0.000000000               0.000000000               0.002703631               0.005038320               0.000183466               0.000384068               0.001551401               0.001935468               0.000000000               0.000000000               0.000000000               0.000000000              -0.012971740              -0.001187436              -0.001304983              -0.004715970               0.001176170              -0.003539800               0.000000000               0.000000000               0.000000000               0.000000000              -0.009143995              -0.000248138               0.000018929              -0.003397978               0.001049940              -0.002348039               0.000000000               0.000000000               0.000000000               0.000000000              -0.006224057               0.000439091               0.001248397              -0.002388905               0.000942659              -0.001446247               0.000000000               0.000000000               0.000000000               0.000000000              -0.004580597               0.001350668               0.001643593              -0.001886555               0.001079066              -0.000807489               0.000000000               0.000000000               0.000000000               0.000000000              -0.003510686               0.002181169               0.001711912              -0.001589151               0.001256764              -0.000332387               0.000000000               0.000000000               0.000000000               0.000000000              -0.002708182               0.002863499               0.001650908              -0.001373503               0.001412323               0.000038820               0.000000000               0.000000000               0.000000000               0.000000000              -0.002041507               0.003398839               0.001544003              -0.001190418               0.001529740               0.000339323               0.000000000               0.000000000               0.000000000               0.000000000              -0.001447619               0.003805982               0.001423932              -0.001018603               0.001608182               0.000589579               0.000000000               0.000000000               0.000000000               0.000000000              -0.000887491               0.004112943               0.001305768              -0.000846926               0.001653275               0.000806350               0.000000000               0.000000000               0.000000000               0.000000000              -0.000332229               0.004347205               0.001199698              -0.000667986               0.001671716               0.001003730               0.000000000               0.000000000               0.000000000               0.000000000               0.000230663               0.004528290               0.001098631              -0.000479537               0.001669261               0.001189723               0.000000000               0.000000000               0.000000000               0.000000000               0.000801481               0.004673290               0.000992321              -0.000283606               0.001652283               0.001368677               0.000000000               0.000000000               0.000000000               0.000000000               0.001387499               0.004795217               0.000873778              -0.000079091               0.001624753               0.001545662               0.000000000               0.000000000               0.000000000               0.000000000               0.001993469               0.004891601               0.000730464               0.000136099               0.001585151               0.001721250               0.000000000               0.000000000               0.000000000               0.000000000               0.002619797               0.004960253               0.000547871               0.000362389               0.001532605               0.001894994               0.000000000               0.000000000               0.000000000               0.000000000               0.003261514               0.004996267               0.000305951               0.000598529               0.001465896               0.002064425               0.000000000               0.000000000               0.000000000               0.000000000               0.003701952               0.005048257               0.000183811               0.000757192               0.001430338               0.002187530               0.000000000               0.000000000               0.000000000               0.000000000              -0.014159943              -0.001301354              -0.000746033              -0.005147306               0.001281975              -0.003865331               0.000000000               0.000000000               0.000000000               0.000000000              -0.009811280              -0.000678800              -0.000019496              -0.003594377               0.000971852              -0.002622525               0.000000000               0.000000000               0.000000000               0.000000000              -0.006379706              -0.000329842               0.000664651              -0.002351158               0.000673767              -0.001677391               0.000000000               0.000000000               0.000000000               0.000000000              -0.004497182               0.000474325               0.000898363              -0.001745732               0.000740014              -0.001005719               0.000000000               0.000000000               0.000000000               0.000000000              -0.003313313               0.001312572               0.000949840              -0.001406562               0.000906371              -0.000500190               0.000000000               0.000000000               0.000000000               0.000000000              -0.002468902               0.002063686               0.000928232              -0.001183797               0.001082487              -0.000101310               0.000000000               0.000000000               0.000000000               0.000000000              -0.001792218               0.002691655               0.000876194              -0.001008536               0.001233388               0.000224852               0.000000000               0.000000000               0.000000000               0.000000000              -0.001202150               0.003195019               0.000811728              -0.000850182               0.001348389               0.000498208               0.000000000               0.000000000               0.000000000               0.000000000              -0.000647229               0.003586489               0.000748317              -0.000691021               0.001425824               0.000734804               0.000000000               0.000000000               0.000000000               0.000000000              -0.000099179               0.003899164               0.000692616              -0.000524587               0.001474571               0.000949984               0.000000000               0.000000000               0.000000000               0.000000000               0.000462107               0.004165583               0.000637284              -0.000347407               0.001504316               0.001156909               0.000000000               0.000000000               0.000000000               0.000000000               0.001051260               0.004394076               0.000577992              -0.000155037               0.001516356               0.001361319               0.000000000               0.000000000               0.000000000               0.000000000               0.001680159               0.004590528               0.000512656               0.000056243               0.001511413               0.001567656               0.000000000               0.000000000               0.000000000               0.000000000               0.002358976               0.004754389               0.000433131               0.000290314               0.001488009               0.001778323               0.000000000               0.000000000               0.000000000               0.000000000               0.003099938               0.004879826               0.000331372               0.000552493               0.001442428               0.001994921               0.000000000               0.000000000               0.000000000               0.000000000               0.003918420               0.004957637               0.000189866               0.000849694               0.001369298               0.002218992               0.000000000               0.000000000               0.000000000               0.000000000               0.004526592               0.005045910               0.000118316               0.001066723               0.001326379               0.002393102               0.000000000               0.000000000               0.000000000               0.000000000               0.000000000               0.000000000               0.000000000               0.000000000               0.000000000               0.000000000               0.000000000               0.000000000               0.000000000               0.000000000               0.000000000               0.000000000               0.000000000               0.000000000               0.000000000               0.000000000               0.000000000               0.000000000               0.000000000               0.000000000               0.000000000               0.000000000               0.000000000               0.000000000               0.000000000               0.000000000               0.000000000               0.000000000               0.000000000               0.000000000               0.000000000               0.000000000               0.000000000               0.000000000               0.000000000               0.000000000               0.000000000               0.000000000               0.000000000               0.000000000               0.000000000               0.000000000               0.000000000               0.000000000               0.000000000               0.000000000               0.000000000               0.000000000               0.000000000               0.000000000               0.000000000               0.000000000               0.000000000               0.000000000               0.000000000               0.000000000               0.000000000               0.000000000               0.000000000               0.000000000               0.000000000               0.000000000               0.000000000               0.000000000               0.000000000               0.000000000               0.000000000               0.000000000               0.000000000               0.000000000               0.000000000               0.000000000               0.000000000               0.000000000               0.000000000               0.000000000               0.000000000               0.000000000               0.000000000               0.000000000               0.000000000               0.000000000               0.000000000               0.000000000               0.000000000               0.000000000               0.000000000               0.000000000               0.000000000               0.000000000               0.000000000               0.000000000               0.000000000               0.000000000               0.000000000               0.000000000               0.000000000               0.000000000               0.000000000               0.000000000               0.000000000               0.000000000               0.000000000               0.000000000               0.000000000               0.000000000               0.000000000               0.000000000               0.000000000               0.000000000               0.000000000               0.000000000               0.000000000               0.000000000               0.000000000               0.000000000               0.000000000               0.000000000               0.000000000               0.000000000               0.000000000               0.000000000               0.000000000               0.000000000               0.000000000               0.000000000               0.000000000               0.000000000               0.000000000               0.000000000               0.000000000               0.000000000               0.000000000               0.000000000               0.000000000               0.000000000               0.000000000               0.000000000               0.000000000               0.000000000               0.000000000               0.000000000               0.000000000               0.000000000               0.000000000               0.000000000               0.000000000               0.000000000               0.000000000               0.000000000               0.000000000               0.000000000               0.000000000               0.000000000               0.000000000               0.000000000               0.000000000               0.000000000               0.000000000               0.000000000               0.000000000               0.000000000               0.000000000               0.000000000               0.000000000               0.000000000               0.000000000               0.000000000               0.000000000               0.000000000 </DataArray>
</PointData>
</Piece>
</UnstructuredGrid> </VTKFile>
