<?xml version="1.0"?>
<VTKFile type="UnstructuredGrid" version="0.1">
<UnstructuredGrid>
<Piece NumberOfPoints="      1156" NumberOfCells="      1024">
<Points>
<DataArray type="Float64"                                    Name="coordinates"                                                      NumberOfComponents=" 3" format="ascii">
              0.133000000               0.000000000               0.000000000               0.155937500               0.000000000               0.000000000               0.178875000               0.000000000               0.000000000               0.201812500               0.000000000               0.000000000               0.224750000               0.000000000               0.000000000               0.247687500               0.000000000               0.000000000               0.270625000               0.000000000               0.000000000               0.293562500               0.000000000               0.000000000               0.316500000               0.000000000               0.000000000               0.339437500               0.000000000               0.000000000               0.362375000               0.000000000               0.000000000               0.385312500               0.000000000               0.000000000               0.408250000               0.000000000               0.000000000               0.431187500               0.000000000               0.000000000               0.454125000               0.000000000               0.000000000               0.477062500               0.000000000               0.000000000               0.500000000               0.000000000               0.000000000               0.132359569               0.013036280               0.000000000               0.155337096               0.016127762               0.000000000               0.178314623               0.019219245               0.000000000               0.201292150               0.022310727               0.000000000               0.224269676               0.025402210               0.000000000               0.247247203               0.028493692               0.000000000               0.270224730               0.031585175               0.000000000               0.293202257               0.034676657               0.000000000               0.316179784               0.037768140               0.000000000               0.339157311               0.040859622               0.000000000               0.362134838               0.043951105               0.000000000               0.385112365               0.047042587               0.000000000               0.408089892               0.050134070               0.000000000               0.431067419               0.053225552               0.000000000               0.454044946               0.056317035               0.000000000               0.477022473               0.059408517               0.000000000               0.500000000               0.062500000               0.000000000               0.130444442               0.025947013               0.000000000               0.153541665               0.032137825               0.000000000               0.176638887               0.038328636               0.000000000               0.199736109               0.044519448               0.000000000               0.222833332               0.050710260               0.000000000               0.245930554               0.056901071               0.000000000               0.269027776               0.063091883               0.000000000               0.292124999               0.069282695               0.000000000               0.315222221               0.075473506               0.000000000               0.338319444               0.081664318               0.000000000               0.361416666               0.087855130               0.000000000               0.384513888               0.094045942               0.000000000               0.407611111               0.100236753               0.000000000               0.430708333               0.106427565               0.000000000               0.453805555               0.112618377               0.000000000               0.476902778               0.118809188               0.000000000               0.500000000               0.125000000               0.000000000               0.127273065               0.038607862               0.000000000               0.150568498               0.047913621               0.000000000               0.173863932               0.057219379               0.000000000               0.197159365               0.066525138               0.000000000               0.220454798               0.075830897               0.000000000               0.243750232               0.085136655               0.000000000               0.267045665               0.094442414               0.000000000               0.290341099               0.103748172               0.000000000               0.313636532               0.113053931               0.000000000               0.336931966               0.122359690               0.000000000               0.360227399               0.131665448               0.000000000               0.383522833               0.140971207               0.000000000               0.406818266               0.150276966               0.000000000               0.430113700               0.159582724               0.000000000               0.453409133               0.168888483               0.000000000               0.476704567               0.178194241               0.000000000               0.500000000               0.187500000               0.000000000               0.122875978               0.050896897               0.000000000               0.146446229               0.063340840               0.000000000               0.170016481               0.075784784               0.000000000               0.193586732               0.088228728               0.000000000               0.217156983               0.100672672               0.000000000               0.240727235               0.113116616               0.000000000               0.264297486               0.125560560               0.000000000               0.287867738               0.138004504               0.000000000               0.311437989               0.150448448               0.000000000               0.335008240               0.162892392               0.000000000               0.358578492               0.175336336               0.000000000               0.382148743               0.187780280               0.000000000               0.405718994               0.200224224               0.000000000               0.429289246               0.212668168               0.000000000               0.452859497               0.225112112               0.000000000               0.476429749               0.237556056               0.000000000               0.500000000               0.250000000               0.000000000               0.117295528               0.062695766               0.000000000               0.141214558               0.078308531               0.000000000               0.165133587               0.093921295               0.000000000               0.189052617               0.109534060               0.000000000               0.212971646               0.125146824               0.000000000               0.236890676               0.140759589               0.000000000               0.260809705               0.156372354               0.000000000               0.284728735               0.171985118               0.000000000               0.308647764               0.187597883               0.000000000               0.332566794               0.203210648               0.000000000               0.356485823               0.218823412               0.000000000               0.380404853               0.234436177               0.000000000               0.404323882               0.250048941               0.000000000               0.428242912               0.265661706               0.000000000               0.452161941               0.281274471               0.000000000               0.476080971               0.296887235               0.000000000               0.500000000               0.312500000               0.000000000               0.110585458               0.073890841               0.000000000               0.134923867               0.092710163               0.000000000               0.159262276               0.111529486               0.000000000               0.183600685               0.130348808               0.000000000               0.207939094               0.149168131               0.000000000               0.232277503               0.167987453               0.000000000               0.256615912               0.186806776               0.000000000               0.280954320               0.205626098               0.000000000               0.305292729               0.224445420               0.000000000               0.329631138               0.243264743               0.000000000               0.353969547               0.262084065               0.000000000               0.378307956               0.280903388               0.000000000               0.402646365               0.299722710               0.000000000               0.426984773               0.318542033               0.000000000               0.451323182               0.337361355               0.000000000               0.475661591               0.356180678               0.000000000               0.500000000               0.375000000               0.000000000               0.102810390               0.084374307               0.000000000               0.127634741               0.106444663               0.000000000               0.152459092               0.128515018               0.000000000               0.177283442               0.150585374               0.000000000               0.202107793               0.172655730               0.000000000               0.226932143               0.194726086               0.000000000               0.251756494               0.216796442               0.000000000               0.276580845               0.238866798               0.000000000               0.301405195               0.260937153               0.000000000               0.326229546               0.283007509               0.000000000               0.351053896               0.305077865               0.000000000               0.375878247               0.327148221               0.000000000               0.400702598               0.349218577               0.000000000               0.425526948               0.371288933               0.000000000               0.450351299               0.393359288               0.000000000               0.475175649               0.415429644               0.000000000               0.500000000               0.437500000               0.000000000               0.094045202               0.094045202               0.000000000               0.119417377               0.119417377               0.000000000               0.144789552               0.144789552               0.000000000               0.170161727               0.170161727               0.000000000               0.195533901               0.195533901               0.000000000               0.220906076               0.220906076               0.000000000               0.246278251               0.246278251               0.000000000               0.271650426               0.271650426               0.000000000               0.297022601               0.297022601               0.000000000               0.322394776               0.322394776               0.000000000               0.347766951               0.347766951               0.000000000               0.373139126               0.373139126               0.000000000               0.398511300               0.398511300               0.000000000               0.423883475               0.423883475               0.000000000               0.449255650               0.449255650               0.000000000               0.474627825               0.474627825               0.000000000               0.500000000               0.500000000               0.000000000               0.084374307               0.102810390               0.000000000               0.106444663               0.127634741               0.000000000               0.128515018               0.152459092               0.000000000               0.150585374               0.177283442               0.000000000               0.172655730               0.202107793               0.000000000               0.194726086               0.226932143               0.000000000               0.216796442               0.251756494               0.000000000               0.238866798               0.276580845               0.000000000               0.260937153               0.301405195               0.000000000               0.283007509               0.326229546               0.000000000               0.305077865               0.351053896               0.000000000               0.327148221               0.375878247               0.000000000               0.349218577               0.400702598               0.000000000               0.371288933               0.425526948               0.000000000               0.393359288               0.450351299               0.000000000               0.415429644               0.475175649               0.000000000               0.437500000               0.500000000               0.000000000               0.073890841               0.110585458               0.000000000               0.092710163               0.134923867               0.000000000               0.111529486               0.159262276               0.000000000               0.130348808               0.183600685               0.000000000               0.149168131               0.207939094               0.000000000               0.167987453               0.232277503               0.000000000               0.186806776               0.256615912               0.000000000               0.205626098               0.280954320               0.000000000               0.224445420               0.305292729               0.000000000               0.243264743               0.329631138               0.000000000               0.262084065               0.353969547               0.000000000               0.280903388               0.378307956               0.000000000               0.299722710               0.402646365               0.000000000               0.318542033               0.426984773               0.000000000               0.337361355               0.451323182               0.000000000               0.356180678               0.475661591               0.000000000               0.375000000               0.500000000               0.000000000               0.062695766               0.117295528               0.000000000               0.078308531               0.141214558               0.000000000               0.093921295               0.165133587               0.000000000               0.109534060               0.189052617               0.000000000               0.125146824               0.212971646               0.000000000               0.140759589               0.236890676               0.000000000               0.156372354               0.260809705               0.000000000               0.171985118               0.284728735               0.000000000               0.187597883               0.308647764               0.000000000               0.203210648               0.332566794               0.000000000               0.218823412               0.356485823               0.000000000               0.234436177               0.380404853               0.000000000               0.250048941               0.404323882               0.000000000               0.265661706               0.428242912               0.000000000               0.281274471               0.452161941               0.000000000               0.296887235               0.476080971               0.000000000               0.312500000               0.500000000               0.000000000               0.050896897               0.122875978               0.000000000               0.063340840               0.146446229               0.000000000               0.075784784               0.170016481               0.000000000               0.088228728               0.193586732               0.000000000               0.100672672               0.217156983               0.000000000               0.113116616               0.240727235               0.000000000               0.125560560               0.264297486               0.000000000               0.138004504               0.287867738               0.000000000               0.150448448               0.311437989               0.000000000               0.162892392               0.335008240               0.000000000               0.175336336               0.358578492               0.000000000               0.187780280               0.382148743               0.000000000               0.200224224               0.405718994               0.000000000               0.212668168               0.429289246               0.000000000               0.225112112               0.452859497               0.000000000               0.237556056               0.476429749               0.000000000               0.250000000               0.500000000               0.000000000               0.038607862               0.127273065               0.000000000               0.047913621               0.150568498               0.000000000               0.057219379               0.173863932               0.000000000               0.066525138               0.197159365               0.000000000               0.075830897               0.220454798               0.000000000               0.085136655               0.243750232               0.000000000               0.094442414               0.267045665               0.000000000               0.103748172               0.290341099               0.000000000               0.113053931               0.313636532               0.000000000               0.122359690               0.336931966               0.000000000               0.131665448               0.360227399               0.000000000               0.140971207               0.383522833               0.000000000               0.150276966               0.406818266               0.000000000               0.159582724               0.430113700               0.000000000               0.168888483               0.453409133               0.000000000               0.178194241               0.476704567               0.000000000               0.187500000               0.500000000               0.000000000               0.025947013               0.130444442               0.000000000               0.032137825               0.153541665               0.000000000               0.038328636               0.176638887               0.000000000               0.044519448               0.199736109               0.000000000               0.050710260               0.222833332               0.000000000               0.056901071               0.245930554               0.000000000               0.063091883               0.269027776               0.000000000               0.069282695               0.292124999               0.000000000               0.075473506               0.315222221               0.000000000               0.081664318               0.338319444               0.000000000               0.087855130               0.361416666               0.000000000               0.094045942               0.384513888               0.000000000               0.100236753               0.407611111               0.000000000               0.106427565               0.430708333               0.000000000               0.112618377               0.453805555               0.000000000               0.118809188               0.476902778               0.000000000               0.125000000               0.500000000               0.000000000               0.013036280               0.132359569               0.000000000               0.016127762               0.155337096               0.000000000               0.019219245               0.178314623               0.000000000               0.022310727               0.201292150               0.000000000               0.025402210               0.224269676               0.000000000               0.028493692               0.247247203               0.000000000               0.031585175               0.270224730               0.000000000               0.034676657               0.293202257               0.000000000               0.037768140               0.316179784               0.000000000               0.040859622               0.339157311               0.000000000               0.043951105               0.362134838               0.000000000               0.047042587               0.385112365               0.000000000               0.050134070               0.408089892               0.000000000               0.053225552               0.431067419               0.000000000               0.056317035               0.454044946               0.000000000               0.059408517               0.477022473               0.000000000               0.062500000               0.500000000               0.000000000               0.000000000               0.133000000               0.000000000               0.000000000               0.155937500               0.000000000               0.000000000               0.178875000               0.000000000               0.000000000               0.201812500               0.000000000               0.000000000               0.224750000               0.000000000               0.000000000               0.247687500               0.000000000               0.000000000               0.270625000               0.000000000               0.000000000               0.293562500               0.000000000               0.000000000               0.316500000               0.000000000               0.000000000               0.339437500               0.000000000               0.000000000               0.362375000               0.000000000               0.000000000               0.385312500               0.000000000               0.000000000               0.408250000               0.000000000               0.000000000               0.431187500               0.000000000               0.000000000               0.454125000               0.000000000               0.000000000               0.477062500               0.000000000               0.000000000               0.500000000               0.000000000               0.133000000               0.000000000               0.000000000               0.155937500               0.000000000               0.000000000               0.178875000               0.000000000               0.000000000               0.201812500               0.000000000               0.000000000               0.224750000               0.000000000               0.000000000               0.247687500               0.000000000               0.000000000               0.270625000               0.000000000               0.000000000               0.293562500               0.000000000               0.000000000               0.316500000               0.000000000               0.000000000               0.339437500               0.000000000               0.000000000               0.362375000               0.000000000               0.000000000               0.385312500               0.000000000               0.000000000               0.408250000               0.000000000               0.000000000               0.431187500               0.000000000               0.000000000               0.454125000               0.000000000               0.000000000               0.477062500               0.000000000               0.000000000               0.500000000               0.000000000               0.000000000               0.132359569              -0.013036280               0.000000000               0.155337096              -0.016127762               0.000000000               0.178314623              -0.019219245               0.000000000               0.201292150              -0.022310727               0.000000000               0.224269676              -0.025402210               0.000000000               0.247247203              -0.028493692               0.000000000               0.270224730              -0.031585175               0.000000000               0.293202257              -0.034676657               0.000000000               0.316179784              -0.037768140               0.000000000               0.339157311              -0.040859622               0.000000000               0.362134838              -0.043951105               0.000000000               0.385112365              -0.047042587               0.000000000               0.408089892              -0.050134070               0.000000000               0.431067419              -0.053225552               0.000000000               0.454044946              -0.056317035               0.000000000               0.477022473              -0.059408517               0.000000000               0.500000000              -0.062500000               0.000000000               0.130444442              -0.025947013               0.000000000               0.153541665              -0.032137825               0.000000000               0.176638887              -0.038328636               0.000000000               0.199736109              -0.044519448               0.000000000               0.222833332              -0.050710260               0.000000000               0.245930554              -0.056901071               0.000000000               0.269027776              -0.063091883               0.000000000               0.292124999              -0.069282695               0.000000000               0.315222221              -0.075473506               0.000000000               0.338319444              -0.081664318               0.000000000               0.361416666              -0.087855130               0.000000000               0.384513888              -0.094045942               0.000000000               0.407611111              -0.100236753               0.000000000               0.430708333              -0.106427565               0.000000000               0.453805555              -0.112618377               0.000000000               0.476902778              -0.118809188               0.000000000               0.500000000              -0.125000000               0.000000000               0.127273065              -0.038607862               0.000000000               0.150568498              -0.047913621               0.000000000               0.173863932              -0.057219379               0.000000000               0.197159365              -0.066525138               0.000000000               0.220454798              -0.075830897               0.000000000               0.243750232              -0.085136655               0.000000000               0.267045665              -0.094442414               0.000000000               0.290341099              -0.103748172               0.000000000               0.313636532              -0.113053931               0.000000000               0.336931966              -0.122359690               0.000000000               0.360227399              -0.131665448               0.000000000               0.383522833              -0.140971207               0.000000000               0.406818266              -0.150276966               0.000000000               0.430113700              -0.159582724               0.000000000               0.453409133              -0.168888483               0.000000000               0.476704567              -0.178194241               0.000000000               0.500000000              -0.187500000               0.000000000               0.122875978              -0.050896897               0.000000000               0.146446229              -0.063340840               0.000000000               0.170016481              -0.075784784               0.000000000               0.193586732              -0.088228728               0.000000000               0.217156983              -0.100672672               0.000000000               0.240727235              -0.113116616               0.000000000               0.264297486              -0.125560560               0.000000000               0.287867738              -0.138004504               0.000000000               0.311437989              -0.150448448               0.000000000               0.335008240              -0.162892392               0.000000000               0.358578492              -0.175336336               0.000000000               0.382148743              -0.187780280               0.000000000               0.405718994              -0.200224224               0.000000000               0.429289246              -0.212668168               0.000000000               0.452859497              -0.225112112               0.000000000               0.476429749              -0.237556056               0.000000000               0.500000000              -0.250000000               0.000000000               0.117295528              -0.062695766               0.000000000               0.141214558              -0.078308531               0.000000000               0.165133587              -0.093921295               0.000000000               0.189052617              -0.109534060               0.000000000               0.212971646              -0.125146824               0.000000000               0.236890676              -0.140759589               0.000000000               0.260809705              -0.156372354               0.000000000               0.284728735              -0.171985118               0.000000000               0.308647764              -0.187597883               0.000000000               0.332566794              -0.203210648               0.000000000               0.356485823              -0.218823412               0.000000000               0.380404853              -0.234436177               0.000000000               0.404323882              -0.250048941               0.000000000               0.428242912              -0.265661706               0.000000000               0.452161941              -0.281274471               0.000000000               0.476080971              -0.296887235               0.000000000               0.500000000              -0.312500000               0.000000000               0.110585458              -0.073890841               0.000000000               0.134923867              -0.092710163               0.000000000               0.159262276              -0.111529486               0.000000000               0.183600685              -0.130348808               0.000000000               0.207939094              -0.149168131               0.000000000               0.232277503              -0.167987453               0.000000000               0.256615912              -0.186806776               0.000000000               0.280954320              -0.205626098               0.000000000               0.305292729              -0.224445420               0.000000000               0.329631138              -0.243264743               0.000000000               0.353969547              -0.262084065               0.000000000               0.378307956              -0.280903388               0.000000000               0.402646365              -0.299722710               0.000000000               0.426984773              -0.318542033               0.000000000               0.451323182              -0.337361355               0.000000000               0.475661591              -0.356180678               0.000000000               0.500000000              -0.375000000               0.000000000               0.102810390              -0.084374307               0.000000000               0.127634741              -0.106444663               0.000000000               0.152459092              -0.128515018               0.000000000               0.177283442              -0.150585374               0.000000000               0.202107793              -0.172655730               0.000000000               0.226932143              -0.194726086               0.000000000               0.251756494              -0.216796442               0.000000000               0.276580845              -0.238866798               0.000000000               0.301405195              -0.260937153               0.000000000               0.326229546              -0.283007509               0.000000000               0.351053896              -0.305077865               0.000000000               0.375878247              -0.327148221               0.000000000               0.400702598              -0.349218577               0.000000000               0.425526948              -0.371288933               0.000000000               0.450351299              -0.393359288               0.000000000               0.475175649              -0.415429644               0.000000000               0.500000000              -0.437500000               0.000000000               0.094045202              -0.094045202               0.000000000               0.119417377              -0.119417377               0.000000000               0.144789552              -0.144789552               0.000000000               0.170161727              -0.170161727               0.000000000               0.195533901              -0.195533901               0.000000000               0.220906076              -0.220906076               0.000000000               0.246278251              -0.246278251               0.000000000               0.271650426              -0.271650426               0.000000000               0.297022601              -0.297022601               0.000000000               0.322394776              -0.322394776               0.000000000               0.347766951              -0.347766951               0.000000000               0.373139126              -0.373139126               0.000000000               0.398511300              -0.398511300               0.000000000               0.423883475              -0.423883475               0.000000000               0.449255650              -0.449255650               0.000000000               0.474627825              -0.474627825               0.000000000               0.500000000              -0.500000000               0.000000000               0.084374307              -0.102810390               0.000000000               0.106444663              -0.127634741               0.000000000               0.128515018              -0.152459092               0.000000000               0.150585374              -0.177283442               0.000000000               0.172655730              -0.202107793               0.000000000               0.194726086              -0.226932143               0.000000000               0.216796442              -0.251756494               0.000000000               0.238866798              -0.276580845               0.000000000               0.260937153              -0.301405195               0.000000000               0.283007509              -0.326229546               0.000000000               0.305077865              -0.351053896               0.000000000               0.327148221              -0.375878247               0.000000000               0.349218577              -0.400702598               0.000000000               0.371288933              -0.425526948               0.000000000               0.393359288              -0.450351299               0.000000000               0.415429644              -0.475175649               0.000000000               0.437500000              -0.500000000               0.000000000               0.073890841              -0.110585458               0.000000000               0.092710163              -0.134923867               0.000000000               0.111529486              -0.159262276               0.000000000               0.130348808              -0.183600685               0.000000000               0.149168131              -0.207939094               0.000000000               0.167987453              -0.232277503               0.000000000               0.186806776              -0.256615912               0.000000000               0.205626098              -0.280954320               0.000000000               0.224445420              -0.305292729               0.000000000               0.243264743              -0.329631138               0.000000000               0.262084065              -0.353969547               0.000000000               0.280903388              -0.378307956               0.000000000               0.299722710              -0.402646365               0.000000000               0.318542033              -0.426984773               0.000000000               0.337361355              -0.451323182               0.000000000               0.356180678              -0.475661591               0.000000000               0.375000000              -0.500000000               0.000000000               0.062695766              -0.117295528               0.000000000               0.078308531              -0.141214558               0.000000000               0.093921295              -0.165133587               0.000000000               0.109534060              -0.189052617               0.000000000               0.125146824              -0.212971646               0.000000000               0.140759589              -0.236890676               0.000000000               0.156372354              -0.260809705               0.000000000               0.171985118              -0.284728735               0.000000000               0.187597883              -0.308647764               0.000000000               0.203210648              -0.332566794               0.000000000               0.218823412              -0.356485823               0.000000000               0.234436177              -0.380404853               0.000000000               0.250048941              -0.404323882               0.000000000               0.265661706              -0.428242912               0.000000000               0.281274471              -0.452161941               0.000000000               0.296887235              -0.476080971               0.000000000               0.312500000              -0.500000000               0.000000000               0.050896897              -0.122875978               0.000000000               0.063340840              -0.146446229               0.000000000               0.075784784              -0.170016481               0.000000000               0.088228728              -0.193586732               0.000000000               0.100672672              -0.217156983               0.000000000               0.113116616              -0.240727235               0.000000000               0.125560560              -0.264297486               0.000000000               0.138004504              -0.287867738               0.000000000               0.150448448              -0.311437989               0.000000000               0.162892392              -0.335008240               0.000000000               0.175336336              -0.358578492               0.000000000               0.187780280              -0.382148743               0.000000000               0.200224224              -0.405718994               0.000000000               0.212668168              -0.429289246               0.000000000               0.225112112              -0.452859497               0.000000000               0.237556056              -0.476429749               0.000000000               0.250000000              -0.500000000               0.000000000               0.038607862              -0.127273065               0.000000000               0.047913621              -0.150568498               0.000000000               0.057219379              -0.173863932               0.000000000               0.066525138              -0.197159365               0.000000000               0.075830897              -0.220454798               0.000000000               0.085136655              -0.243750232               0.000000000               0.094442414              -0.267045665               0.000000000               0.103748172              -0.290341099               0.000000000               0.113053931              -0.313636532               0.000000000               0.122359690              -0.336931966               0.000000000               0.131665448              -0.360227399               0.000000000               0.140971207              -0.383522833               0.000000000               0.150276966              -0.406818266               0.000000000               0.159582724              -0.430113700               0.000000000               0.168888483              -0.453409133               0.000000000               0.178194241              -0.476704567               0.000000000               0.187500000              -0.500000000               0.000000000               0.025947013              -0.130444442               0.000000000               0.032137825              -0.153541665               0.000000000               0.038328636              -0.176638887               0.000000000               0.044519448              -0.199736109               0.000000000               0.050710260              -0.222833332               0.000000000               0.056901071              -0.245930554               0.000000000               0.063091883              -0.269027776               0.000000000               0.069282695              -0.292124999               0.000000000               0.075473506              -0.315222221               0.000000000               0.081664318              -0.338319444               0.000000000               0.087855130              -0.361416666               0.000000000               0.094045942              -0.384513888               0.000000000               0.100236753              -0.407611111               0.000000000               0.106427565              -0.430708333               0.000000000               0.112618377              -0.453805555               0.000000000               0.118809188              -0.476902778               0.000000000               0.125000000              -0.500000000               0.000000000               0.013036280              -0.132359569               0.000000000               0.016127762              -0.155337096               0.000000000               0.019219245              -0.178314623               0.000000000               0.022310727              -0.201292150               0.000000000               0.025402210              -0.224269676               0.000000000               0.028493692              -0.247247203               0.000000000               0.031585175              -0.270224730               0.000000000               0.034676657              -0.293202257               0.000000000               0.037768140              -0.316179784               0.000000000               0.040859622              -0.339157311               0.000000000               0.043951105              -0.362134838               0.000000000               0.047042587              -0.385112365               0.000000000               0.050134070              -0.408089892               0.000000000               0.053225552              -0.431067419               0.000000000               0.056317035              -0.454044946               0.000000000               0.059408517              -0.477022473               0.000000000               0.062500000              -0.500000000               0.000000000               0.000000000              -0.133000000               0.000000000               0.000000000              -0.155937500               0.000000000               0.000000000              -0.178875000               0.000000000               0.000000000              -0.201812500               0.000000000               0.000000000              -0.224750000               0.000000000               0.000000000              -0.247687500               0.000000000               0.000000000              -0.270625000               0.000000000               0.000000000              -0.293562500               0.000000000               0.000000000              -0.316500000               0.000000000               0.000000000              -0.339437500               0.000000000               0.000000000              -0.362375000               0.000000000               0.000000000              -0.385312500               0.000000000               0.000000000              -0.408250000               0.000000000               0.000000000              -0.431187500               0.000000000               0.000000000              -0.454125000               0.000000000               0.000000000              -0.477062500               0.000000000               0.000000000              -0.500000000               0.000000000              -0.133000000               0.000000000               0.000000000              -0.155937500               0.000000000               0.000000000              -0.178875000               0.000000000               0.000000000              -0.201812500               0.000000000               0.000000000              -0.224750000               0.000000000               0.000000000              -0.247687500               0.000000000               0.000000000              -0.270625000               0.000000000               0.000000000              -0.293562500               0.000000000               0.000000000              -0.316500000               0.000000000               0.000000000              -0.339437500               0.000000000               0.000000000              -0.362375000               0.000000000               0.000000000              -0.385312500               0.000000000               0.000000000              -0.408250000               0.000000000               0.000000000              -0.431187500               0.000000000               0.000000000              -0.454125000               0.000000000               0.000000000              -0.477062500               0.000000000               0.000000000              -0.500000000               0.000000000               0.000000000              -0.132359569              -0.013036280               0.000000000              -0.155337096              -0.016127762               0.000000000              -0.178314623              -0.019219245               0.000000000              -0.201292150              -0.022310727               0.000000000              -0.224269676              -0.025402210               0.000000000              -0.247247203              -0.028493692               0.000000000              -0.270224730              -0.031585175               0.000000000              -0.293202257              -0.034676657               0.000000000              -0.316179784              -0.037768140               0.000000000              -0.339157311              -0.040859622               0.000000000              -0.362134838              -0.043951105               0.000000000              -0.385112365              -0.047042587               0.000000000              -0.408089892              -0.050134070               0.000000000              -0.431067419              -0.053225552               0.000000000              -0.454044946              -0.056317035               0.000000000              -0.477022473              -0.059408517               0.000000000              -0.500000000              -0.062500000               0.000000000              -0.130444442              -0.025947013               0.000000000              -0.153541665              -0.032137825               0.000000000              -0.176638887              -0.038328636               0.000000000              -0.199736109              -0.044519448               0.000000000              -0.222833332              -0.050710260               0.000000000              -0.245930554              -0.056901071               0.000000000              -0.269027776              -0.063091883               0.000000000              -0.292124999              -0.069282695               0.000000000              -0.315222221              -0.075473506               0.000000000              -0.338319444              -0.081664318               0.000000000              -0.361416666              -0.087855130               0.000000000              -0.384513888              -0.094045942               0.000000000              -0.407611111              -0.100236753               0.000000000              -0.430708333              -0.106427565               0.000000000              -0.453805555              -0.112618377               0.000000000              -0.476902778              -0.118809188               0.000000000              -0.500000000              -0.125000000               0.000000000              -0.127273065              -0.038607862               0.000000000              -0.150568498              -0.047913621               0.000000000              -0.173863932              -0.057219379               0.000000000              -0.197159365              -0.066525138               0.000000000              -0.220454798              -0.075830897               0.000000000              -0.243750232              -0.085136655               0.000000000              -0.267045665              -0.094442414               0.000000000              -0.290341099              -0.103748172               0.000000000              -0.313636532              -0.113053931               0.000000000              -0.336931966              -0.122359690               0.000000000              -0.360227399              -0.131665448               0.000000000              -0.383522833              -0.140971207               0.000000000              -0.406818266              -0.150276966               0.000000000              -0.430113700              -0.159582724               0.000000000              -0.453409133              -0.168888483               0.000000000              -0.476704567              -0.178194241               0.000000000              -0.500000000              -0.187500000               0.000000000              -0.122875978              -0.050896897               0.000000000              -0.146446229              -0.063340840               0.000000000              -0.170016481              -0.075784784               0.000000000              -0.193586732              -0.088228728               0.000000000              -0.217156983              -0.100672672               0.000000000              -0.240727235              -0.113116616               0.000000000              -0.264297486              -0.125560560               0.000000000              -0.287867738              -0.138004504               0.000000000              -0.311437989              -0.150448448               0.000000000              -0.335008240              -0.162892392               0.000000000              -0.358578492              -0.175336336               0.000000000              -0.382148743              -0.187780280               0.000000000              -0.405718994              -0.200224224               0.000000000              -0.429289246              -0.212668168               0.000000000              -0.452859497              -0.225112112               0.000000000              -0.476429749              -0.237556056               0.000000000              -0.500000000              -0.250000000               0.000000000              -0.117295528              -0.062695766               0.000000000              -0.141214558              -0.078308531               0.000000000              -0.165133587              -0.093921295               0.000000000              -0.189052617              -0.109534060               0.000000000              -0.212971646              -0.125146824               0.000000000              -0.236890676              -0.140759589               0.000000000              -0.260809705              -0.156372354               0.000000000              -0.284728735              -0.171985118               0.000000000              -0.308647764              -0.187597883               0.000000000              -0.332566794              -0.203210648               0.000000000              -0.356485823              -0.218823412               0.000000000              -0.380404853              -0.234436177               0.000000000              -0.404323882              -0.250048941               0.000000000              -0.428242912              -0.265661706               0.000000000              -0.452161941              -0.281274471               0.000000000              -0.476080971              -0.296887235               0.000000000              -0.500000000              -0.312500000               0.000000000              -0.110585458              -0.073890841               0.000000000              -0.134923867              -0.092710163               0.000000000              -0.159262276              -0.111529486               0.000000000              -0.183600685              -0.130348808               0.000000000              -0.207939094              -0.149168131               0.000000000              -0.232277503              -0.167987453               0.000000000              -0.256615912              -0.186806776               0.000000000              -0.280954320              -0.205626098               0.000000000              -0.305292729              -0.224445420               0.000000000              -0.329631138              -0.243264743               0.000000000              -0.353969547              -0.262084065               0.000000000              -0.378307956              -0.280903388               0.000000000              -0.402646365              -0.299722710               0.000000000              -0.426984773              -0.318542033               0.000000000              -0.451323182              -0.337361355               0.000000000              -0.475661591              -0.356180678               0.000000000              -0.500000000              -0.375000000               0.000000000              -0.102810390              -0.084374307               0.000000000              -0.127634741              -0.106444663               0.000000000              -0.152459092              -0.128515018               0.000000000              -0.177283442              -0.150585374               0.000000000              -0.202107793              -0.172655730               0.000000000              -0.226932143              -0.194726086               0.000000000              -0.251756494              -0.216796442               0.000000000              -0.276580845              -0.238866798               0.000000000              -0.301405195              -0.260937153               0.000000000              -0.326229546              -0.283007509               0.000000000              -0.351053896              -0.305077865               0.000000000              -0.375878247              -0.327148221               0.000000000              -0.400702598              -0.349218577               0.000000000              -0.425526948              -0.371288933               0.000000000              -0.450351299              -0.393359288               0.000000000              -0.475175649              -0.415429644               0.000000000              -0.500000000              -0.437500000               0.000000000              -0.094045202              -0.094045202               0.000000000              -0.119417377              -0.119417377               0.000000000              -0.144789552              -0.144789552               0.000000000              -0.170161727              -0.170161727               0.000000000              -0.195533901              -0.195533901               0.000000000              -0.220906076              -0.220906076               0.000000000              -0.246278251              -0.246278251               0.000000000              -0.271650426              -0.271650426               0.000000000              -0.297022601              -0.297022601               0.000000000              -0.322394776              -0.322394776               0.000000000              -0.347766951              -0.347766951               0.000000000              -0.373139126              -0.373139126               0.000000000              -0.398511300              -0.398511300               0.000000000              -0.423883475              -0.423883475               0.000000000              -0.449255650              -0.449255650               0.000000000              -0.474627825              -0.474627825               0.000000000              -0.500000000              -0.500000000               0.000000000              -0.084374307              -0.102810390               0.000000000              -0.106444663              -0.127634741               0.000000000              -0.128515018              -0.152459092               0.000000000              -0.150585374              -0.177283442               0.000000000              -0.172655730              -0.202107793               0.000000000              -0.194726086              -0.226932143               0.000000000              -0.216796442              -0.251756494               0.000000000              -0.238866798              -0.276580845               0.000000000              -0.260937153              -0.301405195               0.000000000              -0.283007509              -0.326229546               0.000000000              -0.305077865              -0.351053896               0.000000000              -0.327148221              -0.375878247               0.000000000              -0.349218577              -0.400702598               0.000000000              -0.371288933              -0.425526948               0.000000000              -0.393359288              -0.450351299               0.000000000              -0.415429644              -0.475175649               0.000000000              -0.437500000              -0.500000000               0.000000000              -0.073890841              -0.110585458               0.000000000              -0.092710163              -0.134923867               0.000000000              -0.111529486              -0.159262276               0.000000000              -0.130348808              -0.183600685               0.000000000              -0.149168131              -0.207939094               0.000000000              -0.167987453              -0.232277503               0.000000000              -0.186806776              -0.256615912               0.000000000              -0.205626098              -0.280954320               0.000000000              -0.224445420              -0.305292729               0.000000000              -0.243264743              -0.329631138               0.000000000              -0.262084065              -0.353969547               0.000000000              -0.280903388              -0.378307956               0.000000000              -0.299722710              -0.402646365               0.000000000              -0.318542033              -0.426984773               0.000000000              -0.337361355              -0.451323182               0.000000000              -0.356180678              -0.475661591               0.000000000              -0.375000000              -0.500000000               0.000000000              -0.062695766              -0.117295528               0.000000000              -0.078308531              -0.141214558               0.000000000              -0.093921295              -0.165133587               0.000000000              -0.109534060              -0.189052617               0.000000000              -0.125146824              -0.212971646               0.000000000              -0.140759589              -0.236890676               0.000000000              -0.156372354              -0.260809705               0.000000000              -0.171985118              -0.284728735               0.000000000              -0.187597883              -0.308647764               0.000000000              -0.203210648              -0.332566794               0.000000000              -0.218823412              -0.356485823               0.000000000              -0.234436177              -0.380404853               0.000000000              -0.250048941              -0.404323882               0.000000000              -0.265661706              -0.428242912               0.000000000              -0.281274471              -0.452161941               0.000000000              -0.296887235              -0.476080971               0.000000000              -0.312500000              -0.500000000               0.000000000              -0.050896897              -0.122875978               0.000000000              -0.063340840              -0.146446229               0.000000000              -0.075784784              -0.170016481               0.000000000              -0.088228728              -0.193586732               0.000000000              -0.100672672              -0.217156983               0.000000000              -0.113116616              -0.240727235               0.000000000              -0.125560560              -0.264297486               0.000000000              -0.138004504              -0.287867738               0.000000000              -0.150448448              -0.311437989               0.000000000              -0.162892392              -0.335008240               0.000000000              -0.175336336              -0.358578492               0.000000000              -0.187780280              -0.382148743               0.000000000              -0.200224224              -0.405718994               0.000000000              -0.212668168              -0.429289246               0.000000000              -0.225112112              -0.452859497               0.000000000              -0.237556056              -0.476429749               0.000000000              -0.250000000              -0.500000000               0.000000000              -0.038607862              -0.127273065               0.000000000              -0.047913621              -0.150568498               0.000000000              -0.057219379              -0.173863932               0.000000000              -0.066525138              -0.197159365               0.000000000              -0.075830897              -0.220454798               0.000000000              -0.085136655              -0.243750232               0.000000000              -0.094442414              -0.267045665               0.000000000              -0.103748172              -0.290341099               0.000000000              -0.113053931              -0.313636532               0.000000000              -0.122359690              -0.336931966               0.000000000              -0.131665448              -0.360227399               0.000000000              -0.140971207              -0.383522833               0.000000000              -0.150276966              -0.406818266               0.000000000              -0.159582724              -0.430113700               0.000000000              -0.168888483              -0.453409133               0.000000000              -0.178194241              -0.476704567               0.000000000              -0.187500000              -0.500000000               0.000000000              -0.025947013              -0.130444442               0.000000000              -0.032137825              -0.153541665               0.000000000              -0.038328636              -0.176638887               0.000000000              -0.044519448              -0.199736109               0.000000000              -0.050710260              -0.222833332               0.000000000              -0.056901071              -0.245930554               0.000000000              -0.063091883              -0.269027776               0.000000000              -0.069282695              -0.292124999               0.000000000              -0.075473506              -0.315222221               0.000000000              -0.081664318              -0.338319444               0.000000000              -0.087855130              -0.361416666               0.000000000              -0.094045942              -0.384513888               0.000000000              -0.100236753              -0.407611111               0.000000000              -0.106427565              -0.430708333               0.000000000              -0.112618377              -0.453805555               0.000000000              -0.118809188              -0.476902778               0.000000000              -0.125000000              -0.500000000               0.000000000              -0.013036280              -0.132359569               0.000000000              -0.016127762              -0.155337096               0.000000000              -0.019219245              -0.178314623               0.000000000              -0.022310727              -0.201292150               0.000000000              -0.025402210              -0.224269676               0.000000000              -0.028493692              -0.247247203               0.000000000              -0.031585175              -0.270224730               0.000000000              -0.034676657              -0.293202257               0.000000000              -0.037768140              -0.316179784               0.000000000              -0.040859622              -0.339157311               0.000000000              -0.043951105              -0.362134838               0.000000000              -0.047042587              -0.385112365               0.000000000              -0.050134070              -0.408089892               0.000000000              -0.053225552              -0.431067419               0.000000000              -0.056317035              -0.454044946               0.000000000              -0.059408517              -0.477022473               0.000000000              -0.062500000              -0.500000000               0.000000000               0.000000000              -0.133000000               0.000000000               0.000000000              -0.155937500               0.000000000               0.000000000              -0.178875000               0.000000000               0.000000000              -0.201812500               0.000000000               0.000000000              -0.224750000               0.000000000               0.000000000              -0.247687500               0.000000000               0.000000000              -0.270625000               0.000000000               0.000000000              -0.293562500               0.000000000               0.000000000              -0.316500000               0.000000000               0.000000000              -0.339437500               0.000000000               0.000000000              -0.362375000               0.000000000               0.000000000              -0.385312500               0.000000000               0.000000000              -0.408250000               0.000000000               0.000000000              -0.431187500               0.000000000               0.000000000              -0.454125000               0.000000000               0.000000000              -0.477062500               0.000000000               0.000000000              -0.500000000               0.000000000              -0.133000000               0.000000000               0.000000000              -0.155937500               0.000000000               0.000000000              -0.178875000               0.000000000               0.000000000              -0.201812500               0.000000000               0.000000000              -0.224750000               0.000000000               0.000000000              -0.247687500               0.000000000               0.000000000              -0.270625000               0.000000000               0.000000000              -0.293562500               0.000000000               0.000000000              -0.316500000               0.000000000               0.000000000              -0.339437500               0.000000000               0.000000000              -0.362375000               0.000000000               0.000000000              -0.385312500               0.000000000               0.000000000              -0.408250000               0.000000000               0.000000000              -0.431187500               0.000000000               0.000000000              -0.454125000               0.000000000               0.000000000              -0.477062500               0.000000000               0.000000000              -0.500000000               0.000000000               0.000000000              -0.132359569               0.013036280               0.000000000              -0.155337096               0.016127762               0.000000000              -0.178314623               0.019219245               0.000000000              -0.201292150               0.022310727               0.000000000              -0.224269676               0.025402210               0.000000000              -0.247247203               0.028493692               0.000000000              -0.270224730               0.031585175               0.000000000              -0.293202257               0.034676657               0.000000000              -0.316179784               0.037768140               0.000000000              -0.339157311               0.040859622               0.000000000              -0.362134838               0.043951105               0.000000000              -0.385112365               0.047042587               0.000000000              -0.408089892               0.050134070               0.000000000              -0.431067419               0.053225552               0.000000000              -0.454044946               0.056317035               0.000000000              -0.477022473               0.059408517               0.000000000              -0.500000000               0.062500000               0.000000000              -0.130444442               0.025947013               0.000000000              -0.153541665               0.032137825               0.000000000              -0.176638887               0.038328636               0.000000000              -0.199736109               0.044519448               0.000000000              -0.222833332               0.050710260               0.000000000              -0.245930554               0.056901071               0.000000000              -0.269027776               0.063091883               0.000000000              -0.292124999               0.069282695               0.000000000              -0.315222221               0.075473506               0.000000000              -0.338319444               0.081664318               0.000000000              -0.361416666               0.087855130               0.000000000              -0.384513888               0.094045942               0.000000000              -0.407611111               0.100236753               0.000000000              -0.430708333               0.106427565               0.000000000              -0.453805555               0.112618377               0.000000000              -0.476902778               0.118809188               0.000000000              -0.500000000               0.125000000               0.000000000              -0.127273065               0.038607862               0.000000000              -0.150568498               0.047913621               0.000000000              -0.173863932               0.057219379               0.000000000              -0.197159365               0.066525138               0.000000000              -0.220454798               0.075830897               0.000000000              -0.243750232               0.085136655               0.000000000              -0.267045665               0.094442414               0.000000000              -0.290341099               0.103748172               0.000000000              -0.313636532               0.113053931               0.000000000              -0.336931966               0.122359690               0.000000000              -0.360227399               0.131665448               0.000000000              -0.383522833               0.140971207               0.000000000              -0.406818266               0.150276966               0.000000000              -0.430113700               0.159582724               0.000000000              -0.453409133               0.168888483               0.000000000              -0.476704567               0.178194241               0.000000000              -0.500000000               0.187500000               0.000000000              -0.122875978               0.050896897               0.000000000              -0.146446229               0.063340840               0.000000000              -0.170016481               0.075784784               0.000000000              -0.193586732               0.088228728               0.000000000              -0.217156983               0.100672672               0.000000000              -0.240727235               0.113116616               0.000000000              -0.264297486               0.125560560               0.000000000              -0.287867738               0.138004504               0.000000000              -0.311437989               0.150448448               0.000000000              -0.335008240               0.162892392               0.000000000              -0.358578492               0.175336336               0.000000000              -0.382148743               0.187780280               0.000000000              -0.405718994               0.200224224               0.000000000              -0.429289246               0.212668168               0.000000000              -0.452859497               0.225112112               0.000000000              -0.476429749               0.237556056               0.000000000              -0.500000000               0.250000000               0.000000000              -0.117295528               0.062695766               0.000000000              -0.141214558               0.078308531               0.000000000              -0.165133587               0.093921295               0.000000000              -0.189052617               0.109534060               0.000000000              -0.212971646               0.125146824               0.000000000              -0.236890676               0.140759589               0.000000000              -0.260809705               0.156372354               0.000000000              -0.284728735               0.171985118               0.000000000              -0.308647764               0.187597883               0.000000000              -0.332566794               0.203210648               0.000000000              -0.356485823               0.218823412               0.000000000              -0.380404853               0.234436177               0.000000000              -0.404323882               0.250048941               0.000000000              -0.428242912               0.265661706               0.000000000              -0.452161941               0.281274471               0.000000000              -0.476080971               0.296887235               0.000000000              -0.500000000               0.312500000               0.000000000              -0.110585458               0.073890841               0.000000000              -0.134923867               0.092710163               0.000000000              -0.159262276               0.111529486               0.000000000              -0.183600685               0.130348808               0.000000000              -0.207939094               0.149168131               0.000000000              -0.232277503               0.167987453               0.000000000              -0.256615912               0.186806776               0.000000000              -0.280954320               0.205626098               0.000000000              -0.305292729               0.224445420               0.000000000              -0.329631138               0.243264743               0.000000000              -0.353969547               0.262084065               0.000000000              -0.378307956               0.280903388               0.000000000              -0.402646365               0.299722710               0.000000000              -0.426984773               0.318542033               0.000000000              -0.451323182               0.337361355               0.000000000              -0.475661591               0.356180678               0.000000000              -0.500000000               0.375000000               0.000000000              -0.102810390               0.084374307               0.000000000              -0.127634741               0.106444663               0.000000000              -0.152459092               0.128515018               0.000000000              -0.177283442               0.150585374               0.000000000              -0.202107793               0.172655730               0.000000000              -0.226932143               0.194726086               0.000000000              -0.251756494               0.216796442               0.000000000              -0.276580845               0.238866798               0.000000000              -0.301405195               0.260937153               0.000000000              -0.326229546               0.283007509               0.000000000              -0.351053896               0.305077865               0.000000000              -0.375878247               0.327148221               0.000000000              -0.400702598               0.349218577               0.000000000              -0.425526948               0.371288933               0.000000000              -0.450351299               0.393359288               0.000000000              -0.475175649               0.415429644               0.000000000              -0.500000000               0.437500000               0.000000000              -0.094045202               0.094045202               0.000000000              -0.119417377               0.119417377               0.000000000              -0.144789552               0.144789552               0.000000000              -0.170161727               0.170161727               0.000000000              -0.195533901               0.195533901               0.000000000              -0.220906076               0.220906076               0.000000000              -0.246278251               0.246278251               0.000000000              -0.271650426               0.271650426               0.000000000              -0.297022601               0.297022601               0.000000000              -0.322394776               0.322394776               0.000000000              -0.347766951               0.347766951               0.000000000              -0.373139126               0.373139126               0.000000000              -0.398511300               0.398511300               0.000000000              -0.423883475               0.423883475               0.000000000              -0.449255650               0.449255650               0.000000000              -0.474627825               0.474627825               0.000000000              -0.500000000               0.500000000               0.000000000              -0.084374307               0.102810390               0.000000000              -0.106444663               0.127634741               0.000000000              -0.128515018               0.152459092               0.000000000              -0.150585374               0.177283442               0.000000000              -0.172655730               0.202107793               0.000000000              -0.194726086               0.226932143               0.000000000              -0.216796442               0.251756494               0.000000000              -0.238866798               0.276580845               0.000000000              -0.260937153               0.301405195               0.000000000              -0.283007509               0.326229546               0.000000000              -0.305077865               0.351053896               0.000000000              -0.327148221               0.375878247               0.000000000              -0.349218577               0.400702598               0.000000000              -0.371288933               0.425526948               0.000000000              -0.393359288               0.450351299               0.000000000              -0.415429644               0.475175649               0.000000000              -0.437500000               0.500000000               0.000000000              -0.073890841               0.110585458               0.000000000              -0.092710163               0.134923867               0.000000000              -0.111529486               0.159262276               0.000000000              -0.130348808               0.183600685               0.000000000              -0.149168131               0.207939094               0.000000000              -0.167987453               0.232277503               0.000000000              -0.186806776               0.256615912               0.000000000              -0.205626098               0.280954320               0.000000000              -0.224445420               0.305292729               0.000000000              -0.243264743               0.329631138               0.000000000              -0.262084065               0.353969547               0.000000000              -0.280903388               0.378307956               0.000000000              -0.299722710               0.402646365               0.000000000              -0.318542033               0.426984773               0.000000000              -0.337361355               0.451323182               0.000000000              -0.356180678               0.475661591               0.000000000              -0.375000000               0.500000000               0.000000000              -0.062695766               0.117295528               0.000000000              -0.078308531               0.141214558               0.000000000              -0.093921295               0.165133587               0.000000000              -0.109534060               0.189052617               0.000000000              -0.125146824               0.212971646               0.000000000              -0.140759589               0.236890676               0.000000000              -0.156372354               0.260809705               0.000000000              -0.171985118               0.284728735               0.000000000              -0.187597883               0.308647764               0.000000000              -0.203210648               0.332566794               0.000000000              -0.218823412               0.356485823               0.000000000              -0.234436177               0.380404853               0.000000000              -0.250048941               0.404323882               0.000000000              -0.265661706               0.428242912               0.000000000              -0.281274471               0.452161941               0.000000000              -0.296887235               0.476080971               0.000000000              -0.312500000               0.500000000               0.000000000              -0.050896897               0.122875978               0.000000000              -0.063340840               0.146446229               0.000000000              -0.075784784               0.170016481               0.000000000              -0.088228728               0.193586732               0.000000000              -0.100672672               0.217156983               0.000000000              -0.113116616               0.240727235               0.000000000              -0.125560560               0.264297486               0.000000000              -0.138004504               0.287867738               0.000000000              -0.150448448               0.311437989               0.000000000              -0.162892392               0.335008240               0.000000000              -0.175336336               0.358578492               0.000000000              -0.187780280               0.382148743               0.000000000              -0.200224224               0.405718994               0.000000000              -0.212668168               0.429289246               0.000000000              -0.225112112               0.452859497               0.000000000              -0.237556056               0.476429749               0.000000000              -0.250000000               0.500000000               0.000000000              -0.038607862               0.127273065               0.000000000              -0.047913621               0.150568498               0.000000000              -0.057219379               0.173863932               0.000000000              -0.066525138               0.197159365               0.000000000              -0.075830897               0.220454798               0.000000000              -0.085136655               0.243750232               0.000000000              -0.094442414               0.267045665               0.000000000              -0.103748172               0.290341099               0.000000000              -0.113053931               0.313636532               0.000000000              -0.122359690               0.336931966               0.000000000              -0.131665448               0.360227399               0.000000000              -0.140971207               0.383522833               0.000000000              -0.150276966               0.406818266               0.000000000              -0.159582724               0.430113700               0.000000000              -0.168888483               0.453409133               0.000000000              -0.178194241               0.476704567               0.000000000              -0.187500000               0.500000000               0.000000000              -0.025947013               0.130444442               0.000000000              -0.032137825               0.153541665               0.000000000              -0.038328636               0.176638887               0.000000000              -0.044519448               0.199736109               0.000000000              -0.050710260               0.222833332               0.000000000              -0.056901071               0.245930554               0.000000000              -0.063091883               0.269027776               0.000000000              -0.069282695               0.292124999               0.000000000              -0.075473506               0.315222221               0.000000000              -0.081664318               0.338319444               0.000000000              -0.087855130               0.361416666               0.000000000              -0.094045942               0.384513888               0.000000000              -0.100236753               0.407611111               0.000000000              -0.106427565               0.430708333               0.000000000              -0.112618377               0.453805555               0.000000000              -0.118809188               0.476902778               0.000000000              -0.125000000               0.500000000               0.000000000              -0.013036280               0.132359569               0.000000000              -0.016127762               0.155337096               0.000000000              -0.019219245               0.178314623               0.000000000              -0.022310727               0.201292150               0.000000000              -0.025402210               0.224269676               0.000000000              -0.028493692               0.247247203               0.000000000              -0.031585175               0.270224730               0.000000000              -0.034676657               0.293202257               0.000000000              -0.037768140               0.316179784               0.000000000              -0.040859622               0.339157311               0.000000000              -0.043951105               0.362134838               0.000000000              -0.047042587               0.385112365               0.000000000              -0.050134070               0.408089892               0.000000000              -0.053225552               0.431067419               0.000000000              -0.056317035               0.454044946               0.000000000              -0.059408517               0.477022473               0.000000000              -0.062500000               0.500000000               0.000000000               0.000000000               0.133000000               0.000000000               0.000000000               0.155937500               0.000000000               0.000000000               0.178875000               0.000000000               0.000000000               0.201812500               0.000000000               0.000000000               0.224750000               0.000000000               0.000000000               0.247687500               0.000000000               0.000000000               0.270625000               0.000000000               0.000000000               0.293562500               0.000000000               0.000000000               0.316500000               0.000000000               0.000000000               0.339437500               0.000000000               0.000000000               0.362375000               0.000000000               0.000000000               0.385312500               0.000000000               0.000000000               0.408250000               0.000000000               0.000000000               0.431187500               0.000000000               0.000000000               0.454125000               0.000000000               0.000000000               0.477062500               0.000000000               0.000000000               0.500000000               0.000000000 </DataArray>
</Points>
<Cells>
<DataArray type="Int32"                                    Name="connectivity"                                                      NumberOfComponents=" 1" format="ascii">
         0          1         18         17          1          2         19         18          2          3         20         19          3          4         21         20          4          5         22         21          5          6         23         22          6          7         24         23          7          8         25         24          8          9         26         25          9         10         27         26         10         11         28         27         11         12         29         28         12         13         30         29         13         14         31         30         14         15         32         31         15         16         33         32         17         18         35         34         18         19         36         35         19         20         37         36         20         21         38         37         21         22         39         38         22         23         40         39         23         24         41         40         24         25         42         41         25         26         43         42         26         27         44         43         27         28         45         44         28         29         46         45         29         30         47         46         30         31         48         47         31         32         49         48         32         33         50         49         34         35         52         51         35         36         53         52         36         37         54         53         37         38         55         54         38         39         56         55         39         40         57         56         40         41         58         57         41         42         59         58         42         43         60         59         43         44         61         60         44         45         62         61         45         46         63         62         46         47         64         63         47         48         65         64         48         49         66         65         49         50         67         66         51         52         69         68         52         53         70         69         53         54         71         70         54         55         72         71         55         56         73         72         56         57         74         73         57         58         75         74         58         59         76         75         59         60         77         76         60         61         78         77         61         62         79         78         62         63         80         79         63         64         81         80         64         65         82         81         65         66         83         82         66         67         84         83         68         69         86         85         69         70         87         86         70         71         88         87         71         72         89         88         72         73         90         89         73         74         91         90         74         75         92         91         75         76         93         92         76         77         94         93         77         78         95         94         78         79         96         95         79         80         97         96         80         81         98         97         81         82         99         98         82         83        100         99         83         84        101        100         85         86        103        102         86         87        104        103         87         88        105        104         88         89        106        105         89         90        107        106         90         91        108        107         91         92        109        108         92         93        110        109         93         94        111        110         94         95        112        111         95         96        113        112         96         97        114        113         97         98        115        114         98         99        116        115         99        100        117        116        100        101        118        117        102        103        120        119        103        104        121        120        104        105        122        121        105        106        123        122        106        107        124        123        107        108        125        124        108        109        126        125        109        110        127        126        110        111        128        127        111        112        129        128        112        113        130        129        113        114        131        130        114        115        132        131        115        116        133        132        116        117        134        133        117        118        135        134        119        120        137        136        120        121        138        137        121        122        139        138        122        123        140        139        123        124        141        140        124        125        142        141        125        126        143        142        126        127        144        143        127        128        145        144        128        129        146        145        129        130        147        146        130        131        148        147        131        132        149        148        132        133        150        149        133        134        151        150        134        135        152        151        136        137        154        153        137        138        155        154        138        139        156        155        139        140        157        156        140        141        158        157        141        142        159        158        142        143        160        159        143        144        161        160        144        145        162        161        145        146        163        162        146        147        164        163        147        148        165        164        148        149        166        165        149        150        167        166        150        151        168        167        151        152        169        168        153        154        171        170        154        155        172        171        155        156        173        172        156        157        174        173        157        158        175        174        158        159        176        175        159        160        177        176        160        161        178        177        161        162        179        178        162        163        180        179        163        164        181        180        164        165        182        181        165        166        183        182        166        167        184        183        167        168        185        184        168        169        186        185        170        171        188        187        171        172        189        188        172        173        190        189        173        174        191        190        174        175        192        191        175        176        193        192        176        177        194        193        177        178        195        194        178        179        196        195        179        180        197        196        180        181        198        197        181        182        199        198        182        183        200        199        183        184        201        200        184        185        202        201        185        186        203        202        187        188        205        204        188        189        206        205        189        190        207        206        190        191        208        207        191        192        209        208        192        193        210        209        193        194        211        210        194        195        212        211        195        196        213        212        196        197        214        213        197        198        215        214        198        199        216        215        199        200        217        216        200        201        218        217        201        202        219        218        202        203        220        219        204        205        222        221        205        206        223        222        206        207        224        223        207        208        225        224        208        209        226        225        209        210        227        226        210        211        228        227        211        212        229        228        212        213        230        229        213        214        231        230        214        215        232        231        215        216        233        232        216        217        234        233        217        218        235        234        218        219        236        235        219        220        237        236        221        222        239        238        222        223        240        239        223        224        241        240        224        225        242        241        225        226        243        242        226        227        244        243        227        228        245        244        228        229        246        245        229        230        247        246        230        231        248        247        231        232        249        248        232        233        250        249        233        234        251        250        234        235        252        251        235        236        253        252        236        237        254        253        238        239        256        255        239        240        257        256        240        241        258        257        241        242        259        258        242        243        260        259        243        244        261        260        244        245        262        261        245        246        263        262        246        247        264        263        247        248        265        264        248        249        266        265        249        250        267        266        250        251        268        267        251        252        269        268        252        253        270        269        253        254        271        270        255        256        273        272        256        257        274        273        257        258        275        274        258        259        276        275        259        260        277        276        260        261        278        277        261        262        279        278        262        263        280        279        263        264        281        280        264        265        282        281        265        266        283        282        266        267        284        283        267        268        285        284        268        269        286        285        269        270        287        286        270        271        288        287        306        307          1          0        307        308          2          1        308        309          3          2        309        310          4          3        310        311          5          4        311        312          6          5        312        313          7          6        313        314          8          7        314        315          9          8        315        316         10          9        316        317         11         10        317        318         12         11        318        319         13         12        319        320         14         13        320        321         15         14        321        322         16         15        323        324        307        306        324        325        308        307        325        326        309        308        326        327        310        309        327        328        311        310        328        329        312        311        329        330        313        312        330        331        314        313        331        332        315        314        332        333        316        315        333        334        317        316        334        335        318        317        335        336        319        318        336        337        320        319        337        338        321        320        338        339        322        321        340        341        324        323        341        342        325        324        342        343        326        325        343        344        327        326        344        345        328        327        345        346        329        328        346        347        330        329        347        348        331        330        348        349        332        331        349        350        333        332        350        351        334        333        351        352        335        334        352        353        336        335        353        354        337        336        354        355        338        337        355        356        339        338        357        358        341        340        358        359        342        341        359        360        343        342        360        361        344        343        361        362        345        344        362        363        346        345        363        364        347        346        364        365        348        347        365        366        349        348        366        367        350        349        367        368        351        350        368        369        352        351        369        370        353        352        370        371        354        353        371        372        355        354        372        373        356        355        374        375        358        357        375        376        359        358        376        377        360        359        377        378        361        360        378        379        362        361        379        380        363        362        380        381        364        363        381        382        365        364        382        383        366        365        383        384        367        366        384        385        368        367        385        386        369        368        386        387        370        369        387        388        371        370        388        389        372        371        389        390        373        372        391        392        375        374        392        393        376        375        393        394        377        376        394        395        378        377        395        396        379        378        396        397        380        379        397        398        381        380        398        399        382        381        399        400        383        382        400        401        384        383        401        402        385        384        402        403        386        385        403        404        387        386        404        405        388        387        405        406        389        388        406        407        390        389        408        409        392        391        409        410        393        392        410        411        394        393        411        412        395        394        412        413        396        395        413        414        397        396        414        415        398        397        415        416        399        398        416        417        400        399        417        418        401        400        418        419        402        401        419        420        403        402        420        421        404        403        421        422        405        404        422        423        406        405        423        424        407        406        425        426        409        408        426        427        410        409        427        428        411        410        428        429        412        411        429        430        413        412        430        431        414        413        431        432        415        414        432        433        416        415        433        434        417        416        434        435        418        417        435        436        419        418        436        437        420        419        437        438        421        420        438        439        422        421        439        440        423        422        440        441        424        423        442        443        426        425        443        444        427        426        444        445        428        427        445        446        429        428        446        447        430        429        447        448        431        430        448        449        432        431        449        450        433        432        450        451        434        433        451        452        435        434        452        453        436        435        453        454        437        436        454        455        438        437        455        456        439        438        456        457        440        439        457        458        441        440        459        460        443        442        460        461        444        443        461        462        445        444        462        463        446        445        463        464        447        446        464        465        448        447        465        466        449        448        466        467        450        449        467        468        451        450        468        469        452        451        469        470        453        452        470        471        454        453        471        472        455        454        472        473        456        455        473        474        457        456        474        475        458        457        476        477        460        459        477        478        461        460        478        479        462        461        479        480        463        462        480        481        464        463        481        482        465        464        482        483        466        465        483        484        467        466        484        485        468        467        485        486        469        468        486        487        470        469        487        488        471        470        488        489        472        471        489        490        473        472        490        491        474        473        491        492        475        474        493        494        477        476        494        495        478        477        495        496        479        478        496        497        480        479        497        498        481        480        498        499        482        481        499        500        483        482        500        501        484        483        501        502        485        484        502        503        486        485        503        504        487        486        504        505        488        487        505        506        489        488        506        507        490        489        507        508        491        490        508        509        492        491        510        511        494        493        511        512        495        494        512        513        496        495        513        514        497        496        514        515        498        497        515        516        499        498        516        517        500        499        517        518        501        500        518        519        502        501        519        520        503        502        520        521        504        503        521        522        505        504        522        523        506        505        523        524        507        506        524        525        508        507        525        526        509        508        527        528        511        510        528        529        512        511        529        530        513        512        530        531        514        513        531        532        515        514        532        533        516        515        533        534        517        516        534        535        518        517        535        536        519        518        536        537        520        519        537        538        521        520        538        539        522        521        539        540        523        522        540        541        524        523        541        542        525        524        542        543        526        525        544        545        528        527        545        546        529        528        546        547        530        529        547        548        531        530        548        549        532        531        549        550        533        532        550        551        534        533        551        552        535        534        552        553        536        535        553        554        537        536        554        555        538        537        555        556        539        538        556        557        540        539        557        558        541        540        558        559        542        541        559        560        543        542        561        562        545        544        562        563        546        545        563        564        547        546        564        565        548        547        565        566        549        548        566        567        550        549        567        568        551        550        568        569        552        551        569        570        553        552        570        571        554        553        571        572        555        554        572        573        556        555        573        574        557        556        574        575        558        557        575        576        559        558        576        577        560        559        578        579        596        595        579        580        597        596        580        581        598        597        581        582        599        598        582        583        600        599        583        584        601        600        584        585        602        601        585        586        603        602        586        587        604        603        587        588        605        604        588        589        606        605        589        590        607        606        590        591        608        607        591        592        609        608        592        593        610        609        593        594        611        610        595        596        613        612        596        597        614        613        597        598        615        614        598        599        616        615        599        600        617        616        600        601        618        617        601        602        619        618        602        603        620        619        603        604        621        620        604        605        622        621        605        606        623        622        606        607        624        623        607        608        625        624        608        609        626        625        609        610        627        626        610        611        628        627        612        613        630        629        613        614        631        630        614        615        632        631        615        616        633        632        616        617        634        633        617        618        635        634        618        619        636        635        619        620        637        636        620        621        638        637        621        622        639        638        622        623        640        639        623        624        641        640        624        625        642        641        625        626        643        642        626        627        644        643        627        628        645        644        629        630        647        646        630        631        648        647        631        632        649        648        632        633        650        649        633        634        651        650        634        635        652        651        635        636        653        652        636        637        654        653        637        638        655        654        638        639        656        655        639        640        657        656        640        641        658        657        641        642        659        658        642        643        660        659        643        644        661        660        644        645        662        661        646        647        664        663        647        648        665        664        648        649        666        665        649        650        667        666        650        651        668        667        651        652        669        668        652        653        670        669        653        654        671        670        654        655        672        671        655        656        673        672        656        657        674        673        657        658        675        674        658        659        676        675        659        660        677        676        660        661        678        677        661        662        679        678        663        664        681        680        664        665        682        681        665        666        683        682        666        667        684        683        667        668        685        684        668        669        686        685        669        670        687        686        670        671        688        687        671        672        689        688        672        673        690        689        673        674        691        690        674        675        692        691        675        676        693        692        676        677        694        693        677        678        695        694        678        679        696        695        680        681        698        697        681        682        699        698        682        683        700        699        683        684        701        700        684        685        702        701        685        686        703        702        686        687        704        703        687        688        705        704        688        689        706        705        689        690        707        706        690        691        708        707        691        692        709        708        692        693        710        709        693        694        711        710        694        695        712        711        695        696        713        712        697        698        715        714        698        699        716        715        699        700        717        716        700        701        718        717        701        702        719        718        702        703        720        719        703        704        721        720        704        705        722        721        705        706        723        722        706        707        724        723        707        708        725        724        708        709        726        725        709        710        727        726        710        711        728        727        711        712        729        728        712        713        730        729        714        715        732        731        715        716        733        732        716        717        734        733        717        718        735        734        718        719        736        735        719        720        737        736        720        721        738        737        721        722        739        738        722        723        740        739        723        724        741        740        724        725        742        741        725        726        743        742        726        727        744        743        727        728        745        744        728        729        746        745        729        730        747        746        731        732        749        748        732        733        750        749        733        734        751        750        734        735        752        751        735        736        753        752        736        737        754        753        737        738        755        754        738        739        756        755        739        740        757        756        740        741        758        757        741        742        759        758        742        743        760        759        743        744        761        760        744        745        762        761        745        746        763        762        746        747        764        763        748        749        766        765        749        750        767        766        750        751        768        767        751        752        769        768        752        753        770        769        753        754        771        770        754        755        772        771        755        756        773        772        756        757        774        773        757        758        775        774        758        759        776        775        759        760        777        776        760        761        778        777        761        762        779        778        762        763        780        779        763        764        781        780        765        766        783        782        766        767        784        783        767        768        785        784        768        769        786        785        769        770        787        786        770        771        788        787        771        772        789        788        772        773        790        789        773        774        791        790        774        775        792        791        775        776        793        792        776        777        794        793        777        778        795        794        778        779        796        795        779        780        797        796        780        781        798        797        782        783        800        799        783        784        801        800        784        785        802        801        785        786        803        802        786        787        804        803        787        788        805        804        788        789        806        805        789        790        807        806        790        791        808        807        791        792        809        808        792        793        810        809        793        794        811        810        794        795        812        811        795        796        813        812        796        797        814        813        797        798        815        814        799        800        817        816        800        801        818        817        801        802        819        818        802        803        820        819        803        804        821        820        804        805        822        821        805        806        823        822        806        807        824        823        807        808        825        824        808        809        826        825        809        810        827        826        810        811        828        827        811        812        829        828        812        813        830        829        813        814        831        830        814        815        832        831        816        817        834        833        817        818        835        834        818        819        836        835        819        820        837        836        820        821        838        837        821        822        839        838        822        823        840        839        823        824        841        840        824        825        842        841        825        826        843        842        826        827        844        843        827        828        845        844        828        829        846        845        829        830        847        846        830        831        848        847        831        832        849        848        833        834        562        561        834        835        563        562        835        836        564        563        836        837        565        564        837        838        566        565        838        839        567        566        839        840        568        567        840        841        569        568        841        842        570        569        842        843        571        570        843        844        572        571        844        845        573        572        845        846        574        573        846        847        575        574        847        848        576        575        848        849        577        576        884        885        579        578        885        886        580        579        886        887        581        580        887        888        582        581        888        889        583        582        889        890        584        583        890        891        585        584        891        892        586        585        892        893        587        586        893        894        588        587        894        895        589        588        895        896        590        589        896        897        591        590        897        898        592        591        898        899        593        592        899        900        594        593        901        902        885        884        902        903        886        885        903        904        887        886        904        905        888        887        905        906        889        888        906        907        890        889        907        908        891        890        908        909        892        891        909        910        893        892        910        911        894        893        911        912        895        894        912        913        896        895        913        914        897        896        914        915        898        897        915        916        899        898        916        917        900        899        918        919        902        901        919        920        903        902        920        921        904        903        921        922        905        904        922        923        906        905        923        924        907        906        924        925        908        907        925        926        909        908        926        927        910        909        927        928        911        910        928        929        912        911        929        930        913        912        930        931        914        913        931        932        915        914        932        933        916        915        933        934        917        916        935        936        919        918        936        937        920        919        937        938        921        920        938        939        922        921        939        940        923        922        940        941        924        923        941        942        925        924        942        943        926        925        943        944        927        926        944        945        928        927        945        946        929        928        946        947        930        929        947        948        931        930        948        949        932        931        949        950        933        932        950        951        934        933        952        953        936        935        953        954        937        936        954        955        938        937        955        956        939        938        956        957        940        939        957        958        941        940        958        959        942        941        959        960        943        942        960        961        944        943        961        962        945        944        962        963        946        945        963        964        947        946        964        965        948        947        965        966        949        948        966        967        950        949        967        968        951        950        969        970        953        952        970        971        954        953        971        972        955        954        972        973        956        955        973        974        957        956        974        975        958        957        975        976        959        958        976        977        960        959        977        978        961        960        978        979        962        961        979        980        963        962        980        981        964        963        981        982        965        964        982        983        966        965        983        984        967        966        984        985        968        967        986        987        970        969        987        988        971        970        988        989        972        971        989        990        973        972        990        991        974        973        991        992        975        974        992        993        976        975        993        994        977        976        994        995        978        977        995        996        979        978        996        997        980        979        997        998        981        980        998        999        982        981        999       1000        983        982       1000       1001        984        983       1001       1002        985        984       1003       1004        987        986       1004       1005        988        987       1005       1006        989        988       1006       1007        990        989       1007       1008        991        990       1008       1009        992        991       1009       1010        993        992       1010       1011        994        993       1011       1012        995        994       1012       1013        996        995       1013       1014        997        996       1014       1015        998        997       1015       1016        999        998       1016       1017       1000        999       1017       1018       1001       1000       1018       1019       1002       1001       1020       1021       1004       1003       1021       1022       1005       1004       1022       1023       1006       1005       1023       1024       1007       1006       1024       1025       1008       1007       1025       1026       1009       1008       1026       1027       1010       1009       1027       1028       1011       1010       1028       1029       1012       1011       1029       1030       1013       1012       1030       1031       1014       1013       1031       1032       1015       1014       1032       1033       1016       1015       1033       1034       1017       1016       1034       1035       1018       1017       1035       1036       1019       1018       1037       1038       1021       1020       1038       1039       1022       1021       1039       1040       1023       1022       1040       1041       1024       1023       1041       1042       1025       1024       1042       1043       1026       1025       1043       1044       1027       1026       1044       1045       1028       1027       1045       1046       1029       1028       1046       1047       1030       1029       1047       1048       1031       1030       1048       1049       1032       1031       1049       1050       1033       1032       1050       1051       1034       1033       1051       1052       1035       1034       1052       1053       1036       1035       1054       1055       1038       1037       1055       1056       1039       1038       1056       1057       1040       1039       1057       1058       1041       1040       1058       1059       1042       1041       1059       1060       1043       1042       1060       1061       1044       1043       1061       1062       1045       1044       1062       1063       1046       1045       1063       1064       1047       1046       1064       1065       1048       1047       1065       1066       1049       1048       1066       1067       1050       1049       1067       1068       1051       1050       1068       1069       1052       1051       1069       1070       1053       1052       1071       1072       1055       1054       1072       1073       1056       1055       1073       1074       1057       1056       1074       1075       1058       1057       1075       1076       1059       1058       1076       1077       1060       1059       1077       1078       1061       1060       1078       1079       1062       1061       1079       1080       1063       1062       1080       1081       1064       1063       1081       1082       1065       1064       1082       1083       1066       1065       1083       1084       1067       1066       1084       1085       1068       1067       1085       1086       1069       1068       1086       1087       1070       1069       1088       1089       1072       1071       1089       1090       1073       1072       1090       1091       1074       1073       1091       1092       1075       1074       1092       1093       1076       1075       1093       1094       1077       1076       1094       1095       1078       1077       1095       1096       1079       1078       1096       1097       1080       1079       1097       1098       1081       1080       1098       1099       1082       1081       1099       1100       1083       1082       1100       1101       1084       1083       1101       1102       1085       1084       1102       1103       1086       1085       1103       1104       1087       1086       1105       1106       1089       1088       1106       1107       1090       1089       1107       1108       1091       1090       1108       1109       1092       1091       1109       1110       1093       1092       1110       1111       1094       1093       1111       1112       1095       1094       1112       1113       1096       1095       1113       1114       1097       1096       1114       1115       1098       1097       1115       1116       1099       1098       1116       1117       1100       1099       1117       1118       1101       1100       1118       1119       1102       1101       1119       1120       1103       1102       1120       1121       1104       1103       1122       1123       1106       1105       1123       1124       1107       1106       1124       1125       1108       1107       1125       1126       1109       1108       1126       1127       1110       1109       1127       1128       1111       1110       1128       1129       1112       1111       1129       1130       1113       1112       1130       1131       1114       1113       1131       1132       1115       1114       1132       1133       1116       1115       1133       1134       1117       1116       1134       1135       1118       1117       1135       1136       1119       1118       1136       1137       1120       1119       1137       1138       1121       1120        272        273       1123       1122        273        274       1124       1123        274        275       1125       1124        275        276       1126       1125        276        277       1127       1126        277        278       1128       1127        278        279       1129       1128        279        280       1130       1129        280        281       1131       1130        281        282       1132       1131        282        283       1133       1132        283        284       1134       1133        284        285       1135       1134        285        286       1136       1135        286        287       1137       1136        287        288       1138       1137 </DataArray>
<DataArray type="Int32"                                    Name="offsets"                                                      NumberOfComponents=" 1" format="ascii">
         4          8         12         16         20         24         28         32         36         40         44         48         52         56         60         64         68         72         76         80         84         88         92         96        100        104        108        112        116        120        124        128        132        136        140        144        148        152        156        160        164        168        172        176        180        184        188        192        196        200        204        208        212        216        220        224        228        232        236        240        244        248        252        256        260        264        268        272        276        280        284        288        292        296        300        304        308        312        316        320        324        328        332        336        340        344        348        352        356        360        364        368        372        376        380        384        388        392        396        400        404        408        412        416        420        424        428        432        436        440        444        448        452        456        460        464        468        472        476        480        484        488        492        496        500        504        508        512        516        520        524        528        532        536        540        544        548        552        556        560        564        568        572        576        580        584        588        592        596        600        604        608        612        616        620        624        628        632        636        640        644        648        652        656        660        664        668        672        676        680        684        688        692        696        700        704        708        712        716        720        724        728        732        736        740        744        748        752        756        760        764        768        772        776        780        784        788        792        796        800        804        808        812        816        820        824        828        832        836        840        844        848        852        856        860        864        868        872        876        880        884        888        892        896        900        904        908        912        916        920        924        928        932        936        940        944        948        952        956        960        964        968        972        976        980        984        988        992        996       1000       1004       1008       1012       1016       1020       1024       1028       1032       1036       1040       1044       1048       1052       1056       1060       1064       1068       1072       1076       1080       1084       1088       1092       1096       1100       1104       1108       1112       1116       1120       1124       1128       1132       1136       1140       1144       1148       1152       1156       1160       1164       1168       1172       1176       1180       1184       1188       1192       1196       1200       1204       1208       1212       1216       1220       1224       1228       1232       1236       1240       1244       1248       1252       1256       1260       1264       1268       1272       1276       1280       1284       1288       1292       1296       1300       1304       1308       1312       1316       1320       1324       1328       1332       1336       1340       1344       1348       1352       1356       1360       1364       1368       1372       1376       1380       1384       1388       1392       1396       1400       1404       1408       1412       1416       1420       1424       1428       1432       1436       1440       1444       1448       1452       1456       1460       1464       1468       1472       1476       1480       1484       1488       1492       1496       1500       1504       1508       1512       1516       1520       1524       1528       1532       1536       1540       1544       1548       1552       1556       1560       1564       1568       1572       1576       1580       1584       1588       1592       1596       1600       1604       1608       1612       1616       1620       1624       1628       1632       1636       1640       1644       1648       1652       1656       1660       1664       1668       1672       1676       1680       1684       1688       1692       1696       1700       1704       1708       1712       1716       1720       1724       1728       1732       1736       1740       1744       1748       1752       1756       1760       1764       1768       1772       1776       1780       1784       1788       1792       1796       1800       1804       1808       1812       1816       1820       1824       1828       1832       1836       1840       1844       1848       1852       1856       1860       1864       1868       1872       1876       1880       1884       1888       1892       1896       1900       1904       1908       1912       1916       1920       1924       1928       1932       1936       1940       1944       1948       1952       1956       1960       1964       1968       1972       1976       1980       1984       1988       1992       1996       2000       2004       2008       2012       2016       2020       2024       2028       2032       2036       2040       2044       2048       2052       2056       2060       2064       2068       2072       2076       2080       2084       2088       2092       2096       2100       2104       2108       2112       2116       2120       2124       2128       2132       2136       2140       2144       2148       2152       2156       2160       2164       2168       2172       2176       2180       2184       2188       2192       2196       2200       2204       2208       2212       2216       2220       2224       2228       2232       2236       2240       2244       2248       2252       2256       2260       2264       2268       2272       2276       2280       2284       2288       2292       2296       2300       2304       2308       2312       2316       2320       2324       2328       2332       2336       2340       2344       2348       2352       2356       2360       2364       2368       2372       2376       2380       2384       2388       2392       2396       2400       2404       2408       2412       2416       2420       2424       2428       2432       2436       2440       2444       2448       2452       2456       2460       2464       2468       2472       2476       2480       2484       2488       2492       2496       2500       2504       2508       2512       2516       2520       2524       2528       2532       2536       2540       2544       2548       2552       2556       2560       2564       2568       2572       2576       2580       2584       2588       2592       2596       2600       2604       2608       2612       2616       2620       2624       2628       2632       2636       2640       2644       2648       2652       2656       2660       2664       2668       2672       2676       2680       2684       2688       2692       2696       2700       2704       2708       2712       2716       2720       2724       2728       2732       2736       2740       2744       2748       2752       2756       2760       2764       2768       2772       2776       2780       2784       2788       2792       2796       2800       2804       2808       2812       2816       2820       2824       2828       2832       2836       2840       2844       2848       2852       2856       2860       2864       2868       2872       2876       2880       2884       2888       2892       2896       2900       2904       2908       2912       2916       2920       2924       2928       2932       2936       2940       2944       2948       2952       2956       2960       2964       2968       2972       2976       2980       2984       2988       2992       2996       3000       3004       3008       3012       3016       3020       3024       3028       3032       3036       3040       3044       3048       3052       3056       3060       3064       3068       3072       3076       3080       3084       3088       3092       3096       3100       3104       3108       3112       3116       3120       3124       3128       3132       3136       3140       3144       3148       3152       3156       3160       3164       3168       3172       3176       3180       3184       3188       3192       3196       3200       3204       3208       3212       3216       3220       3224       3228       3232       3236       3240       3244       3248       3252       3256       3260       3264       3268       3272       3276       3280       3284       3288       3292       3296       3300       3304       3308       3312       3316       3320       3324       3328       3332       3336       3340       3344       3348       3352       3356       3360       3364       3368       3372       3376       3380       3384       3388       3392       3396       3400       3404       3408       3412       3416       3420       3424       3428       3432       3436       3440       3444       3448       3452       3456       3460       3464       3468       3472       3476       3480       3484       3488       3492       3496       3500       3504       3508       3512       3516       3520       3524       3528       3532       3536       3540       3544       3548       3552       3556       3560       3564       3568       3572       3576       3580       3584       3588       3592       3596       3600       3604       3608       3612       3616       3620       3624       3628       3632       3636       3640       3644       3648       3652       3656       3660       3664       3668       3672       3676       3680       3684       3688       3692       3696       3700       3704       3708       3712       3716       3720       3724       3728       3732       3736       3740       3744       3748       3752       3756       3760       3764       3768       3772       3776       3780       3784       3788       3792       3796       3800       3804       3808       3812       3816       3820       3824       3828       3832       3836       3840       3844       3848       3852       3856       3860       3864       3868       3872       3876       3880       3884       3888       3892       3896       3900       3904       3908       3912       3916       3920       3924       3928       3932       3936       3940       3944       3948       3952       3956       3960       3964       3968       3972       3976       3980       3984       3988       3992       3996       4000       4004       4008       4012       4016       4020       4024       4028       4032       4036       4040       4044       4048       4052       4056       4060       4064       4068       4072       4076       4080       4084       4088       4092       4096 </DataArray>
<DataArray type="UInt8"                                    Name="types"                                                      NumberOfComponents=" 1" format="ascii">
         9          9          9          9          9          9          9          9          9          9          9          9          9          9          9          9          9          9          9          9          9          9          9          9          9          9          9          9          9          9          9          9          9          9          9          9          9          9          9          9          9          9          9          9          9          9          9          9          9          9          9          9          9          9          9          9          9          9          9          9          9          9          9          9          9          9          9          9          9          9          9          9          9          9          9          9          9          9          9          9          9          9          9          9          9          9          9          9          9          9          9          9          9          9          9          9          9          9          9          9          9          9          9          9          9          9          9          9          9          9          9          9          9          9          9          9          9          9          9          9          9          9          9          9          9          9          9          9          9          9          9          9          9          9          9          9          9          9          9          9          9          9          9          9          9          9          9          9          9          9          9          9          9          9          9          9          9          9          9          9          9          9          9          9          9          9          9          9          9          9          9          9          9          9          9          9          9          9          9          9          9          9          9          9          9          9          9          9          9          9          9          9          9          9          9          9          9          9          9          9          9          9          9          9          9          9          9          9          9          9          9          9          9          9          9          9          9          9          9          9          9          9          9          9          9          9          9          9          9          9          9          9          9          9          9          9          9          9          9          9          9          9          9          9          9          9          9          9          9          9          9          9          9          9          9          9          9          9          9          9          9          9          9          9          9          9          9          9          9          9          9          9          9          9          9          9          9          9          9          9          9          9          9          9          9          9          9          9          9          9          9          9          9          9          9          9          9          9          9          9          9          9          9          9          9          9          9          9          9          9          9          9          9          9          9          9          9          9          9          9          9          9          9          9          9          9          9          9          9          9          9          9          9          9          9          9          9          9          9          9          9          9          9          9          9          9          9          9          9          9          9          9          9          9          9          9          9          9          9          9          9          9          9          9          9          9          9          9          9          9          9          9          9          9          9          9          9          9          9          9          9          9          9          9          9          9          9          9          9          9          9          9          9          9          9          9          9          9          9          9          9          9          9          9          9          9          9          9          9          9          9          9          9          9          9          9          9          9          9          9          9          9          9          9          9          9          9          9          9          9          9          9          9          9          9          9          9          9          9          9          9          9          9          9          9          9          9          9          9          9          9          9          9          9          9          9          9          9          9          9          9          9          9          9          9          9          9          9          9          9          9          9          9          9          9          9          9          9          9          9          9          9          9          9          9          9          9          9          9          9          9          9          9          9          9          9          9          9          9          9          9          9          9          9          9          9          9          9          9          9          9          9          9          9          9          9          9          9          9          9          9          9          9          9          9          9          9          9          9          9          9          9          9          9          9          9          9          9          9          9          9          9          9          9          9          9          9          9          9          9          9          9          9          9          9          9          9          9          9          9          9          9          9          9          9          9          9          9          9          9          9          9          9          9          9          9          9          9          9          9          9          9          9          9          9          9          9          9          9          9          9          9          9          9          9          9          9          9          9          9          9          9          9          9          9          9          9          9          9          9          9          9          9          9          9          9          9          9          9          9          9          9          9          9          9          9          9          9          9          9          9          9          9          9          9          9          9          9          9          9          9          9          9          9          9          9          9          9          9          9          9          9          9          9          9          9          9          9          9          9          9          9          9          9          9          9          9          9          9          9          9          9          9          9          9          9          9          9          9          9          9          9          9          9          9          9          9          9          9          9          9          9          9          9          9          9          9          9          9          9          9          9          9          9          9          9          9          9          9          9          9          9          9          9          9          9          9          9          9          9          9          9          9          9          9          9          9          9          9          9          9          9          9          9          9          9          9          9          9          9          9          9          9          9          9          9          9          9          9          9          9          9          9          9          9          9          9          9          9          9          9          9          9          9          9          9          9          9          9          9          9          9          9          9          9          9          9          9          9          9          9          9          9          9          9          9          9          9          9          9          9          9          9          9          9          9          9          9          9          9          9          9          9          9          9          9          9          9          9          9          9          9          9          9          9          9          9          9          9          9          9          9          9          9          9          9          9          9          9          9          9          9          9          9          9          9          9          9          9          9          9          9          9          9          9          9          9          9          9          9          9          9          9          9          9          9          9          9          9          9          9          9          9          9          9          9          9          9          9          9          9          9          9          9          9          9          9          9          9          9          9          9          9          9          9          9          9          9          9          9          9          9          9          9          9          9          9          9          9          9          9          9          9          9          9          9          9          9          9          9          9          9          9          9          9          9          9          9          9          9          9          9          9          9          9          9          9          9          9          9          9          9          9          9          9          9          9          9          9          9          9          9          9          9          9          9          9          9          9          9          9          9          9          9          9          9          9          9          9          9          9          9          9          9          9          9          9          9          9          9          9          9          9          9          9          9          9          9          9          9          9          9          9          9          9          9          9          9          9          9          9          9          9          9          9          9          9          9          9          9          9          9          9          9          9          9          9          9          9          9          9          9          9          9          9          9          9          9          9          9          9          9          9          9 </DataArray>
</Cells>
<CellData>
<DataArray type="Int32"                                    Name="material"                                                      NumberOfComponents=" 1" format="ascii">
         1          1          1          1          1          1          1          1          1          1          1          1          1          1          1          1          1          1          1          1          1          1          1          1          1          1          1          1          1          1          1          1          1          1          1          1          1          1          1          1          1          1          1          1          1          1          1          1          1          1          1          1          1          1          1          1          1          1          1          1          1          1          1          1          1          1          1          1          1          1          1          1          1          1          1          1          1          1          1          1          1          1          1          1          1          1          1          1          1          1          1          1          1          1          1          1          1          1          1          1          1          1          1          1          1          1          1          1          1          1          1          1          1          1          1          1          1          1          1          1          1          1          1          1          1          1          1          1          1          1          1          1          1          1          1          1          1          1          1          1          1          1          1          1          1          1          1          1          1          1          1          1          1          1          1          1          1          1          1          1          1          1          1          1          1          1          1          1          1          1          1          1          1          1          1          1          1          1          1          1          1          1          1          1          1          1          1          1          1          1          1          1          1          1          1          1          1          1          1          1          1          1          1          1          1          1          1          1          1          1          1          1          1          1          1          1          1          1          1          1          1          1          1          1          1          1          1          1          1          1          1          1          1          1          1          1          1          1          1          1          1          1          1          1          1          1          1          1          1          1          1          1          1          1          1          1          1          1          1          1          1          1          1          1          1          1          1          1          1          1          1          1          1          1          1          1          1          1          1          1          1          1          1          1          1          1          1          1          1          1          1          1          1          1          1          1          1          1          1          1          1          1          1          1          1          1          1          1          1          1          1          1          1          1          1          1          1          1          1          1          1          1          1          1          1          1          1          1          1          1          1          1          1          1          1          1          1          1          1          1          1          1          1          1          1          1          1          1          1          1          1          1          1          1          1          1          1          1          1          1          1          1          1          1          1          1          1          1          1          1          1          1          1          1          1          1          1          1          1          1          1          1          1          1          1          1          1          1          1          1          1          1          1          1          1          1          1          1          1          1          1          1          1          1          1          1          1          1          1          1          1          1          1          1          1          1          1          1          1          1          1          1          1          1          1          1          1          1          1          1          1          1          1          1          1          1          1          1          1          1          1          1          1          1          1          1          1          1          1          1          1          1          1          1          1          1          1          1          1          1          1          1          1          1          1          1          1          1          1          1          1          1          1          1          1          1          1          1          1          1          1          1          1          1          1          1          1          1          1          1          1          1          1          1          1          1          1          1          1          1          1          1          1          1          1          1          1          1          1          1          1          1          1          1          1          1          1          1          1          1          1          1          1          1          1          1          1          1          1          1          1          1          1          1          1          1          1          1          1          1          1          1          1          1          1          1          1          1          1          1          1          1          1          1          1          1          1          1          1          1          1          1          1          1          1          1          1          1          1          1          1          1          1          1          1          1          1          1          1          1          1          1          1          1          1          1          1          1          1          1          1          1          1          1          1          1          1          1          1          1          1          1          1          1          1          1          1          1          1          1          1          1          1          1          1          1          1          1          1          1          1          1          1          1          1          1          1          1          1          1          1          1          1          1          1          1          1          1          1          1          1          1          1          1          1          1          1          1          1          1          1          1          1          1          1          1          1          1          1          1          1          1          1          1          1          1          1          1          1          1          1          1          1          1          1          1          1          1          1          1          1          1          1          1          1          1          1          1          1          1          1          1          1          1          1          1          1          1          1          1          1          1          1          1          1          1          1          1          1          1          1          1          1          1          1          1          1          1          1          1          1          1          1          1          1          1          1          1          1          1          1          1          1          1          1          1          1          1          1          1          1          1          1          1          1          1          1          1          1          1          1          1          1          1          1          1          1          1          1          1          1          1          1          1          1          1          1          1          1          1          1          1          1          1          1          1          1          1          1          1          1          1          1          1          1          1          1          1          1          1          1          1          1          1          1          1          1          1          1          1          1          1          1          1          1          1          1          1          1          1          1          1          1          1          1          1          1          1          1          1          1          1          1          1          1          1          1          1          1          1          1          1          1          1          1          1          1          1          1          1          1          1          1          1          1          1          1          1          1          1          1          1          1          1          1          1          1          1          1          1          1          1          1          1          1          1          1          1          1          1          1          1          1          1          1          1          1          1          1          1          1          1          1          1          1          1          1          1          1          1          1          1          1          1          1          1          1          1          1          1          1          1          1          1          1          1          1          1          1          1          1          1          1          1          1          1          1          1          1          1          1          1          1          1          1          1          1          1          1          1          1          1          1          1          1          1          1          1          1          1          1          1          1          1          1          1          1          1          1          1          1          1          1          1          1          1          1          1          1          1          1          1          1          1          1          1          1          1          1          1          1          1          1          1          1          1          1          1          1          1          1          1          1          1          1          1          1          1          1          1          1          1          1          1          1          1          1          1          1          1          1          1          1          1          1          1          1          1          1          1          1          1          1          1          1          1          1          1          1          1          1          1          1          1 </DataArray>
</CellData>
<PointData>
<DataArray type="Float64"                                    Name="u"                                                      NumberOfComponents=" 3" format="ascii">
              0.000008293               0.000000000               0.999999999               0.000003226               0.000000000               0.999999999               0.000000858               0.000000000               0.999999999              -0.000000319               0.000000000               0.999999999              -0.000000911              -0.000000000               0.999999999              -0.000001249              -0.000000000               0.999999999              -0.000001501              -0.000000000               0.999999999              -0.000001784              -0.000000000               0.999999999              -0.000002285              -0.000000000               0.999999999              -0.000003105              -0.000000000               0.999999999              -0.000004299               0.000000000               0.999999999              -0.000005925              -0.000000000               0.999999999              -0.000007971              -0.000000000               0.999999999              -0.000010402              -0.000000000               0.999999999              -0.000013252              -0.000000000               0.999999999              -0.000016646              -0.000000000               0.999999999              -0.000020652              -0.000000000               0.999999999               0.000008255               0.000012607               0.999999999               0.000003326               0.000011435               0.999999999               0.000001013               0.000011168               0.999999999              -0.000000134               0.000011398               0.999999999              -0.000000773               0.000011938               0.999999999              -0.000001201               0.000012698               0.999999999              -0.000001574               0.000013643               0.999999999              -0.000002046               0.000014865               0.999999999              -0.000002738               0.000016361               0.999999999              -0.000003770               0.000018170               0.999999999              -0.000005217               0.000020204               0.999999999              -0.000007053               0.000022288               0.999999999              -0.000009248               0.000024422               0.999999999              -0.000011877               0.000026814               0.999999999              -0.000015020               0.000029400               0.999999999              -0.000018645               0.000032150               0.999999999              -0.000022794               0.000035221               0.999999999               0.000008055               0.000025081               0.999999999               0.000003585               0.000022740               0.999999999               0.000001503               0.000022273               0.999999999               0.000000380               0.000022808               0.999999999              -0.000000385               0.000023959               0.999999999              -0.000001061               0.000025517               0.999999999              -0.000001819               0.000027544               0.999999999              -0.000002768               0.000029967               0.999999999              -0.000004014               0.000033048               0.999999999              -0.000005684               0.000036647               0.999999999              -0.000007714               0.000040587               0.999999999              -0.000010134               0.000044632               0.999999999              -0.000012962               0.000048827               0.999999999              -0.000016133               0.000053538               0.999999999              -0.000019748               0.000058509               0.999999999              -0.000023863               0.000063782               0.999999999              -0.000028448               0.000069481               0.999999999               0.000007715               0.000037302               0.999999999               0.000004006               0.000033782               0.999999999               0.000002256               0.000033235               0.999999999               0.000001121               0.000034184               0.999999999               0.000000148               0.000036087               0.999999999              -0.000000943               0.000038619               0.999999999              -0.000002261               0.000041760               0.999999999              -0.000003896               0.000045601               0.999999999              -0.000006012               0.000050249               0.999999999              -0.000008505               0.000055616               0.999999999              -0.000011375               0.000061342               0.999999999              -0.000014592               0.000067210               0.999999999              -0.000018138               0.000073417               0.999999999              -0.000022072               0.000080196               0.999999999              -0.000026406               0.000087270               0.999999999              -0.000031110               0.000094739               0.999999999              -0.000036212               0.000102630               0.999999999               0.000007257               0.000049136               0.999999999               0.000004536               0.000044474               0.999999999               0.000003117               0.000043965               0.999999999               0.000001937               0.000045523               0.999999999               0.000000633               0.000048313               0.999999999              -0.000000958               0.000051939               0.999999999              -0.000002916               0.000056409               0.999999999              -0.000005402               0.000061761               0.999999999              -0.000008385               0.000068163               0.999999999              -0.000011839               0.000075189               0.999999999              -0.000015592               0.000082653               0.999999999              -0.000019624               0.000090195               0.999999999              -0.000024010               0.000098313               0.999999999              -0.000028677               0.000107056               0.999999999              -0.000033697               0.000116241               0.999999999              -0.000039107               0.000125911               0.999999999              -0.000044979               0.000136024               0.999999999               0.000006674               0.000060451               0.999999999               0.000005152               0.000054746               0.999999999               0.000003998               0.000054419               0.999999999               0.000002635               0.000056717               0.999999999               0.000000924               0.000060496               0.999999999              -0.000001221               0.000065414               0.999999999              -0.000003910               0.000071355               0.999999999              -0.000007202               0.000078467               0.999999999              -0.000011082               0.000086608               0.999999999              -0.000015385               0.000095431               0.999999999              -0.000019948               0.000104480               0.999999999              -0.000024829               0.000113853               0.999999999              -0.000030062               0.000124020               0.999999999              -0.000035649               0.000134850               0.999999999              -0.000041624               0.000146216               0.999999999              -0.000048074               0.000158239               0.999999999              -0.000055028               0.000170856               0.999999999               0.000006005               0.000071137               0.999999999               0.000005788               0.000064533               0.999999999               0.000004773               0.000064543               0.999999999               0.000003104               0.000067651               0.999999999               0.000000911               0.000072556               0.999999999              -0.000001846               0.000078859               0.999999999              -0.000005228               0.000086458               0.999999999              -0.000009323               0.000095455               0.999999999              -0.000014006               0.000105484               0.999999999              -0.000019067               0.000116066               0.999999999              -0.000024398               0.000127063               0.999999999              -0.000030034               0.000138586               0.999999999              -0.000036097               0.000151102               0.999999999              -0.000042596               0.000164526               0.999999999              -0.000049583               0.000178540               0.999999999              -0.000057064               0.000193355               0.999999999              -0.000065028               0.000209044               0.999999999               0.000005287               0.000081070               0.999999999               0.000006363               0.000073824               0.999999999               0.000005353               0.000074280               0.999999999               0.000003279               0.000078248               0.999999999               0.000000560               0.000084355               0.999999999              -0.000002785               0.000092159               0.999999999              -0.000006901               0.000101581               0.999999999              -0.000011803               0.000112542               0.999999999              -0.000017209               0.000124497               0.999999999              -0.000022892               0.000137153               0.999999999              -0.000028789               0.000150461               0.999999999              -0.000035028               0.000164760               0.999999999              -0.000041759               0.000180420               0.999999999              -0.000049077               0.000197045               0.999999999              -0.000056984               0.000214466               0.999999999              -0.000065470               0.000232877               0.999999999              -0.000074488               0.000252141               0.999999999               0.000004498               0.000090069               0.999999999               0.000006853               0.000082629               0.999999999               0.000005645               0.000083539               0.999999999               0.000003165               0.000088433               0.999999999              -0.000000039               0.000095831               0.999999999              -0.000003987               0.000105269               0.999999999              -0.000008879               0.000116662               0.999999999              -0.000014515               0.000129638               0.999999999              -0.000020439               0.000143760               0.999999999              -0.000026523               0.000158885               0.999999999              -0.000032817               0.000175301               0.999999999              -0.000039500               0.000193228               0.999999999              -0.000046929               0.000212473               0.999999999              -0.000055028               0.000232923               0.999999999              -0.000063723               0.000254436               0.999999999              -0.000073077               0.000276933               0.999999999              -0.000082740               0.000300118               0.999999999               0.000003543               0.000098429               0.999999999               0.000006982               0.000091562               0.999999999               0.000006269               0.000091685               0.999999999               0.000004146               0.000095652               0.999999999               0.000001375               0.000102134               0.999999999              -0.000001986               0.000110529               0.999999999              -0.000006111               0.000120735               0.999999999              -0.000010988               0.000132442               0.999999999              -0.000016182               0.000145526               0.999999999              -0.000021427               0.000159768               0.999999999              -0.000026630               0.000175159               0.999999999              -0.000032109               0.000191703               0.999999999              -0.000038098               0.000209634               0.999999999              -0.000044512               0.000228808               0.999999999              -0.000051450               0.000249185               0.999999999              -0.000059025               0.000270429               0.999999999              -0.000067066               0.000292637               0.999999999               0.000002658               0.000105953               0.999999999               0.000006729               0.000099992               0.999999999               0.000006535               0.000099778               0.999999999               0.000004895               0.000103044               0.999999999               0.000002586               0.000108696               0.999999999              -0.000000158               0.000116226               0.999999999              -0.000003573               0.000125358               0.999999999              -0.000007556               0.000136025               0.999999999              -0.000011906               0.000148070               0.999999999              -0.000016475               0.000161338               0.999999999              -0.000020982               0.000175696               0.999999999              -0.000025420               0.000191219               0.999999999              -0.000030074               0.000207930               0.999999999              -0.000035161               0.000225840               0.999999999              -0.000040561               0.000244900               0.999999999              -0.000046319               0.000264934               0.999999999              -0.000052591               0.000285835               0.999999999               0.000001876               0.000112472               0.999999999               0.000006150               0.000107782               0.999999999               0.000006385               0.000107520               0.999999999               0.000005236               0.000110321               0.999999999               0.000003487               0.000115374               0.999999999               0.000001296               0.000122134               0.999999999              -0.000001353               0.000130424               0.999999999              -0.000004531               0.000140209               0.999999999              -0.000008057               0.000151233               0.999999999              -0.000011935               0.000163544               0.999999999              -0.000015769               0.000177059               0.999999999              -0.000019404               0.000191719               0.999999999              -0.000023057               0.000207435               0.999999999              -0.000026955               0.000224235               0.999999999              -0.000030903               0.000242049               0.999999999              -0.000035011               0.000260868               0.999999999              -0.000039571               0.000280525               0.999999999               0.000001226               0.000117857               0.999999999               0.000005251               0.000114594               0.999999999               0.000005802               0.000114614               0.999999999               0.000005106               0.000117182               0.999999999               0.000003858               0.000121793               0.999999999               0.000002287               0.000127985               0.999999999               0.000000260               0.000135636               0.999999999              -0.000002159               0.000144622               0.999999999              -0.000004968               0.000154850               0.999999999              -0.000007968               0.000166373               0.999999999              -0.000011085               0.000179175               0.999999999              -0.000014040               0.000193146               0.999999999              -0.000016905               0.000208127               0.999999999              -0.000019738               0.000223965               0.999999999              -0.000022497               0.000240656               0.999999999              -0.000025315               0.000258255               0.999999999              -0.000028311               0.000276780               0.999999999               0.000000757               0.000122151               0.999999999               0.000004144               0.000120228               0.999999999               0.000004785               0.000120665               0.999999999               0.000004443               0.000123221               0.999999999               0.000003666               0.000127542               0.999999999               0.000002598               0.000133340               0.999999999               0.000001152               0.000140566               0.999999999              -0.000000596               0.000148988               0.999999999              -0.000002565               0.000158659               0.999999999              -0.000004767               0.000169662               0.999999999              -0.000007133               0.000181871               0.999999999              -0.000009465               0.000195203               0.999999999              -0.000011642               0.000209485               0.999999999              -0.000013549               0.000224530               0.999999999              -0.000015369               0.000240438               0.999999999              -0.000017174               0.000257170               0.999999999              -0.000018877               0.000274809               0.999999999               0.000000419               0.000125248               0.999999999               0.000002854               0.000124442               0.999999999               0.000003412               0.000125315               0.999999999               0.000003281               0.000127981               0.999999999               0.000002866               0.000132127               0.999999999               0.000002214               0.000137741               0.999999999               0.000001312               0.000144678               0.999999999               0.000000224               0.000152819               0.999999999              -0.000001012               0.000162165               0.999999999              -0.000002529               0.000172726               0.999999999              -0.000004110               0.000184527               0.999999999              -0.000005696               0.000197393               0.999999999              -0.000007137               0.000211096               0.999999999              -0.000008288               0.000225590               0.999999999              -0.000009368               0.000240991               0.999999999              -0.000010452               0.000257292               0.999999999              -0.000011293               0.000274471               0.999999999               0.000000175               0.000127093               0.999999999               0.000001450               0.000127057               0.999999999               0.000001783               0.000128253               0.999999999               0.000001737               0.000131015               0.999999999               0.000001563               0.000135138               0.999999999               0.000001269               0.000140644               0.999999999               0.000000847               0.000147434               0.999999999               0.000000374               0.000155452               0.999999999              -0.000000339               0.000164643               0.999999999              -0.000001057               0.000174991               0.999999999              -0.000001830               0.000186499               0.999999999              -0.000002590               0.000199025               0.999999999              -0.000003290               0.000212439               0.999999999              -0.000003913               0.000226754               0.999999999              -0.000004451               0.000241943               0.999999999              -0.000004887               0.000257943               0.999999999              -0.000005139               0.000274819               0.999999999              -0.000000000               0.000127707               0.999999999              -0.000000000               0.000127947               0.999999999              -0.000000000               0.000129253               0.999999999              -0.000000000               0.000132060               0.999999999              -0.000000000               0.000136200               0.999999999              -0.000000000               0.000141653               0.999999999               0.000000000               0.000148413               0.999999999               0.000000000               0.000156382               0.999999999               0.000000000               0.000165539               0.999999999               0.000000000               0.000175894               0.999999999               0.000000000               0.000187254               0.999999999               0.000000000               0.000199599               0.999999999               0.000000000               0.000213005               0.999999999               0.000000000               0.000227286               0.999999999              -0.000000000               0.000242341               0.999999999              -0.000000000               0.000258293               0.999999999              -0.000000000               0.000275129               0.999999999               0.000008293               0.000000000               0.999999999               0.000003226               0.000000000               0.999999999               0.000000858               0.000000000               0.999999999              -0.000000319               0.000000000               0.999999999              -0.000000911              -0.000000000               0.999999999              -0.000001249              -0.000000000               0.999999999              -0.000001501              -0.000000000               0.999999999              -0.000001784              -0.000000000               0.999999999              -0.000002285              -0.000000000               0.999999999              -0.000003105              -0.000000000               0.999999999              -0.000004299               0.000000000               0.999999999              -0.000005925              -0.000000000               0.999999999              -0.000007971              -0.000000000               0.999999999              -0.000010402              -0.000000000               0.999999999              -0.000013252              -0.000000000               0.999999999              -0.000016646              -0.000000000               0.999999999              -0.000020652              -0.000000000               0.999999999               0.000008255              -0.000012607               0.999999999               0.000003326              -0.000011435               0.999999999               0.000001013              -0.000011168               0.999999999              -0.000000134              -0.000011398               0.999999999              -0.000000773              -0.000011938               0.999999999              -0.000001201              -0.000012698               0.999999999              -0.000001574              -0.000013643               0.999999999              -0.000002046              -0.000014865               0.999999999              -0.000002738              -0.000016361               0.999999999              -0.000003770              -0.000018170               0.999999999              -0.000005217              -0.000020204               0.999999999              -0.000007053              -0.000022288               0.999999999              -0.000009248              -0.000024422               0.999999999              -0.000011877              -0.000026814               0.999999999              -0.000015020              -0.000029400               0.999999999              -0.000018645              -0.000032150               0.999999999              -0.000022794              -0.000035221               0.999999999               0.000008055              -0.000025081               0.999999999               0.000003585              -0.000022740               0.999999999               0.000001503              -0.000022273               0.999999999               0.000000380              -0.000022808               0.999999999              -0.000000385              -0.000023959               0.999999999              -0.000001061              -0.000025517               0.999999999              -0.000001819              -0.000027544               0.999999999              -0.000002768              -0.000029967               0.999999999              -0.000004014              -0.000033048               0.999999999              -0.000005684              -0.000036647               0.999999999              -0.000007714              -0.000040587               0.999999999              -0.000010134              -0.000044632               0.999999999              -0.000012962              -0.000048827               0.999999999              -0.000016133              -0.000053538               0.999999999              -0.000019748              -0.000058509               0.999999999              -0.000023863              -0.000063782               0.999999999              -0.000028448              -0.000069481               0.999999999               0.000007715              -0.000037302               0.999999999               0.000004006              -0.000033782               0.999999999               0.000002256              -0.000033235               0.999999999               0.000001121              -0.000034184               0.999999999               0.000000148              -0.000036087               0.999999999              -0.000000943              -0.000038619               0.999999999              -0.000002261              -0.000041760               0.999999999              -0.000003896              -0.000045601               0.999999999              -0.000006012              -0.000050249               0.999999999              -0.000008505              -0.000055616               0.999999999              -0.000011375              -0.000061342               0.999999999              -0.000014592              -0.000067210               0.999999999              -0.000018138              -0.000073417               0.999999999              -0.000022072              -0.000080196               0.999999999              -0.000026406              -0.000087270               0.999999999              -0.000031110              -0.000094739               0.999999999              -0.000036212              -0.000102630               0.999999999               0.000007257              -0.000049136               0.999999999               0.000004536              -0.000044474               0.999999999               0.000003117              -0.000043965               0.999999999               0.000001937              -0.000045523               0.999999999               0.000000633              -0.000048313               0.999999999              -0.000000958              -0.000051939               0.999999999              -0.000002916              -0.000056409               0.999999999              -0.000005402              -0.000061761               0.999999999              -0.000008385              -0.000068163               0.999999999              -0.000011839              -0.000075189               0.999999999              -0.000015592              -0.000082653               0.999999999              -0.000019624              -0.000090195               0.999999999              -0.000024010              -0.000098313               0.999999999              -0.000028677              -0.000107056               0.999999999              -0.000033697              -0.000116241               0.999999999              -0.000039107              -0.000125911               0.999999999              -0.000044979              -0.000136024               0.999999999               0.000006674              -0.000060451               0.999999999               0.000005152              -0.000054746               0.999999999               0.000003998              -0.000054419               0.999999999               0.000002635              -0.000056717               0.999999999               0.000000924              -0.000060496               0.999999999              -0.000001221              -0.000065414               0.999999999              -0.000003910              -0.000071355               0.999999999              -0.000007202              -0.000078467               0.999999999              -0.000011082              -0.000086608               0.999999999              -0.000015385              -0.000095431               0.999999999              -0.000019948              -0.000104480               0.999999999              -0.000024829              -0.000113853               0.999999999              -0.000030062              -0.000124020               0.999999999              -0.000035649              -0.000134850               0.999999999              -0.000041624              -0.000146216               0.999999999              -0.000048074              -0.000158239               0.999999999              -0.000055028              -0.000170856               0.999999999               0.000006005              -0.000071137               0.999999999               0.000005788              -0.000064533               0.999999999               0.000004773              -0.000064543               0.999999999               0.000003104              -0.000067651               0.999999999               0.000000911              -0.000072556               0.999999999              -0.000001846              -0.000078859               0.999999999              -0.000005228              -0.000086458               0.999999999              -0.000009323              -0.000095455               0.999999999              -0.000014006              -0.000105484               0.999999999              -0.000019067              -0.000116066               0.999999999              -0.000024398              -0.000127063               0.999999999              -0.000030034              -0.000138586               0.999999999              -0.000036097              -0.000151102               0.999999999              -0.000042596              -0.000164526               0.999999999              -0.000049583              -0.000178540               0.999999999              -0.000057064              -0.000193355               0.999999999              -0.000065028              -0.000209044               0.999999999               0.000005287              -0.000081070               0.999999999               0.000006363              -0.000073824               0.999999999               0.000005353              -0.000074280               0.999999999               0.000003279              -0.000078248               0.999999999               0.000000560              -0.000084355               0.999999999              -0.000002785              -0.000092159               0.999999999              -0.000006901              -0.000101581               0.999999999              -0.000011803              -0.000112542               0.999999999              -0.000017209              -0.000124497               0.999999999              -0.000022892              -0.000137153               0.999999999              -0.000028789              -0.000150461               0.999999999              -0.000035028              -0.000164760               0.999999999              -0.000041759              -0.000180420               0.999999999              -0.000049077              -0.000197045               0.999999999              -0.000056984              -0.000214466               0.999999999              -0.000065470              -0.000232877               0.999999999              -0.000074488              -0.000252141               0.999999999               0.000004498              -0.000090069               0.999999999               0.000006853              -0.000082629               0.999999999               0.000005645              -0.000083539               0.999999999               0.000003165              -0.000088433               0.999999999              -0.000000039              -0.000095831               0.999999999              -0.000003987              -0.000105269               0.999999999              -0.000008879              -0.000116662               0.999999999              -0.000014515              -0.000129638               0.999999999              -0.000020439              -0.000143760               0.999999999              -0.000026523              -0.000158885               0.999999999              -0.000032817              -0.000175301               0.999999999              -0.000039500              -0.000193228               0.999999999              -0.000046929              -0.000212473               0.999999999              -0.000055028              -0.000232923               0.999999999              -0.000063723              -0.000254436               0.999999999              -0.000073077              -0.000276933               0.999999999              -0.000082740              -0.000300118               0.999999999               0.000003543              -0.000098429               0.999999999               0.000006982              -0.000091562               0.999999999               0.000006269              -0.000091685               0.999999999               0.000004146              -0.000095652               0.999999999               0.000001375              -0.000102134               0.999999999              -0.000001986              -0.000110529               0.999999999              -0.000006111              -0.000120735               0.999999999              -0.000010988              -0.000132442               0.999999999              -0.000016182              -0.000145526               0.999999999              -0.000021427              -0.000159768               0.999999999              -0.000026630              -0.000175159               0.999999999              -0.000032109              -0.000191703               0.999999999              -0.000038098              -0.000209634               0.999999999              -0.000044512              -0.000228808               0.999999999              -0.000051450              -0.000249185               0.999999999              -0.000059025              -0.000270429               0.999999999              -0.000067066              -0.000292637               0.999999999               0.000002658              -0.000105953               0.999999999               0.000006729              -0.000099992               0.999999999               0.000006535              -0.000099778               0.999999999               0.000004895              -0.000103044               0.999999999               0.000002586              -0.000108696               0.999999999              -0.000000158              -0.000116226               0.999999999              -0.000003573              -0.000125358               0.999999999              -0.000007556              -0.000136025               0.999999999              -0.000011906              -0.000148070               0.999999999              -0.000016475              -0.000161338               0.999999999              -0.000020982              -0.000175696               0.999999999              -0.000025420              -0.000191219               0.999999999              -0.000030074              -0.000207930               0.999999999              -0.000035161              -0.000225840               0.999999999              -0.000040561              -0.000244900               0.999999999              -0.000046319              -0.000264934               0.999999999              -0.000052591              -0.000285835               0.999999999               0.000001876              -0.000112472               0.999999999               0.000006150              -0.000107782               0.999999999               0.000006385              -0.000107520               0.999999999               0.000005236              -0.000110321               0.999999999               0.000003487              -0.000115374               0.999999999               0.000001296              -0.000122134               0.999999999              -0.000001353              -0.000130424               0.999999999              -0.000004531              -0.000140209               0.999999999              -0.000008057              -0.000151233               0.999999999              -0.000011935              -0.000163544               0.999999999              -0.000015769              -0.000177059               0.999999999              -0.000019404              -0.000191719               0.999999999              -0.000023057              -0.000207435               0.999999999              -0.000026955              -0.000224235               0.999999999              -0.000030903              -0.000242049               0.999999999              -0.000035011              -0.000260868               0.999999999              -0.000039571              -0.000280525               0.999999999               0.000001226              -0.000117857               0.999999999               0.000005251              -0.000114594               0.999999999               0.000005802              -0.000114614               0.999999999               0.000005106              -0.000117182               0.999999999               0.000003858              -0.000121793               0.999999999               0.000002287              -0.000127985               0.999999999               0.000000260              -0.000135636               0.999999999              -0.000002159              -0.000144622               0.999999999              -0.000004968              -0.000154850               0.999999999              -0.000007968              -0.000166373               0.999999999              -0.000011085              -0.000179175               0.999999999              -0.000014040              -0.000193146               0.999999999              -0.000016905              -0.000208127               0.999999999              -0.000019738              -0.000223965               0.999999999              -0.000022497              -0.000240656               0.999999999              -0.000025315              -0.000258255               0.999999999              -0.000028311              -0.000276780               0.999999999               0.000000757              -0.000122151               0.999999999               0.000004144              -0.000120228               0.999999999               0.000004785              -0.000120665               0.999999999               0.000004443              -0.000123221               0.999999999               0.000003666              -0.000127542               0.999999999               0.000002598              -0.000133340               0.999999999               0.000001152              -0.000140566               0.999999999              -0.000000596              -0.000148988               0.999999999              -0.000002565              -0.000158659               0.999999999              -0.000004767              -0.000169662               0.999999999              -0.000007133              -0.000181871               0.999999999              -0.000009465              -0.000195203               0.999999999              -0.000011642              -0.000209485               0.999999999              -0.000013549              -0.000224530               0.999999999              -0.000015369              -0.000240438               0.999999999              -0.000017174              -0.000257170               0.999999999              -0.000018877              -0.000274809               0.999999999               0.000000419              -0.000125248               0.999999999               0.000002854              -0.000124442               0.999999999               0.000003412              -0.000125315               0.999999999               0.000003281              -0.000127981               0.999999999               0.000002866              -0.000132127               0.999999999               0.000002214              -0.000137741               0.999999999               0.000001312              -0.000144678               0.999999999               0.000000224              -0.000152819               0.999999999              -0.000001012              -0.000162165               0.999999999              -0.000002529              -0.000172726               0.999999999              -0.000004110              -0.000184527               0.999999999              -0.000005696              -0.000197393               0.999999999              -0.000007137              -0.000211096               0.999999999              -0.000008288              -0.000225590               0.999999999              -0.000009368              -0.000240991               0.999999999              -0.000010452              -0.000257292               0.999999999              -0.000011293              -0.000274471               0.999999999               0.000000175              -0.000127093               0.999999999               0.000001450              -0.000127057               0.999999999               0.000001783              -0.000128253               0.999999999               0.000001737              -0.000131015               0.999999999               0.000001563              -0.000135138               0.999999999               0.000001269              -0.000140644               0.999999999               0.000000847              -0.000147434               0.999999999               0.000000374              -0.000155452               0.999999999              -0.000000339              -0.000164643               0.999999999              -0.000001057              -0.000174991               0.999999999              -0.000001830              -0.000186499               0.999999999              -0.000002590              -0.000199025               0.999999999              -0.000003290              -0.000212439               0.999999999              -0.000003913              -0.000226754               0.999999999              -0.000004451              -0.000241943               0.999999999              -0.000004887              -0.000257943               0.999999999              -0.000005139              -0.000274819               0.999999999               0.000000000              -0.000127707               0.999999999              -0.000000000              -0.000127947               0.999999999               0.000000000              -0.000129253               0.999999999               0.000000000              -0.000132060               0.999999999              -0.000000000              -0.000136200               0.999999999              -0.000000000              -0.000141653               0.999999999               0.000000000              -0.000148413               0.999999999               0.000000000              -0.000156382               0.999999999              -0.000000000              -0.000165539               0.999999999              -0.000000000              -0.000175894               0.999999999              -0.000000000              -0.000187254               0.999999999              -0.000000000              -0.000199599               0.999999999              -0.000000000              -0.000213005               0.999999999               0.000000000              -0.000227286               0.999999999              -0.000000000              -0.000242341               0.999999999              -0.000000000              -0.000258293               0.999999999               0.000000000              -0.000275129               0.999999999              -0.000008293              -0.000000000               0.999999999              -0.000003226               0.000000000               0.999999999              -0.000000858               0.000000000               0.999999999               0.000000319               0.000000000               0.999999999               0.000000911              -0.000000000               0.999999999               0.000001249              -0.000000000               0.999999999               0.000001501              -0.000000000               0.999999999               0.000001784              -0.000000000               0.999999999               0.000002285              -0.000000000               0.999999999               0.000003105              -0.000000000               0.999999999               0.000004299              -0.000000000               0.999999999               0.000005925              -0.000000000               0.999999999               0.000007971              -0.000000000               0.999999999               0.000010402              -0.000000000               0.999999999               0.000013252              -0.000000000               0.999999999               0.000016646               0.000000000               0.999999999               0.000020652               0.000000000               0.999999999              -0.000008255              -0.000012607               0.999999999              -0.000003326              -0.000011435               0.999999999              -0.000001013              -0.000011168               0.999999999               0.000000134              -0.000011398               0.999999999               0.000000773              -0.000011938               0.999999999               0.000001201              -0.000012698               0.999999999               0.000001574              -0.000013643               0.999999999               0.000002046              -0.000014865               0.999999999               0.000002738              -0.000016361               0.999999999               0.000003770              -0.000018170               0.999999999               0.000005217              -0.000020204               0.999999999               0.000007053              -0.000022288               0.999999999               0.000009248              -0.000024422               0.999999999               0.000011877              -0.000026814               0.999999999               0.000015020              -0.000029400               0.999999999               0.000018645              -0.000032150               0.999999999               0.000022794              -0.000035221               0.999999999              -0.000008055              -0.000025081               0.999999999              -0.000003585              -0.000022740               0.999999999              -0.000001503              -0.000022273               0.999999999              -0.000000380              -0.000022808               0.999999999               0.000000385              -0.000023959               0.999999999               0.000001061              -0.000025517               0.999999999               0.000001819              -0.000027544               0.999999999               0.000002768              -0.000029967               0.999999999               0.000004014              -0.000033048               0.999999999               0.000005684              -0.000036647               0.999999999               0.000007714              -0.000040587               0.999999999               0.000010134              -0.000044632               0.999999999               0.000012962              -0.000048827               0.999999999               0.000016133              -0.000053538               0.999999999               0.000019748              -0.000058509               0.999999999               0.000023863              -0.000063782               0.999999999               0.000028448              -0.000069481               0.999999999              -0.000007715              -0.000037302               0.999999999              -0.000004006              -0.000033782               0.999999999              -0.000002256              -0.000033235               0.999999999              -0.000001121              -0.000034184               0.999999999              -0.000000148              -0.000036087               0.999999999               0.000000943              -0.000038619               0.999999999               0.000002261              -0.000041760               0.999999999               0.000003896              -0.000045601               0.999999999               0.000006012              -0.000050249               0.999999999               0.000008505              -0.000055616               0.999999999               0.000011375              -0.000061342               0.999999999               0.000014592              -0.000067210               0.999999999               0.000018138              -0.000073417               0.999999999               0.000022072              -0.000080196               0.999999999               0.000026406              -0.000087270               0.999999999               0.000031110              -0.000094739               0.999999999               0.000036212              -0.000102630               0.999999999              -0.000007257              -0.000049136               0.999999999              -0.000004536              -0.000044474               0.999999999              -0.000003117              -0.000043965               0.999999999              -0.000001937              -0.000045523               0.999999999              -0.000000633              -0.000048313               0.999999999               0.000000958              -0.000051939               0.999999999               0.000002916              -0.000056409               0.999999999               0.000005402              -0.000061761               0.999999999               0.000008385              -0.000068163               0.999999999               0.000011839              -0.000075189               0.999999999               0.000015592              -0.000082653               0.999999999               0.000019624              -0.000090195               0.999999999               0.000024010              -0.000098313               0.999999999               0.000028677              -0.000107056               0.999999999               0.000033697              -0.000116241               0.999999999               0.000039107              -0.000125911               0.999999999               0.000044979              -0.000136024               0.999999999              -0.000006674              -0.000060451               0.999999999              -0.000005152              -0.000054746               0.999999999              -0.000003998              -0.000054419               0.999999999              -0.000002635              -0.000056717               0.999999999              -0.000000924              -0.000060496               0.999999999               0.000001221              -0.000065414               0.999999999               0.000003910              -0.000071355               0.999999999               0.000007202              -0.000078467               0.999999999               0.000011082              -0.000086608               0.999999999               0.000015385              -0.000095431               0.999999999               0.000019948              -0.000104480               0.999999999               0.000024829              -0.000113853               0.999999999               0.000030062              -0.000124020               0.999999999               0.000035649              -0.000134850               0.999999999               0.000041624              -0.000146216               0.999999999               0.000048074              -0.000158239               0.999999999               0.000055028              -0.000170856               0.999999999              -0.000006005              -0.000071137               0.999999999              -0.000005788              -0.000064533               0.999999999              -0.000004773              -0.000064543               0.999999999              -0.000003104              -0.000067651               0.999999999              -0.000000911              -0.000072556               0.999999999               0.000001846              -0.000078859               0.999999999               0.000005228              -0.000086458               0.999999999               0.000009323              -0.000095455               0.999999999               0.000014006              -0.000105484               0.999999999               0.000019067              -0.000116066               0.999999999               0.000024398              -0.000127063               0.999999999               0.000030034              -0.000138586               0.999999999               0.000036097              -0.000151102               0.999999999               0.000042596              -0.000164526               0.999999999               0.000049583              -0.000178540               0.999999999               0.000057064              -0.000193355               0.999999999               0.000065028              -0.000209044               0.999999999              -0.000005287              -0.000081070               0.999999999              -0.000006363              -0.000073824               0.999999999              -0.000005353              -0.000074280               0.999999999              -0.000003279              -0.000078248               0.999999999              -0.000000560              -0.000084355               0.999999999               0.000002785              -0.000092159               0.999999999               0.000006901              -0.000101581               0.999999999               0.000011803              -0.000112542               0.999999999               0.000017209              -0.000124497               0.999999999               0.000022892              -0.000137153               0.999999999               0.000028789              -0.000150461               0.999999999               0.000035028              -0.000164760               0.999999999               0.000041759              -0.000180420               0.999999999               0.000049077              -0.000197045               0.999999999               0.000056984              -0.000214466               0.999999999               0.000065470              -0.000232877               0.999999999               0.000074488              -0.000252141               0.999999999              -0.000004498              -0.000090069               0.999999999              -0.000006853              -0.000082629               0.999999999              -0.000005645              -0.000083539               0.999999999              -0.000003165              -0.000088433               0.999999999               0.000000039              -0.000095831               0.999999999               0.000003987              -0.000105269               0.999999999               0.000008879              -0.000116662               0.999999999               0.000014515              -0.000129638               0.999999999               0.000020439              -0.000143760               0.999999999               0.000026523              -0.000158885               0.999999999               0.000032817              -0.000175301               0.999999999               0.000039500              -0.000193228               0.999999999               0.000046929              -0.000212473               0.999999999               0.000055028              -0.000232923               0.999999999               0.000063723              -0.000254436               0.999999999               0.000073077              -0.000276933               0.999999999               0.000082740              -0.000300118               0.999999999              -0.000003543              -0.000098429               0.999999999              -0.000006982              -0.000091562               0.999999999              -0.000006269              -0.000091685               0.999999999              -0.000004146              -0.000095652               0.999999999              -0.000001375              -0.000102134               0.999999999               0.000001986              -0.000110529               0.999999999               0.000006111              -0.000120735               0.999999999               0.000010988              -0.000132442               0.999999999               0.000016182              -0.000145526               0.999999999               0.000021427              -0.000159768               0.999999999               0.000026630              -0.000175159               0.999999999               0.000032109              -0.000191703               0.999999999               0.000038098              -0.000209634               0.999999999               0.000044512              -0.000228808               0.999999999               0.000051450              -0.000249185               0.999999999               0.000059025              -0.000270429               0.999999999               0.000067066              -0.000292637               0.999999999              -0.000002658              -0.000105953               0.999999999              -0.000006729              -0.000099992               0.999999999              -0.000006535              -0.000099778               0.999999999              -0.000004895              -0.000103044               0.999999999              -0.000002586              -0.000108696               0.999999999               0.000000158              -0.000116226               0.999999999               0.000003573              -0.000125358               0.999999999               0.000007556              -0.000136025               0.999999999               0.000011906              -0.000148070               0.999999999               0.000016475              -0.000161338               0.999999999               0.000020982              -0.000175696               0.999999999               0.000025420              -0.000191219               0.999999999               0.000030074              -0.000207930               0.999999999               0.000035161              -0.000225840               0.999999999               0.000040561              -0.000244900               0.999999999               0.000046319              -0.000264934               0.999999999               0.000052591              -0.000285835               0.999999999              -0.000001876              -0.000112472               0.999999999              -0.000006150              -0.000107782               0.999999999              -0.000006385              -0.000107520               0.999999999              -0.000005236              -0.000110321               0.999999999              -0.000003487              -0.000115374               0.999999999              -0.000001296              -0.000122134               0.999999999               0.000001353              -0.000130424               0.999999999               0.000004531              -0.000140209               0.999999999               0.000008057              -0.000151233               0.999999999               0.000011935              -0.000163544               0.999999999               0.000015769              -0.000177059               0.999999999               0.000019404              -0.000191719               0.999999999               0.000023057              -0.000207435               0.999999999               0.000026955              -0.000224235               0.999999999               0.000030903              -0.000242049               0.999999999               0.000035011              -0.000260868               0.999999999               0.000039571              -0.000280525               0.999999999              -0.000001226              -0.000117857               0.999999999              -0.000005251              -0.000114594               0.999999999              -0.000005802              -0.000114614               0.999999999              -0.000005106              -0.000117182               0.999999999              -0.000003858              -0.000121793               0.999999999              -0.000002287              -0.000127985               0.999999999              -0.000000260              -0.000135636               0.999999999               0.000002159              -0.000144622               0.999999999               0.000004968              -0.000154850               0.999999999               0.000007968              -0.000166373               0.999999999               0.000011085              -0.000179175               0.999999999               0.000014040              -0.000193146               0.999999999               0.000016905              -0.000208127               0.999999999               0.000019738              -0.000223965               0.999999999               0.000022497              -0.000240656               0.999999999               0.000025315              -0.000258255               0.999999999               0.000028311              -0.000276780               0.999999999              -0.000000757              -0.000122151               0.999999999              -0.000004144              -0.000120228               0.999999999              -0.000004785              -0.000120665               0.999999999              -0.000004443              -0.000123221               0.999999999              -0.000003666              -0.000127542               0.999999999              -0.000002598              -0.000133340               0.999999999              -0.000001152              -0.000140566               0.999999999               0.000000596              -0.000148988               0.999999999               0.000002565              -0.000158659               0.999999999               0.000004767              -0.000169662               0.999999999               0.000007133              -0.000181871               0.999999999               0.000009465              -0.000195203               0.999999999               0.000011642              -0.000209485               0.999999999               0.000013549              -0.000224530               0.999999999               0.000015369              -0.000240438               0.999999999               0.000017174              -0.000257170               0.999999999               0.000018877              -0.000274809               0.999999999              -0.000000419              -0.000125248               0.999999999              -0.000002854              -0.000124442               0.999999999              -0.000003412              -0.000125315               0.999999999              -0.000003281              -0.000127981               0.999999999              -0.000002866              -0.000132127               0.999999999              -0.000002214              -0.000137741               0.999999999              -0.000001312              -0.000144678               0.999999999              -0.000000224              -0.000152819               0.999999999               0.000001012              -0.000162165               0.999999999               0.000002529              -0.000172726               0.999999999               0.000004110              -0.000184527               0.999999999               0.000005696              -0.000197393               0.999999999               0.000007137              -0.000211096               0.999999999               0.000008288              -0.000225590               0.999999999               0.000009368              -0.000240991               0.999999999               0.000010452              -0.000257292               0.999999999               0.000011293              -0.000274471               0.999999999              -0.000000175              -0.000127093               0.999999999              -0.000001450              -0.000127057               0.999999999              -0.000001783              -0.000128253               0.999999999              -0.000001737              -0.000131015               0.999999999              -0.000001563              -0.000135138               0.999999999              -0.000001269              -0.000140644               0.999999999              -0.000000847              -0.000147434               0.999999999              -0.000000374              -0.000155452               0.999999999               0.000000339              -0.000164643               0.999999999               0.000001057              -0.000174991               0.999999999               0.000001830              -0.000186499               0.999999999               0.000002590              -0.000199025               0.999999999               0.000003290              -0.000212439               0.999999999               0.000003913              -0.000226754               0.999999999               0.000004451              -0.000241943               0.999999999               0.000004887              -0.000257943               0.999999999               0.000005139              -0.000274819               0.999999999               0.000000000              -0.000127707               0.999999999              -0.000000000              -0.000127947               0.999999999               0.000000000              -0.000129253               0.999999999               0.000000000              -0.000132060               0.999999999              -0.000000000              -0.000136200               0.999999999              -0.000000000              -0.000141653               0.999999999               0.000000000              -0.000148413               0.999999999               0.000000000              -0.000156382               0.999999999              -0.000000000              -0.000165539               0.999999999              -0.000000000              -0.000175894               0.999999999              -0.000000000              -0.000187254               0.999999999              -0.000000000              -0.000199599               0.999999999              -0.000000000              -0.000213005               0.999999999               0.000000000              -0.000227286               0.999999999              -0.000000000              -0.000242341               0.999999999              -0.000000000              -0.000258293               0.999999999               0.000000000              -0.000275129               0.999999999              -0.000008293              -0.000000000               0.999999999              -0.000003226               0.000000000               0.999999999              -0.000000858               0.000000000               0.999999999               0.000000319               0.000000000               0.999999999               0.000000911              -0.000000000               0.999999999               0.000001249              -0.000000000               0.999999999               0.000001501              -0.000000000               0.999999999               0.000001784              -0.000000000               0.999999999               0.000002285              -0.000000000               0.999999999               0.000003105              -0.000000000               0.999999999               0.000004299              -0.000000000               0.999999999               0.000005925              -0.000000000               0.999999999               0.000007971              -0.000000000               0.999999999               0.000010402              -0.000000000               0.999999999               0.000013252              -0.000000000               0.999999999               0.000016646               0.000000000               0.999999999               0.000020652               0.000000000               0.999999999              -0.000008255               0.000012607               0.999999999              -0.000003326               0.000011435               0.999999999              -0.000001013               0.000011168               0.999999999               0.000000134               0.000011398               0.999999999               0.000000773               0.000011938               0.999999999               0.000001201               0.000012698               0.999999999               0.000001574               0.000013643               0.999999999               0.000002046               0.000014865               0.999999999               0.000002738               0.000016361               0.999999999               0.000003770               0.000018170               0.999999999               0.000005217               0.000020204               0.999999999               0.000007053               0.000022288               0.999999999               0.000009248               0.000024422               0.999999999               0.000011877               0.000026814               0.999999999               0.000015020               0.000029400               0.999999999               0.000018645               0.000032150               0.999999999               0.000022794               0.000035221               0.999999999              -0.000008055               0.000025081               0.999999999              -0.000003585               0.000022740               0.999999999              -0.000001503               0.000022273               0.999999999              -0.000000380               0.000022808               0.999999999               0.000000385               0.000023959               0.999999999               0.000001061               0.000025517               0.999999999               0.000001819               0.000027544               0.999999999               0.000002768               0.000029967               0.999999999               0.000004014               0.000033048               0.999999999               0.000005684               0.000036647               0.999999999               0.000007714               0.000040587               0.999999999               0.000010134               0.000044632               0.999999999               0.000012962               0.000048827               0.999999999               0.000016133               0.000053538               0.999999999               0.000019748               0.000058509               0.999999999               0.000023863               0.000063782               0.999999999               0.000028448               0.000069481               0.999999999              -0.000007715               0.000037302               0.999999999              -0.000004006               0.000033782               0.999999999              -0.000002256               0.000033235               0.999999999              -0.000001121               0.000034184               0.999999999              -0.000000148               0.000036087               0.999999999               0.000000943               0.000038619               0.999999999               0.000002261               0.000041760               0.999999999               0.000003896               0.000045601               0.999999999               0.000006012               0.000050249               0.999999999               0.000008505               0.000055616               0.999999999               0.000011375               0.000061342               0.999999999               0.000014592               0.000067210               0.999999999               0.000018138               0.000073417               0.999999999               0.000022072               0.000080196               0.999999999               0.000026406               0.000087270               0.999999999               0.000031110               0.000094739               0.999999999               0.000036212               0.000102630               0.999999999              -0.000007257               0.000049136               0.999999999              -0.000004536               0.000044474               0.999999999              -0.000003117               0.000043965               0.999999999              -0.000001937               0.000045523               0.999999999              -0.000000633               0.000048313               0.999999999               0.000000958               0.000051939               0.999999999               0.000002916               0.000056409               0.999999999               0.000005402               0.000061761               0.999999999               0.000008385               0.000068163               0.999999999               0.000011839               0.000075189               0.999999999               0.000015592               0.000082653               0.999999999               0.000019624               0.000090195               0.999999999               0.000024010               0.000098313               0.999999999               0.000028677               0.000107056               0.999999999               0.000033697               0.000116241               0.999999999               0.000039107               0.000125911               0.999999999               0.000044979               0.000136024               0.999999999              -0.000006674               0.000060451               0.999999999              -0.000005152               0.000054746               0.999999999              -0.000003998               0.000054419               0.999999999              -0.000002635               0.000056717               0.999999999              -0.000000924               0.000060496               0.999999999               0.000001221               0.000065414               0.999999999               0.000003910               0.000071355               0.999999999               0.000007202               0.000078467               0.999999999               0.000011082               0.000086608               0.999999999               0.000015385               0.000095431               0.999999999               0.000019948               0.000104480               0.999999999               0.000024829               0.000113853               0.999999999               0.000030062               0.000124020               0.999999999               0.000035649               0.000134850               0.999999999               0.000041624               0.000146216               0.999999999               0.000048074               0.000158239               0.999999999               0.000055028               0.000170856               0.999999999              -0.000006005               0.000071137               0.999999999              -0.000005788               0.000064533               0.999999999              -0.000004773               0.000064543               0.999999999              -0.000003104               0.000067651               0.999999999              -0.000000911               0.000072556               0.999999999               0.000001846               0.000078859               0.999999999               0.000005228               0.000086458               0.999999999               0.000009323               0.000095455               0.999999999               0.000014006               0.000105484               0.999999999               0.000019067               0.000116066               0.999999999               0.000024398               0.000127063               0.999999999               0.000030034               0.000138586               0.999999999               0.000036097               0.000151102               0.999999999               0.000042596               0.000164526               0.999999999               0.000049583               0.000178540               0.999999999               0.000057064               0.000193355               0.999999999               0.000065028               0.000209044               0.999999999              -0.000005287               0.000081070               0.999999999              -0.000006363               0.000073824               0.999999999              -0.000005353               0.000074280               0.999999999              -0.000003279               0.000078248               0.999999999              -0.000000560               0.000084355               0.999999999               0.000002785               0.000092159               0.999999999               0.000006901               0.000101581               0.999999999               0.000011803               0.000112542               0.999999999               0.000017209               0.000124497               0.999999999               0.000022892               0.000137153               0.999999999               0.000028789               0.000150461               0.999999999               0.000035028               0.000164760               0.999999999               0.000041759               0.000180420               0.999999999               0.000049077               0.000197045               0.999999999               0.000056984               0.000214466               0.999999999               0.000065470               0.000232877               0.999999999               0.000074488               0.000252141               0.999999999              -0.000004498               0.000090069               0.999999999              -0.000006853               0.000082629               0.999999999              -0.000005645               0.000083539               0.999999999              -0.000003165               0.000088433               0.999999999               0.000000039               0.000095831               0.999999999               0.000003987               0.000105269               0.999999999               0.000008879               0.000116662               0.999999999               0.000014515               0.000129638               0.999999999               0.000020439               0.000143760               0.999999999               0.000026523               0.000158885               0.999999999               0.000032817               0.000175301               0.999999999               0.000039500               0.000193228               0.999999999               0.000046929               0.000212473               0.999999999               0.000055028               0.000232923               0.999999999               0.000063723               0.000254436               0.999999999               0.000073077               0.000276933               0.999999999               0.000082740               0.000300118               0.999999999              -0.000003543               0.000098429               0.999999999              -0.000006982               0.000091562               0.999999999              -0.000006269               0.000091685               0.999999999              -0.000004146               0.000095652               0.999999999              -0.000001375               0.000102134               0.999999999               0.000001986               0.000110529               0.999999999               0.000006111               0.000120735               0.999999999               0.000010988               0.000132442               0.999999999               0.000016182               0.000145526               0.999999999               0.000021427               0.000159768               0.999999999               0.000026630               0.000175159               0.999999999               0.000032109               0.000191703               0.999999999               0.000038098               0.000209634               0.999999999               0.000044512               0.000228808               0.999999999               0.000051450               0.000249185               0.999999999               0.000059025               0.000270429               0.999999999               0.000067066               0.000292637               0.999999999              -0.000002658               0.000105953               0.999999999              -0.000006729               0.000099992               0.999999999              -0.000006535               0.000099778               0.999999999              -0.000004895               0.000103044               0.999999999              -0.000002586               0.000108696               0.999999999               0.000000158               0.000116226               0.999999999               0.000003573               0.000125358               0.999999999               0.000007556               0.000136025               0.999999999               0.000011906               0.000148070               0.999999999               0.000016475               0.000161338               0.999999999               0.000020982               0.000175696               0.999999999               0.000025420               0.000191219               0.999999999               0.000030074               0.000207930               0.999999999               0.000035161               0.000225840               0.999999999               0.000040561               0.000244900               0.999999999               0.000046319               0.000264934               0.999999999               0.000052591               0.000285835               0.999999999              -0.000001876               0.000112472               0.999999999              -0.000006150               0.000107782               0.999999999              -0.000006385               0.000107520               0.999999999              -0.000005236               0.000110321               0.999999999              -0.000003487               0.000115374               0.999999999              -0.000001296               0.000122134               0.999999999               0.000001353               0.000130424               0.999999999               0.000004531               0.000140209               0.999999999               0.000008057               0.000151233               0.999999999               0.000011935               0.000163544               0.999999999               0.000015769               0.000177059               0.999999999               0.000019404               0.000191719               0.999999999               0.000023057               0.000207435               0.999999999               0.000026955               0.000224235               0.999999999               0.000030903               0.000242049               0.999999999               0.000035011               0.000260868               0.999999999               0.000039571               0.000280525               0.999999999              -0.000001226               0.000117857               0.999999999              -0.000005251               0.000114594               0.999999999              -0.000005802               0.000114614               0.999999999              -0.000005106               0.000117182               0.999999999              -0.000003858               0.000121793               0.999999999              -0.000002287               0.000127985               0.999999999              -0.000000260               0.000135636               0.999999999               0.000002159               0.000144622               0.999999999               0.000004968               0.000154850               0.999999999               0.000007968               0.000166373               0.999999999               0.000011085               0.000179175               0.999999999               0.000014040               0.000193146               0.999999999               0.000016905               0.000208127               0.999999999               0.000019738               0.000223965               0.999999999               0.000022497               0.000240656               0.999999999               0.000025315               0.000258255               0.999999999               0.000028311               0.000276780               0.999999999              -0.000000757               0.000122151               0.999999999              -0.000004144               0.000120228               0.999999999              -0.000004785               0.000120665               0.999999999              -0.000004443               0.000123221               0.999999999              -0.000003666               0.000127542               0.999999999              -0.000002598               0.000133340               0.999999999              -0.000001152               0.000140566               0.999999999               0.000000596               0.000148988               0.999999999               0.000002565               0.000158659               0.999999999               0.000004767               0.000169662               0.999999999               0.000007133               0.000181871               0.999999999               0.000009465               0.000195203               0.999999999               0.000011642               0.000209485               0.999999999               0.000013549               0.000224530               0.999999999               0.000015369               0.000240438               0.999999999               0.000017174               0.000257170               0.999999999               0.000018877               0.000274809               0.999999999              -0.000000419               0.000125248               0.999999999              -0.000002854               0.000124442               0.999999999              -0.000003412               0.000125315               0.999999999              -0.000003281               0.000127981               0.999999999              -0.000002866               0.000132127               0.999999999              -0.000002214               0.000137741               0.999999999              -0.000001312               0.000144678               0.999999999              -0.000000224               0.000152819               0.999999999               0.000001012               0.000162165               0.999999999               0.000002529               0.000172726               0.999999999               0.000004110               0.000184527               0.999999999               0.000005696               0.000197393               0.999999999               0.000007137               0.000211096               0.999999999               0.000008288               0.000225590               0.999999999               0.000009368               0.000240991               0.999999999               0.000010452               0.000257292               0.999999999               0.000011293               0.000274471               0.999999999              -0.000000175               0.000127093               0.999999999              -0.000001450               0.000127057               0.999999999              -0.000001783               0.000128253               0.999999999              -0.000001737               0.000131015               0.999999999              -0.000001563               0.000135138               0.999999999              -0.000001269               0.000140644               0.999999999              -0.000000847               0.000147434               0.999999999              -0.000000374               0.000155452               0.999999999               0.000000339               0.000164643               0.999999999               0.000001057               0.000174991               0.999999999               0.000001830               0.000186499               0.999999999               0.000002590               0.000199025               0.999999999               0.000003290               0.000212439               0.999999999               0.000003913               0.000226754               0.999999999               0.000004451               0.000241943               0.999999999               0.000004887               0.000257943               0.999999999               0.000005139               0.000274819               0.999999999              -0.000000000               0.000127707               0.999999999              -0.000000000               0.000127947               0.999999999              -0.000000000               0.000129253               0.999999999              -0.000000000               0.000132060               0.999999999              -0.000000000               0.000136200               0.999999999              -0.000000000               0.000141653               0.999999999               0.000000000               0.000148413               0.999999999               0.000000000               0.000156382               0.999999999               0.000000000               0.000165539               0.999999999               0.000000000               0.000175894               0.999999999               0.000000000               0.000187254               0.999999999               0.000000000               0.000199599               0.999999999               0.000000000               0.000213005               0.999999999               0.000000000               0.000227286               0.999999999              -0.000000000               0.000242341               0.999999999              -0.000000000               0.000258293               0.999999999              -0.000000000               0.000275129               0.999999999 </DataArray>
<DataArray type="Float64"                                    Name="defo"                                                      NumberOfComponents=" 3" format="ascii">
              0.000008293               0.000000000               0.999999999               0.000003226               0.000000000               0.999999999               0.000000858               0.000000000               0.999999999              -0.000000319               0.000000000               0.999999999              -0.000000911              -0.000000000               0.999999999              -0.000001249              -0.000000000               0.999999999              -0.000001501              -0.000000000               0.999999999              -0.000001784              -0.000000000               0.999999999              -0.000002285              -0.000000000               0.999999999              -0.000003105              -0.000000000               0.999999999              -0.000004299               0.000000000               0.999999999              -0.000005925              -0.000000000               0.999999999              -0.000007971              -0.000000000               0.999999999              -0.000010402              -0.000000000               0.999999999              -0.000013252              -0.000000000               0.999999999              -0.000016646              -0.000000000               0.999999999              -0.000020652              -0.000000000               0.999999999               0.000008255               0.000012607               0.999999999               0.000003326               0.000011435               0.999999999               0.000001013               0.000011168               0.999999999              -0.000000134               0.000011398               0.999999999              -0.000000773               0.000011938               0.999999999              -0.000001201               0.000012698               0.999999999              -0.000001574               0.000013643               0.999999999              -0.000002046               0.000014865               0.999999999              -0.000002738               0.000016361               0.999999999              -0.000003770               0.000018170               0.999999999              -0.000005217               0.000020204               0.999999999              -0.000007053               0.000022288               0.999999999              -0.000009248               0.000024422               0.999999999              -0.000011877               0.000026814               0.999999999              -0.000015020               0.000029400               0.999999999              -0.000018645               0.000032150               0.999999999              -0.000022794               0.000035221               0.999999999               0.000008055               0.000025081               0.999999999               0.000003585               0.000022740               0.999999999               0.000001503               0.000022273               0.999999999               0.000000380               0.000022808               0.999999999              -0.000000385               0.000023959               0.999999999              -0.000001061               0.000025517               0.999999999              -0.000001819               0.000027544               0.999999999              -0.000002768               0.000029967               0.999999999              -0.000004014               0.000033048               0.999999999              -0.000005684               0.000036647               0.999999999              -0.000007714               0.000040587               0.999999999              -0.000010134               0.000044632               0.999999999              -0.000012962               0.000048827               0.999999999              -0.000016133               0.000053538               0.999999999              -0.000019748               0.000058509               0.999999999              -0.000023863               0.000063782               0.999999999              -0.000028448               0.000069481               0.999999999               0.000007715               0.000037302               0.999999999               0.000004006               0.000033782               0.999999999               0.000002256               0.000033235               0.999999999               0.000001121               0.000034184               0.999999999               0.000000148               0.000036087               0.999999999              -0.000000943               0.000038619               0.999999999              -0.000002261               0.000041760               0.999999999              -0.000003896               0.000045601               0.999999999              -0.000006012               0.000050249               0.999999999              -0.000008505               0.000055616               0.999999999              -0.000011375               0.000061342               0.999999999              -0.000014592               0.000067210               0.999999999              -0.000018138               0.000073417               0.999999999              -0.000022072               0.000080196               0.999999999              -0.000026406               0.000087270               0.999999999              -0.000031110               0.000094739               0.999999999              -0.000036212               0.000102630               0.999999999               0.000007257               0.000049136               0.999999999               0.000004536               0.000044474               0.999999999               0.000003117               0.000043965               0.999999999               0.000001937               0.000045523               0.999999999               0.000000633               0.000048313               0.999999999              -0.000000958               0.000051939               0.999999999              -0.000002916               0.000056409               0.999999999              -0.000005402               0.000061761               0.999999999              -0.000008385               0.000068163               0.999999999              -0.000011839               0.000075189               0.999999999              -0.000015592               0.000082653               0.999999999              -0.000019624               0.000090195               0.999999999              -0.000024010               0.000098313               0.999999999              -0.000028677               0.000107056               0.999999999              -0.000033697               0.000116241               0.999999999              -0.000039107               0.000125911               0.999999999              -0.000044979               0.000136024               0.999999999               0.000006674               0.000060451               0.999999999               0.000005152               0.000054746               0.999999999               0.000003998               0.000054419               0.999999999               0.000002635               0.000056717               0.999999999               0.000000924               0.000060496               0.999999999              -0.000001221               0.000065414               0.999999999              -0.000003910               0.000071355               0.999999999              -0.000007202               0.000078467               0.999999999              -0.000011082               0.000086608               0.999999999              -0.000015385               0.000095431               0.999999999              -0.000019948               0.000104480               0.999999999              -0.000024829               0.000113853               0.999999999              -0.000030062               0.000124020               0.999999999              -0.000035649               0.000134850               0.999999999              -0.000041624               0.000146216               0.999999999              -0.000048074               0.000158239               0.999999999              -0.000055028               0.000170856               0.999999999               0.000006005               0.000071137               0.999999999               0.000005788               0.000064533               0.999999999               0.000004773               0.000064543               0.999999999               0.000003104               0.000067651               0.999999999               0.000000911               0.000072556               0.999999999              -0.000001846               0.000078859               0.999999999              -0.000005228               0.000086458               0.999999999              -0.000009323               0.000095455               0.999999999              -0.000014006               0.000105484               0.999999999              -0.000019067               0.000116066               0.999999999              -0.000024398               0.000127063               0.999999999              -0.000030034               0.000138586               0.999999999              -0.000036097               0.000151102               0.999999999              -0.000042596               0.000164526               0.999999999              -0.000049583               0.000178540               0.999999999              -0.000057064               0.000193355               0.999999999              -0.000065028               0.000209044               0.999999999               0.000005287               0.000081070               0.999999999               0.000006363               0.000073824               0.999999999               0.000005353               0.000074280               0.999999999               0.000003279               0.000078248               0.999999999               0.000000560               0.000084355               0.999999999              -0.000002785               0.000092159               0.999999999              -0.000006901               0.000101581               0.999999999              -0.000011803               0.000112542               0.999999999              -0.000017209               0.000124497               0.999999999              -0.000022892               0.000137153               0.999999999              -0.000028789               0.000150461               0.999999999              -0.000035028               0.000164760               0.999999999              -0.000041759               0.000180420               0.999999999              -0.000049077               0.000197045               0.999999999              -0.000056984               0.000214466               0.999999999              -0.000065470               0.000232877               0.999999999              -0.000074488               0.000252141               0.999999999               0.000004498               0.000090069               0.999999999               0.000006853               0.000082629               0.999999999               0.000005645               0.000083539               0.999999999               0.000003165               0.000088433               0.999999999              -0.000000039               0.000095831               0.999999999              -0.000003987               0.000105269               0.999999999              -0.000008879               0.000116662               0.999999999              -0.000014515               0.000129638               0.999999999              -0.000020439               0.000143760               0.999999999              -0.000026523               0.000158885               0.999999999              -0.000032817               0.000175301               0.999999999              -0.000039500               0.000193228               0.999999999              -0.000046929               0.000212473               0.999999999              -0.000055028               0.000232923               0.999999999              -0.000063723               0.000254436               0.999999999              -0.000073077               0.000276933               0.999999999              -0.000082740               0.000300118               0.999999999               0.000003543               0.000098429               0.999999999               0.000006982               0.000091562               0.999999999               0.000006269               0.000091685               0.999999999               0.000004146               0.000095652               0.999999999               0.000001375               0.000102134               0.999999999              -0.000001986               0.000110529               0.999999999              -0.000006111               0.000120735               0.999999999              -0.000010988               0.000132442               0.999999999              -0.000016182               0.000145526               0.999999999              -0.000021427               0.000159768               0.999999999              -0.000026630               0.000175159               0.999999999              -0.000032109               0.000191703               0.999999999              -0.000038098               0.000209634               0.999999999              -0.000044512               0.000228808               0.999999999              -0.000051450               0.000249185               0.999999999              -0.000059025               0.000270429               0.999999999              -0.000067066               0.000292637               0.999999999               0.000002658               0.000105953               0.999999999               0.000006729               0.000099992               0.999999999               0.000006535               0.000099778               0.999999999               0.000004895               0.000103044               0.999999999               0.000002586               0.000108696               0.999999999              -0.000000158               0.000116226               0.999999999              -0.000003573               0.000125358               0.999999999              -0.000007556               0.000136025               0.999999999              -0.000011906               0.000148070               0.999999999              -0.000016475               0.000161338               0.999999999              -0.000020982               0.000175696               0.999999999              -0.000025420               0.000191219               0.999999999              -0.000030074               0.000207930               0.999999999              -0.000035161               0.000225840               0.999999999              -0.000040561               0.000244900               0.999999999              -0.000046319               0.000264934               0.999999999              -0.000052591               0.000285835               0.999999999               0.000001876               0.000112472               0.999999999               0.000006150               0.000107782               0.999999999               0.000006385               0.000107520               0.999999999               0.000005236               0.000110321               0.999999999               0.000003487               0.000115374               0.999999999               0.000001296               0.000122134               0.999999999              -0.000001353               0.000130424               0.999999999              -0.000004531               0.000140209               0.999999999              -0.000008057               0.000151233               0.999999999              -0.000011935               0.000163544               0.999999999              -0.000015769               0.000177059               0.999999999              -0.000019404               0.000191719               0.999999999              -0.000023057               0.000207435               0.999999999              -0.000026955               0.000224235               0.999999999              -0.000030903               0.000242049               0.999999999              -0.000035011               0.000260868               0.999999999              -0.000039571               0.000280525               0.999999999               0.000001226               0.000117857               0.999999999               0.000005251               0.000114594               0.999999999               0.000005802               0.000114614               0.999999999               0.000005106               0.000117182               0.999999999               0.000003858               0.000121793               0.999999999               0.000002287               0.000127985               0.999999999               0.000000260               0.000135636               0.999999999              -0.000002159               0.000144622               0.999999999              -0.000004968               0.000154850               0.999999999              -0.000007968               0.000166373               0.999999999              -0.000011085               0.000179175               0.999999999              -0.000014040               0.000193146               0.999999999              -0.000016905               0.000208127               0.999999999              -0.000019738               0.000223965               0.999999999              -0.000022497               0.000240656               0.999999999              -0.000025315               0.000258255               0.999999999              -0.000028311               0.000276780               0.999999999               0.000000757               0.000122151               0.999999999               0.000004144               0.000120228               0.999999999               0.000004785               0.000120665               0.999999999               0.000004443               0.000123221               0.999999999               0.000003666               0.000127542               0.999999999               0.000002598               0.000133340               0.999999999               0.000001152               0.000140566               0.999999999              -0.000000596               0.000148988               0.999999999              -0.000002565               0.000158659               0.999999999              -0.000004767               0.000169662               0.999999999              -0.000007133               0.000181871               0.999999999              -0.000009465               0.000195203               0.999999999              -0.000011642               0.000209485               0.999999999              -0.000013549               0.000224530               0.999999999              -0.000015369               0.000240438               0.999999999              -0.000017174               0.000257170               0.999999999              -0.000018877               0.000274809               0.999999999               0.000000419               0.000125248               0.999999999               0.000002854               0.000124442               0.999999999               0.000003412               0.000125315               0.999999999               0.000003281               0.000127981               0.999999999               0.000002866               0.000132127               0.999999999               0.000002214               0.000137741               0.999999999               0.000001312               0.000144678               0.999999999               0.000000224               0.000152819               0.999999999              -0.000001012               0.000162165               0.999999999              -0.000002529               0.000172726               0.999999999              -0.000004110               0.000184527               0.999999999              -0.000005696               0.000197393               0.999999999              -0.000007137               0.000211096               0.999999999              -0.000008288               0.000225590               0.999999999              -0.000009368               0.000240991               0.999999999              -0.000010452               0.000257292               0.999999999              -0.000011293               0.000274471               0.999999999               0.000000175               0.000127093               0.999999999               0.000001450               0.000127057               0.999999999               0.000001783               0.000128253               0.999999999               0.000001737               0.000131015               0.999999999               0.000001563               0.000135138               0.999999999               0.000001269               0.000140644               0.999999999               0.000000847               0.000147434               0.999999999               0.000000374               0.000155452               0.999999999              -0.000000339               0.000164643               0.999999999              -0.000001057               0.000174991               0.999999999              -0.000001830               0.000186499               0.999999999              -0.000002590               0.000199025               0.999999999              -0.000003290               0.000212439               0.999999999              -0.000003913               0.000226754               0.999999999              -0.000004451               0.000241943               0.999999999              -0.000004887               0.000257943               0.999999999              -0.000005139               0.000274819               0.999999999              -0.000000000               0.000127707               0.999999999              -0.000000000               0.000127947               0.999999999              -0.000000000               0.000129253               0.999999999              -0.000000000               0.000132060               0.999999999              -0.000000000               0.000136200               0.999999999              -0.000000000               0.000141653               0.999999999               0.000000000               0.000148413               0.999999999               0.000000000               0.000156382               0.999999999               0.000000000               0.000165539               0.999999999               0.000000000               0.000175894               0.999999999               0.000000000               0.000187254               0.999999999               0.000000000               0.000199599               0.999999999               0.000000000               0.000213005               0.999999999               0.000000000               0.000227286               0.999999999              -0.000000000               0.000242341               0.999999999              -0.000000000               0.000258293               0.999999999              -0.000000000               0.000275129               0.999999999               0.000008293               0.000000000               0.999999999               0.000003226               0.000000000               0.999999999               0.000000858               0.000000000               0.999999999              -0.000000319               0.000000000               0.999999999              -0.000000911              -0.000000000               0.999999999              -0.000001249              -0.000000000               0.999999999              -0.000001501              -0.000000000               0.999999999              -0.000001784              -0.000000000               0.999999999              -0.000002285              -0.000000000               0.999999999              -0.000003105              -0.000000000               0.999999999              -0.000004299               0.000000000               0.999999999              -0.000005925              -0.000000000               0.999999999              -0.000007971              -0.000000000               0.999999999              -0.000010402              -0.000000000               0.999999999              -0.000013252              -0.000000000               0.999999999              -0.000016646              -0.000000000               0.999999999              -0.000020652              -0.000000000               0.999999999               0.000008255              -0.000012607               0.999999999               0.000003326              -0.000011435               0.999999999               0.000001013              -0.000011168               0.999999999              -0.000000134              -0.000011398               0.999999999              -0.000000773              -0.000011938               0.999999999              -0.000001201              -0.000012698               0.999999999              -0.000001574              -0.000013643               0.999999999              -0.000002046              -0.000014865               0.999999999              -0.000002738              -0.000016361               0.999999999              -0.000003770              -0.000018170               0.999999999              -0.000005217              -0.000020204               0.999999999              -0.000007053              -0.000022288               0.999999999              -0.000009248              -0.000024422               0.999999999              -0.000011877              -0.000026814               0.999999999              -0.000015020              -0.000029400               0.999999999              -0.000018645              -0.000032150               0.999999999              -0.000022794              -0.000035221               0.999999999               0.000008055              -0.000025081               0.999999999               0.000003585              -0.000022740               0.999999999               0.000001503              -0.000022273               0.999999999               0.000000380              -0.000022808               0.999999999              -0.000000385              -0.000023959               0.999999999              -0.000001061              -0.000025517               0.999999999              -0.000001819              -0.000027544               0.999999999              -0.000002768              -0.000029967               0.999999999              -0.000004014              -0.000033048               0.999999999              -0.000005684              -0.000036647               0.999999999              -0.000007714              -0.000040587               0.999999999              -0.000010134              -0.000044632               0.999999999              -0.000012962              -0.000048827               0.999999999              -0.000016133              -0.000053538               0.999999999              -0.000019748              -0.000058509               0.999999999              -0.000023863              -0.000063782               0.999999999              -0.000028448              -0.000069481               0.999999999               0.000007715              -0.000037302               0.999999999               0.000004006              -0.000033782               0.999999999               0.000002256              -0.000033235               0.999999999               0.000001121              -0.000034184               0.999999999               0.000000148              -0.000036087               0.999999999              -0.000000943              -0.000038619               0.999999999              -0.000002261              -0.000041760               0.999999999              -0.000003896              -0.000045601               0.999999999              -0.000006012              -0.000050249               0.999999999              -0.000008505              -0.000055616               0.999999999              -0.000011375              -0.000061342               0.999999999              -0.000014592              -0.000067210               0.999999999              -0.000018138              -0.000073417               0.999999999              -0.000022072              -0.000080196               0.999999999              -0.000026406              -0.000087270               0.999999999              -0.000031110              -0.000094739               0.999999999              -0.000036212              -0.000102630               0.999999999               0.000007257              -0.000049136               0.999999999               0.000004536              -0.000044474               0.999999999               0.000003117              -0.000043965               0.999999999               0.000001937              -0.000045523               0.999999999               0.000000633              -0.000048313               0.999999999              -0.000000958              -0.000051939               0.999999999              -0.000002916              -0.000056409               0.999999999              -0.000005402              -0.000061761               0.999999999              -0.000008385              -0.000068163               0.999999999              -0.000011839              -0.000075189               0.999999999              -0.000015592              -0.000082653               0.999999999              -0.000019624              -0.000090195               0.999999999              -0.000024010              -0.000098313               0.999999999              -0.000028677              -0.000107056               0.999999999              -0.000033697              -0.000116241               0.999999999              -0.000039107              -0.000125911               0.999999999              -0.000044979              -0.000136024               0.999999999               0.000006674              -0.000060451               0.999999999               0.000005152              -0.000054746               0.999999999               0.000003998              -0.000054419               0.999999999               0.000002635              -0.000056717               0.999999999               0.000000924              -0.000060496               0.999999999              -0.000001221              -0.000065414               0.999999999              -0.000003910              -0.000071355               0.999999999              -0.000007202              -0.000078467               0.999999999              -0.000011082              -0.000086608               0.999999999              -0.000015385              -0.000095431               0.999999999              -0.000019948              -0.000104480               0.999999999              -0.000024829              -0.000113853               0.999999999              -0.000030062              -0.000124020               0.999999999              -0.000035649              -0.000134850               0.999999999              -0.000041624              -0.000146216               0.999999999              -0.000048074              -0.000158239               0.999999999              -0.000055028              -0.000170856               0.999999999               0.000006005              -0.000071137               0.999999999               0.000005788              -0.000064533               0.999999999               0.000004773              -0.000064543               0.999999999               0.000003104              -0.000067651               0.999999999               0.000000911              -0.000072556               0.999999999              -0.000001846              -0.000078859               0.999999999              -0.000005228              -0.000086458               0.999999999              -0.000009323              -0.000095455               0.999999999              -0.000014006              -0.000105484               0.999999999              -0.000019067              -0.000116066               0.999999999              -0.000024398              -0.000127063               0.999999999              -0.000030034              -0.000138586               0.999999999              -0.000036097              -0.000151102               0.999999999              -0.000042596              -0.000164526               0.999999999              -0.000049583              -0.000178540               0.999999999              -0.000057064              -0.000193355               0.999999999              -0.000065028              -0.000209044               0.999999999               0.000005287              -0.000081070               0.999999999               0.000006363              -0.000073824               0.999999999               0.000005353              -0.000074280               0.999999999               0.000003279              -0.000078248               0.999999999               0.000000560              -0.000084355               0.999999999              -0.000002785              -0.000092159               0.999999999              -0.000006901              -0.000101581               0.999999999              -0.000011803              -0.000112542               0.999999999              -0.000017209              -0.000124497               0.999999999              -0.000022892              -0.000137153               0.999999999              -0.000028789              -0.000150461               0.999999999              -0.000035028              -0.000164760               0.999999999              -0.000041759              -0.000180420               0.999999999              -0.000049077              -0.000197045               0.999999999              -0.000056984              -0.000214466               0.999999999              -0.000065470              -0.000232877               0.999999999              -0.000074488              -0.000252141               0.999999999               0.000004498              -0.000090069               0.999999999               0.000006853              -0.000082629               0.999999999               0.000005645              -0.000083539               0.999999999               0.000003165              -0.000088433               0.999999999              -0.000000039              -0.000095831               0.999999999              -0.000003987              -0.000105269               0.999999999              -0.000008879              -0.000116662               0.999999999              -0.000014515              -0.000129638               0.999999999              -0.000020439              -0.000143760               0.999999999              -0.000026523              -0.000158885               0.999999999              -0.000032817              -0.000175301               0.999999999              -0.000039500              -0.000193228               0.999999999              -0.000046929              -0.000212473               0.999999999              -0.000055028              -0.000232923               0.999999999              -0.000063723              -0.000254436               0.999999999              -0.000073077              -0.000276933               0.999999999              -0.000082740              -0.000300118               0.999999999               0.000003543              -0.000098429               0.999999999               0.000006982              -0.000091562               0.999999999               0.000006269              -0.000091685               0.999999999               0.000004146              -0.000095652               0.999999999               0.000001375              -0.000102134               0.999999999              -0.000001986              -0.000110529               0.999999999              -0.000006111              -0.000120735               0.999999999              -0.000010988              -0.000132442               0.999999999              -0.000016182              -0.000145526               0.999999999              -0.000021427              -0.000159768               0.999999999              -0.000026630              -0.000175159               0.999999999              -0.000032109              -0.000191703               0.999999999              -0.000038098              -0.000209634               0.999999999              -0.000044512              -0.000228808               0.999999999              -0.000051450              -0.000249185               0.999999999              -0.000059025              -0.000270429               0.999999999              -0.000067066              -0.000292637               0.999999999               0.000002658              -0.000105953               0.999999999               0.000006729              -0.000099992               0.999999999               0.000006535              -0.000099778               0.999999999               0.000004895              -0.000103044               0.999999999               0.000002586              -0.000108696               0.999999999              -0.000000158              -0.000116226               0.999999999              -0.000003573              -0.000125358               0.999999999              -0.000007556              -0.000136025               0.999999999              -0.000011906              -0.000148070               0.999999999              -0.000016475              -0.000161338               0.999999999              -0.000020982              -0.000175696               0.999999999              -0.000025420              -0.000191219               0.999999999              -0.000030074              -0.000207930               0.999999999              -0.000035161              -0.000225840               0.999999999              -0.000040561              -0.000244900               0.999999999              -0.000046319              -0.000264934               0.999999999              -0.000052591              -0.000285835               0.999999999               0.000001876              -0.000112472               0.999999999               0.000006150              -0.000107782               0.999999999               0.000006385              -0.000107520               0.999999999               0.000005236              -0.000110321               0.999999999               0.000003487              -0.000115374               0.999999999               0.000001296              -0.000122134               0.999999999              -0.000001353              -0.000130424               0.999999999              -0.000004531              -0.000140209               0.999999999              -0.000008057              -0.000151233               0.999999999              -0.000011935              -0.000163544               0.999999999              -0.000015769              -0.000177059               0.999999999              -0.000019404              -0.000191719               0.999999999              -0.000023057              -0.000207435               0.999999999              -0.000026955              -0.000224235               0.999999999              -0.000030903              -0.000242049               0.999999999              -0.000035011              -0.000260868               0.999999999              -0.000039571              -0.000280525               0.999999999               0.000001226              -0.000117857               0.999999999               0.000005251              -0.000114594               0.999999999               0.000005802              -0.000114614               0.999999999               0.000005106              -0.000117182               0.999999999               0.000003858              -0.000121793               0.999999999               0.000002287              -0.000127985               0.999999999               0.000000260              -0.000135636               0.999999999              -0.000002159              -0.000144622               0.999999999              -0.000004968              -0.000154850               0.999999999              -0.000007968              -0.000166373               0.999999999              -0.000011085              -0.000179175               0.999999999              -0.000014040              -0.000193146               0.999999999              -0.000016905              -0.000208127               0.999999999              -0.000019738              -0.000223965               0.999999999              -0.000022497              -0.000240656               0.999999999              -0.000025315              -0.000258255               0.999999999              -0.000028311              -0.000276780               0.999999999               0.000000757              -0.000122151               0.999999999               0.000004144              -0.000120228               0.999999999               0.000004785              -0.000120665               0.999999999               0.000004443              -0.000123221               0.999999999               0.000003666              -0.000127542               0.999999999               0.000002598              -0.000133340               0.999999999               0.000001152              -0.000140566               0.999999999              -0.000000596              -0.000148988               0.999999999              -0.000002565              -0.000158659               0.999999999              -0.000004767              -0.000169662               0.999999999              -0.000007133              -0.000181871               0.999999999              -0.000009465              -0.000195203               0.999999999              -0.000011642              -0.000209485               0.999999999              -0.000013549              -0.000224530               0.999999999              -0.000015369              -0.000240438               0.999999999              -0.000017174              -0.000257170               0.999999999              -0.000018877              -0.000274809               0.999999999               0.000000419              -0.000125248               0.999999999               0.000002854              -0.000124442               0.999999999               0.000003412              -0.000125315               0.999999999               0.000003281              -0.000127981               0.999999999               0.000002866              -0.000132127               0.999999999               0.000002214              -0.000137741               0.999999999               0.000001312              -0.000144678               0.999999999               0.000000224              -0.000152819               0.999999999              -0.000001012              -0.000162165               0.999999999              -0.000002529              -0.000172726               0.999999999              -0.000004110              -0.000184527               0.999999999              -0.000005696              -0.000197393               0.999999999              -0.000007137              -0.000211096               0.999999999              -0.000008288              -0.000225590               0.999999999              -0.000009368              -0.000240991               0.999999999              -0.000010452              -0.000257292               0.999999999              -0.000011293              -0.000274471               0.999999999               0.000000175              -0.000127093               0.999999999               0.000001450              -0.000127057               0.999999999               0.000001783              -0.000128253               0.999999999               0.000001737              -0.000131015               0.999999999               0.000001563              -0.000135138               0.999999999               0.000001269              -0.000140644               0.999999999               0.000000847              -0.000147434               0.999999999               0.000000374              -0.000155452               0.999999999              -0.000000339              -0.000164643               0.999999999              -0.000001057              -0.000174991               0.999999999              -0.000001830              -0.000186499               0.999999999              -0.000002590              -0.000199025               0.999999999              -0.000003290              -0.000212439               0.999999999              -0.000003913              -0.000226754               0.999999999              -0.000004451              -0.000241943               0.999999999              -0.000004887              -0.000257943               0.999999999              -0.000005139              -0.000274819               0.999999999               0.000000000              -0.000127707               0.999999999              -0.000000000              -0.000127947               0.999999999               0.000000000              -0.000129253               0.999999999               0.000000000              -0.000132060               0.999999999              -0.000000000              -0.000136200               0.999999999              -0.000000000              -0.000141653               0.999999999               0.000000000              -0.000148413               0.999999999               0.000000000              -0.000156382               0.999999999              -0.000000000              -0.000165539               0.999999999              -0.000000000              -0.000175894               0.999999999              -0.000000000              -0.000187254               0.999999999              -0.000000000              -0.000199599               0.999999999              -0.000000000              -0.000213005               0.999999999               0.000000000              -0.000227286               0.999999999              -0.000000000              -0.000242341               0.999999999              -0.000000000              -0.000258293               0.999999999               0.000000000              -0.000275129               0.999999999              -0.000008293              -0.000000000               0.999999999              -0.000003226               0.000000000               0.999999999              -0.000000858               0.000000000               0.999999999               0.000000319               0.000000000               0.999999999               0.000000911              -0.000000000               0.999999999               0.000001249              -0.000000000               0.999999999               0.000001501              -0.000000000               0.999999999               0.000001784              -0.000000000               0.999999999               0.000002285              -0.000000000               0.999999999               0.000003105              -0.000000000               0.999999999               0.000004299              -0.000000000               0.999999999               0.000005925              -0.000000000               0.999999999               0.000007971              -0.000000000               0.999999999               0.000010402              -0.000000000               0.999999999               0.000013252              -0.000000000               0.999999999               0.000016646               0.000000000               0.999999999               0.000020652               0.000000000               0.999999999              -0.000008255              -0.000012607               0.999999999              -0.000003326              -0.000011435               0.999999999              -0.000001013              -0.000011168               0.999999999               0.000000134              -0.000011398               0.999999999               0.000000773              -0.000011938               0.999999999               0.000001201              -0.000012698               0.999999999               0.000001574              -0.000013643               0.999999999               0.000002046              -0.000014865               0.999999999               0.000002738              -0.000016361               0.999999999               0.000003770              -0.000018170               0.999999999               0.000005217              -0.000020204               0.999999999               0.000007053              -0.000022288               0.999999999               0.000009248              -0.000024422               0.999999999               0.000011877              -0.000026814               0.999999999               0.000015020              -0.000029400               0.999999999               0.000018645              -0.000032150               0.999999999               0.000022794              -0.000035221               0.999999999              -0.000008055              -0.000025081               0.999999999              -0.000003585              -0.000022740               0.999999999              -0.000001503              -0.000022273               0.999999999              -0.000000380              -0.000022808               0.999999999               0.000000385              -0.000023959               0.999999999               0.000001061              -0.000025517               0.999999999               0.000001819              -0.000027544               0.999999999               0.000002768              -0.000029967               0.999999999               0.000004014              -0.000033048               0.999999999               0.000005684              -0.000036647               0.999999999               0.000007714              -0.000040587               0.999999999               0.000010134              -0.000044632               0.999999999               0.000012962              -0.000048827               0.999999999               0.000016133              -0.000053538               0.999999999               0.000019748              -0.000058509               0.999999999               0.000023863              -0.000063782               0.999999999               0.000028448              -0.000069481               0.999999999              -0.000007715              -0.000037302               0.999999999              -0.000004006              -0.000033782               0.999999999              -0.000002256              -0.000033235               0.999999999              -0.000001121              -0.000034184               0.999999999              -0.000000148              -0.000036087               0.999999999               0.000000943              -0.000038619               0.999999999               0.000002261              -0.000041760               0.999999999               0.000003896              -0.000045601               0.999999999               0.000006012              -0.000050249               0.999999999               0.000008505              -0.000055616               0.999999999               0.000011375              -0.000061342               0.999999999               0.000014592              -0.000067210               0.999999999               0.000018138              -0.000073417               0.999999999               0.000022072              -0.000080196               0.999999999               0.000026406              -0.000087270               0.999999999               0.000031110              -0.000094739               0.999999999               0.000036212              -0.000102630               0.999999999              -0.000007257              -0.000049136               0.999999999              -0.000004536              -0.000044474               0.999999999              -0.000003117              -0.000043965               0.999999999              -0.000001937              -0.000045523               0.999999999              -0.000000633              -0.000048313               0.999999999               0.000000958              -0.000051939               0.999999999               0.000002916              -0.000056409               0.999999999               0.000005402              -0.000061761               0.999999999               0.000008385              -0.000068163               0.999999999               0.000011839              -0.000075189               0.999999999               0.000015592              -0.000082653               0.999999999               0.000019624              -0.000090195               0.999999999               0.000024010              -0.000098313               0.999999999               0.000028677              -0.000107056               0.999999999               0.000033697              -0.000116241               0.999999999               0.000039107              -0.000125911               0.999999999               0.000044979              -0.000136024               0.999999999              -0.000006674              -0.000060451               0.999999999              -0.000005152              -0.000054746               0.999999999              -0.000003998              -0.000054419               0.999999999              -0.000002635              -0.000056717               0.999999999              -0.000000924              -0.000060496               0.999999999               0.000001221              -0.000065414               0.999999999               0.000003910              -0.000071355               0.999999999               0.000007202              -0.000078467               0.999999999               0.000011082              -0.000086608               0.999999999               0.000015385              -0.000095431               0.999999999               0.000019948              -0.000104480               0.999999999               0.000024829              -0.000113853               0.999999999               0.000030062              -0.000124020               0.999999999               0.000035649              -0.000134850               0.999999999               0.000041624              -0.000146216               0.999999999               0.000048074              -0.000158239               0.999999999               0.000055028              -0.000170856               0.999999999              -0.000006005              -0.000071137               0.999999999              -0.000005788              -0.000064533               0.999999999              -0.000004773              -0.000064543               0.999999999              -0.000003104              -0.000067651               0.999999999              -0.000000911              -0.000072556               0.999999999               0.000001846              -0.000078859               0.999999999               0.000005228              -0.000086458               0.999999999               0.000009323              -0.000095455               0.999999999               0.000014006              -0.000105484               0.999999999               0.000019067              -0.000116066               0.999999999               0.000024398              -0.000127063               0.999999999               0.000030034              -0.000138586               0.999999999               0.000036097              -0.000151102               0.999999999               0.000042596              -0.000164526               0.999999999               0.000049583              -0.000178540               0.999999999               0.000057064              -0.000193355               0.999999999               0.000065028              -0.000209044               0.999999999              -0.000005287              -0.000081070               0.999999999              -0.000006363              -0.000073824               0.999999999              -0.000005353              -0.000074280               0.999999999              -0.000003279              -0.000078248               0.999999999              -0.000000560              -0.000084355               0.999999999               0.000002785              -0.000092159               0.999999999               0.000006901              -0.000101581               0.999999999               0.000011803              -0.000112542               0.999999999               0.000017209              -0.000124497               0.999999999               0.000022892              -0.000137153               0.999999999               0.000028789              -0.000150461               0.999999999               0.000035028              -0.000164760               0.999999999               0.000041759              -0.000180420               0.999999999               0.000049077              -0.000197045               0.999999999               0.000056984              -0.000214466               0.999999999               0.000065470              -0.000232877               0.999999999               0.000074488              -0.000252141               0.999999999              -0.000004498              -0.000090069               0.999999999              -0.000006853              -0.000082629               0.999999999              -0.000005645              -0.000083539               0.999999999              -0.000003165              -0.000088433               0.999999999               0.000000039              -0.000095831               0.999999999               0.000003987              -0.000105269               0.999999999               0.000008879              -0.000116662               0.999999999               0.000014515              -0.000129638               0.999999999               0.000020439              -0.000143760               0.999999999               0.000026523              -0.000158885               0.999999999               0.000032817              -0.000175301               0.999999999               0.000039500              -0.000193228               0.999999999               0.000046929              -0.000212473               0.999999999               0.000055028              -0.000232923               0.999999999               0.000063723              -0.000254436               0.999999999               0.000073077              -0.000276933               0.999999999               0.000082740              -0.000300118               0.999999999              -0.000003543              -0.000098429               0.999999999              -0.000006982              -0.000091562               0.999999999              -0.000006269              -0.000091685               0.999999999              -0.000004146              -0.000095652               0.999999999              -0.000001375              -0.000102134               0.999999999               0.000001986              -0.000110529               0.999999999               0.000006111              -0.000120735               0.999999999               0.000010988              -0.000132442               0.999999999               0.000016182              -0.000145526               0.999999999               0.000021427              -0.000159768               0.999999999               0.000026630              -0.000175159               0.999999999               0.000032109              -0.000191703               0.999999999               0.000038098              -0.000209634               0.999999999               0.000044512              -0.000228808               0.999999999               0.000051450              -0.000249185               0.999999999               0.000059025              -0.000270429               0.999999999               0.000067066              -0.000292637               0.999999999              -0.000002658              -0.000105953               0.999999999              -0.000006729              -0.000099992               0.999999999              -0.000006535              -0.000099778               0.999999999              -0.000004895              -0.000103044               0.999999999              -0.000002586              -0.000108696               0.999999999               0.000000158              -0.000116226               0.999999999               0.000003573              -0.000125358               0.999999999               0.000007556              -0.000136025               0.999999999               0.000011906              -0.000148070               0.999999999               0.000016475              -0.000161338               0.999999999               0.000020982              -0.000175696               0.999999999               0.000025420              -0.000191219               0.999999999               0.000030074              -0.000207930               0.999999999               0.000035161              -0.000225840               0.999999999               0.000040561              -0.000244900               0.999999999               0.000046319              -0.000264934               0.999999999               0.000052591              -0.000285835               0.999999999              -0.000001876              -0.000112472               0.999999999              -0.000006150              -0.000107782               0.999999999              -0.000006385              -0.000107520               0.999999999              -0.000005236              -0.000110321               0.999999999              -0.000003487              -0.000115374               0.999999999              -0.000001296              -0.000122134               0.999999999               0.000001353              -0.000130424               0.999999999               0.000004531              -0.000140209               0.999999999               0.000008057              -0.000151233               0.999999999               0.000011935              -0.000163544               0.999999999               0.000015769              -0.000177059               0.999999999               0.000019404              -0.000191719               0.999999999               0.000023057              -0.000207435               0.999999999               0.000026955              -0.000224235               0.999999999               0.000030903              -0.000242049               0.999999999               0.000035011              -0.000260868               0.999999999               0.000039571              -0.000280525               0.999999999              -0.000001226              -0.000117857               0.999999999              -0.000005251              -0.000114594               0.999999999              -0.000005802              -0.000114614               0.999999999              -0.000005106              -0.000117182               0.999999999              -0.000003858              -0.000121793               0.999999999              -0.000002287              -0.000127985               0.999999999              -0.000000260              -0.000135636               0.999999999               0.000002159              -0.000144622               0.999999999               0.000004968              -0.000154850               0.999999999               0.000007968              -0.000166373               0.999999999               0.000011085              -0.000179175               0.999999999               0.000014040              -0.000193146               0.999999999               0.000016905              -0.000208127               0.999999999               0.000019738              -0.000223965               0.999999999               0.000022497              -0.000240656               0.999999999               0.000025315              -0.000258255               0.999999999               0.000028311              -0.000276780               0.999999999              -0.000000757              -0.000122151               0.999999999              -0.000004144              -0.000120228               0.999999999              -0.000004785              -0.000120665               0.999999999              -0.000004443              -0.000123221               0.999999999              -0.000003666              -0.000127542               0.999999999              -0.000002598              -0.000133340               0.999999999              -0.000001152              -0.000140566               0.999999999               0.000000596              -0.000148988               0.999999999               0.000002565              -0.000158659               0.999999999               0.000004767              -0.000169662               0.999999999               0.000007133              -0.000181871               0.999999999               0.000009465              -0.000195203               0.999999999               0.000011642              -0.000209485               0.999999999               0.000013549              -0.000224530               0.999999999               0.000015369              -0.000240438               0.999999999               0.000017174              -0.000257170               0.999999999               0.000018877              -0.000274809               0.999999999              -0.000000419              -0.000125248               0.999999999              -0.000002854              -0.000124442               0.999999999              -0.000003412              -0.000125315               0.999999999              -0.000003281              -0.000127981               0.999999999              -0.000002866              -0.000132127               0.999999999              -0.000002214              -0.000137741               0.999999999              -0.000001312              -0.000144678               0.999999999              -0.000000224              -0.000152819               0.999999999               0.000001012              -0.000162165               0.999999999               0.000002529              -0.000172726               0.999999999               0.000004110              -0.000184527               0.999999999               0.000005696              -0.000197393               0.999999999               0.000007137              -0.000211096               0.999999999               0.000008288              -0.000225590               0.999999999               0.000009368              -0.000240991               0.999999999               0.000010452              -0.000257292               0.999999999               0.000011293              -0.000274471               0.999999999              -0.000000175              -0.000127093               0.999999999              -0.000001450              -0.000127057               0.999999999              -0.000001783              -0.000128253               0.999999999              -0.000001737              -0.000131015               0.999999999              -0.000001563              -0.000135138               0.999999999              -0.000001269              -0.000140644               0.999999999              -0.000000847              -0.000147434               0.999999999              -0.000000374              -0.000155452               0.999999999               0.000000339              -0.000164643               0.999999999               0.000001057              -0.000174991               0.999999999               0.000001830              -0.000186499               0.999999999               0.000002590              -0.000199025               0.999999999               0.000003290              -0.000212439               0.999999999               0.000003913              -0.000226754               0.999999999               0.000004451              -0.000241943               0.999999999               0.000004887              -0.000257943               0.999999999               0.000005139              -0.000274819               0.999999999               0.000000000              -0.000127707               0.999999999              -0.000000000              -0.000127947               0.999999999               0.000000000              -0.000129253               0.999999999               0.000000000              -0.000132060               0.999999999              -0.000000000              -0.000136200               0.999999999              -0.000000000              -0.000141653               0.999999999               0.000000000              -0.000148413               0.999999999               0.000000000              -0.000156382               0.999999999              -0.000000000              -0.000165539               0.999999999              -0.000000000              -0.000175894               0.999999999              -0.000000000              -0.000187254               0.999999999              -0.000000000              -0.000199599               0.999999999              -0.000000000              -0.000213005               0.999999999               0.000000000              -0.000227286               0.999999999              -0.000000000              -0.000242341               0.999999999              -0.000000000              -0.000258293               0.999999999               0.000000000              -0.000275129               0.999999999              -0.000008293              -0.000000000               0.999999999              -0.000003226               0.000000000               0.999999999              -0.000000858               0.000000000               0.999999999               0.000000319               0.000000000               0.999999999               0.000000911              -0.000000000               0.999999999               0.000001249              -0.000000000               0.999999999               0.000001501              -0.000000000               0.999999999               0.000001784              -0.000000000               0.999999999               0.000002285              -0.000000000               0.999999999               0.000003105              -0.000000000               0.999999999               0.000004299              -0.000000000               0.999999999               0.000005925              -0.000000000               0.999999999               0.000007971              -0.000000000               0.999999999               0.000010402              -0.000000000               0.999999999               0.000013252              -0.000000000               0.999999999               0.000016646               0.000000000               0.999999999               0.000020652               0.000000000               0.999999999              -0.000008255               0.000012607               0.999999999              -0.000003326               0.000011435               0.999999999              -0.000001013               0.000011168               0.999999999               0.000000134               0.000011398               0.999999999               0.000000773               0.000011938               0.999999999               0.000001201               0.000012698               0.999999999               0.000001574               0.000013643               0.999999999               0.000002046               0.000014865               0.999999999               0.000002738               0.000016361               0.999999999               0.000003770               0.000018170               0.999999999               0.000005217               0.000020204               0.999999999               0.000007053               0.000022288               0.999999999               0.000009248               0.000024422               0.999999999               0.000011877               0.000026814               0.999999999               0.000015020               0.000029400               0.999999999               0.000018645               0.000032150               0.999999999               0.000022794               0.000035221               0.999999999              -0.000008055               0.000025081               0.999999999              -0.000003585               0.000022740               0.999999999              -0.000001503               0.000022273               0.999999999              -0.000000380               0.000022808               0.999999999               0.000000385               0.000023959               0.999999999               0.000001061               0.000025517               0.999999999               0.000001819               0.000027544               0.999999999               0.000002768               0.000029967               0.999999999               0.000004014               0.000033048               0.999999999               0.000005684               0.000036647               0.999999999               0.000007714               0.000040587               0.999999999               0.000010134               0.000044632               0.999999999               0.000012962               0.000048827               0.999999999               0.000016133               0.000053538               0.999999999               0.000019748               0.000058509               0.999999999               0.000023863               0.000063782               0.999999999               0.000028448               0.000069481               0.999999999              -0.000007715               0.000037302               0.999999999              -0.000004006               0.000033782               0.999999999              -0.000002256               0.000033235               0.999999999              -0.000001121               0.000034184               0.999999999              -0.000000148               0.000036087               0.999999999               0.000000943               0.000038619               0.999999999               0.000002261               0.000041760               0.999999999               0.000003896               0.000045601               0.999999999               0.000006012               0.000050249               0.999999999               0.000008505               0.000055616               0.999999999               0.000011375               0.000061342               0.999999999               0.000014592               0.000067210               0.999999999               0.000018138               0.000073417               0.999999999               0.000022072               0.000080196               0.999999999               0.000026406               0.000087270               0.999999999               0.000031110               0.000094739               0.999999999               0.000036212               0.000102630               0.999999999              -0.000007257               0.000049136               0.999999999              -0.000004536               0.000044474               0.999999999              -0.000003117               0.000043965               0.999999999              -0.000001937               0.000045523               0.999999999              -0.000000633               0.000048313               0.999999999               0.000000958               0.000051939               0.999999999               0.000002916               0.000056409               0.999999999               0.000005402               0.000061761               0.999999999               0.000008385               0.000068163               0.999999999               0.000011839               0.000075189               0.999999999               0.000015592               0.000082653               0.999999999               0.000019624               0.000090195               0.999999999               0.000024010               0.000098313               0.999999999               0.000028677               0.000107056               0.999999999               0.000033697               0.000116241               0.999999999               0.000039107               0.000125911               0.999999999               0.000044979               0.000136024               0.999999999              -0.000006674               0.000060451               0.999999999              -0.000005152               0.000054746               0.999999999              -0.000003998               0.000054419               0.999999999              -0.000002635               0.000056717               0.999999999              -0.000000924               0.000060496               0.999999999               0.000001221               0.000065414               0.999999999               0.000003910               0.000071355               0.999999999               0.000007202               0.000078467               0.999999999               0.000011082               0.000086608               0.999999999               0.000015385               0.000095431               0.999999999               0.000019948               0.000104480               0.999999999               0.000024829               0.000113853               0.999999999               0.000030062               0.000124020               0.999999999               0.000035649               0.000134850               0.999999999               0.000041624               0.000146216               0.999999999               0.000048074               0.000158239               0.999999999               0.000055028               0.000170856               0.999999999              -0.000006005               0.000071137               0.999999999              -0.000005788               0.000064533               0.999999999              -0.000004773               0.000064543               0.999999999              -0.000003104               0.000067651               0.999999999              -0.000000911               0.000072556               0.999999999               0.000001846               0.000078859               0.999999999               0.000005228               0.000086458               0.999999999               0.000009323               0.000095455               0.999999999               0.000014006               0.000105484               0.999999999               0.000019067               0.000116066               0.999999999               0.000024398               0.000127063               0.999999999               0.000030034               0.000138586               0.999999999               0.000036097               0.000151102               0.999999999               0.000042596               0.000164526               0.999999999               0.000049583               0.000178540               0.999999999               0.000057064               0.000193355               0.999999999               0.000065028               0.000209044               0.999999999              -0.000005287               0.000081070               0.999999999              -0.000006363               0.000073824               0.999999999              -0.000005353               0.000074280               0.999999999              -0.000003279               0.000078248               0.999999999              -0.000000560               0.000084355               0.999999999               0.000002785               0.000092159               0.999999999               0.000006901               0.000101581               0.999999999               0.000011803               0.000112542               0.999999999               0.000017209               0.000124497               0.999999999               0.000022892               0.000137153               0.999999999               0.000028789               0.000150461               0.999999999               0.000035028               0.000164760               0.999999999               0.000041759               0.000180420               0.999999999               0.000049077               0.000197045               0.999999999               0.000056984               0.000214466               0.999999999               0.000065470               0.000232877               0.999999999               0.000074488               0.000252141               0.999999999              -0.000004498               0.000090069               0.999999999              -0.000006853               0.000082629               0.999999999              -0.000005645               0.000083539               0.999999999              -0.000003165               0.000088433               0.999999999               0.000000039               0.000095831               0.999999999               0.000003987               0.000105269               0.999999999               0.000008879               0.000116662               0.999999999               0.000014515               0.000129638               0.999999999               0.000020439               0.000143760               0.999999999               0.000026523               0.000158885               0.999999999               0.000032817               0.000175301               0.999999999               0.000039500               0.000193228               0.999999999               0.000046929               0.000212473               0.999999999               0.000055028               0.000232923               0.999999999               0.000063723               0.000254436               0.999999999               0.000073077               0.000276933               0.999999999               0.000082740               0.000300118               0.999999999              -0.000003543               0.000098429               0.999999999              -0.000006982               0.000091562               0.999999999              -0.000006269               0.000091685               0.999999999              -0.000004146               0.000095652               0.999999999              -0.000001375               0.000102134               0.999999999               0.000001986               0.000110529               0.999999999               0.000006111               0.000120735               0.999999999               0.000010988               0.000132442               0.999999999               0.000016182               0.000145526               0.999999999               0.000021427               0.000159768               0.999999999               0.000026630               0.000175159               0.999999999               0.000032109               0.000191703               0.999999999               0.000038098               0.000209634               0.999999999               0.000044512               0.000228808               0.999999999               0.000051450               0.000249185               0.999999999               0.000059025               0.000270429               0.999999999               0.000067066               0.000292637               0.999999999              -0.000002658               0.000105953               0.999999999              -0.000006729               0.000099992               0.999999999              -0.000006535               0.000099778               0.999999999              -0.000004895               0.000103044               0.999999999              -0.000002586               0.000108696               0.999999999               0.000000158               0.000116226               0.999999999               0.000003573               0.000125358               0.999999999               0.000007556               0.000136025               0.999999999               0.000011906               0.000148070               0.999999999               0.000016475               0.000161338               0.999999999               0.000020982               0.000175696               0.999999999               0.000025420               0.000191219               0.999999999               0.000030074               0.000207930               0.999999999               0.000035161               0.000225840               0.999999999               0.000040561               0.000244900               0.999999999               0.000046319               0.000264934               0.999999999               0.000052591               0.000285835               0.999999999              -0.000001876               0.000112472               0.999999999              -0.000006150               0.000107782               0.999999999              -0.000006385               0.000107520               0.999999999              -0.000005236               0.000110321               0.999999999              -0.000003487               0.000115374               0.999999999              -0.000001296               0.000122134               0.999999999               0.000001353               0.000130424               0.999999999               0.000004531               0.000140209               0.999999999               0.000008057               0.000151233               0.999999999               0.000011935               0.000163544               0.999999999               0.000015769               0.000177059               0.999999999               0.000019404               0.000191719               0.999999999               0.000023057               0.000207435               0.999999999               0.000026955               0.000224235               0.999999999               0.000030903               0.000242049               0.999999999               0.000035011               0.000260868               0.999999999               0.000039571               0.000280525               0.999999999              -0.000001226               0.000117857               0.999999999              -0.000005251               0.000114594               0.999999999              -0.000005802               0.000114614               0.999999999              -0.000005106               0.000117182               0.999999999              -0.000003858               0.000121793               0.999999999              -0.000002287               0.000127985               0.999999999              -0.000000260               0.000135636               0.999999999               0.000002159               0.000144622               0.999999999               0.000004968               0.000154850               0.999999999               0.000007968               0.000166373               0.999999999               0.000011085               0.000179175               0.999999999               0.000014040               0.000193146               0.999999999               0.000016905               0.000208127               0.999999999               0.000019738               0.000223965               0.999999999               0.000022497               0.000240656               0.999999999               0.000025315               0.000258255               0.999999999               0.000028311               0.000276780               0.999999999              -0.000000757               0.000122151               0.999999999              -0.000004144               0.000120228               0.999999999              -0.000004785               0.000120665               0.999999999              -0.000004443               0.000123221               0.999999999              -0.000003666               0.000127542               0.999999999              -0.000002598               0.000133340               0.999999999              -0.000001152               0.000140566               0.999999999               0.000000596               0.000148988               0.999999999               0.000002565               0.000158659               0.999999999               0.000004767               0.000169662               0.999999999               0.000007133               0.000181871               0.999999999               0.000009465               0.000195203               0.999999999               0.000011642               0.000209485               0.999999999               0.000013549               0.000224530               0.999999999               0.000015369               0.000240438               0.999999999               0.000017174               0.000257170               0.999999999               0.000018877               0.000274809               0.999999999              -0.000000419               0.000125248               0.999999999              -0.000002854               0.000124442               0.999999999              -0.000003412               0.000125315               0.999999999              -0.000003281               0.000127981               0.999999999              -0.000002866               0.000132127               0.999999999              -0.000002214               0.000137741               0.999999999              -0.000001312               0.000144678               0.999999999              -0.000000224               0.000152819               0.999999999               0.000001012               0.000162165               0.999999999               0.000002529               0.000172726               0.999999999               0.000004110               0.000184527               0.999999999               0.000005696               0.000197393               0.999999999               0.000007137               0.000211096               0.999999999               0.000008288               0.000225590               0.999999999               0.000009368               0.000240991               0.999999999               0.000010452               0.000257292               0.999999999               0.000011293               0.000274471               0.999999999              -0.000000175               0.000127093               0.999999999              -0.000001450               0.000127057               0.999999999              -0.000001783               0.000128253               0.999999999              -0.000001737               0.000131015               0.999999999              -0.000001563               0.000135138               0.999999999              -0.000001269               0.000140644               0.999999999              -0.000000847               0.000147434               0.999999999              -0.000000374               0.000155452               0.999999999               0.000000339               0.000164643               0.999999999               0.000001057               0.000174991               0.999999999               0.000001830               0.000186499               0.999999999               0.000002590               0.000199025               0.999999999               0.000003290               0.000212439               0.999999999               0.000003913               0.000226754               0.999999999               0.000004451               0.000241943               0.999999999               0.000004887               0.000257943               0.999999999               0.000005139               0.000274819               0.999999999              -0.000000000               0.000127707               0.999999999              -0.000000000               0.000127947               0.999999999              -0.000000000               0.000129253               0.999999999              -0.000000000               0.000132060               0.999999999              -0.000000000               0.000136200               0.999999999              -0.000000000               0.000141653               0.999999999               0.000000000               0.000148413               0.999999999               0.000000000               0.000156382               0.999999999               0.000000000               0.000165539               0.999999999               0.000000000               0.000175894               0.999999999               0.000000000               0.000187254               0.999999999               0.000000000               0.000199599               0.999999999               0.000000000               0.000213005               0.999999999               0.000000000               0.000227286               0.999999999              -0.000000000               0.000242341               0.999999999              -0.000000000               0.000258293               0.999999999              -0.000000000               0.000275129               0.999999999 </DataArray>
<DataArray type="Float64"                                    Name="stress"                                                      NumberOfComponents="10" format="ascii">
              0.000210977               0.002379590               0.000000000              -0.000218332               0.000865966               0.000647634               0.000000000               0.000000000               0.000000000               0.000000000               0.000246295               0.001993589              -0.000000000              -0.000156838               0.000716802               0.000559964               0.000000000               0.000000000               0.000000000               0.000000000               0.000358142               0.001678366              -0.000000000              -0.000075492               0.000584614               0.000509122               0.000000000               0.000000000               0.000000000               0.000000000               0.000397566               0.001499931              -0.000000000              -0.000038404               0.000512773               0.000474369               0.000000000               0.000000000               0.000000000               0.000000000               0.000407406               0.001392303              -0.000000000              -0.000021260               0.000471183               0.000449923               0.000000000               0.000000000               0.000000000               0.000000000               0.000403495               0.001325465              -0.000000000              -0.000014373               0.000446608               0.000432235               0.000000000               0.000000000               0.000000000               0.000000000               0.000391890               0.001286249               0.000000000              -0.000013822               0.000433353               0.000419530               0.000000000               0.000000000               0.000000000               0.000000000               0.000371077               0.001270368              -0.000000000              -0.000019642               0.000429999               0.000410357               0.000000000               0.000000000               0.000000000               0.000000000               0.000340600               0.001272497              -0.000000000              -0.000031337               0.000434607               0.000403270               0.000000000               0.000000000               0.000000000               0.000000000               0.000305527               0.001290275               0.000000000              -0.000046712               0.000445658               0.000398946               0.000000000               0.000000000               0.000000000               0.000000000               0.000267733               0.001315736              -0.000000000              -0.000064067               0.000459930               0.000395863               0.000000000               0.000000000               0.000000000               0.000000000               0.000228875               0.001340289              -0.000000000              -0.000081708               0.000473994               0.000392287               0.000000000               0.000000000               0.000000000               0.000000000               0.000190808               0.001365001              -0.000000000              -0.000099072               0.000488020               0.000388948               0.000000000               0.000000000               0.000000000               0.000000000               0.000151780               0.001395702              -0.000000000              -0.000117545               0.000504411               0.000386866               0.000000000               0.000000000               0.000000000               0.000000000               0.000106667               0.001429021              -0.000000000              -0.000138627               0.000522544               0.000383917               0.000000000               0.000000000               0.000000000               0.000000000               0.000054166               0.001463604              -0.000000000              -0.000162638               0.000542076               0.000379438               0.000000000               0.000000000               0.000000000               0.000000000               0.000031064               0.001493920              -0.000000000              -0.000175090               0.000556332               0.000381241               0.000000000               0.000000000               0.000000000               0.000000000               0.000223741               0.002342132              -0.000184906              -0.000208863               0.000850324               0.000641461               0.000000000               0.000000000               0.000000000               0.000000000               0.000250936               0.001967127              -0.000126596              -0.000151789               0.000706299               0.000554510               0.000000000               0.000000000               0.000000000               0.000000000               0.000354809               0.001665290              -0.000066316              -0.000075108               0.000580127               0.000505019               0.000000000               0.000000000               0.000000000               0.000000000               0.000389819               0.001494796              -0.000038375              -0.000040667               0.000511816               0.000471149               0.000000000               0.000000000               0.000000000               0.000000000               0.000396474               0.001391558              -0.000025921              -0.000025267               0.000472270               0.000447004               0.000000000               0.000000000               0.000000000               0.000000000               0.000391241               0.001327760              -0.000020487              -0.000019255               0.000449001               0.000429746               0.000000000               0.000000000               0.000000000               0.000000000               0.000378738               0.001292342              -0.000017286              -0.000019516               0.000437282               0.000417766               0.000000000               0.000000000               0.000000000               0.000000000               0.000357654               0.001276924              -0.000014013              -0.000025495               0.000434135               0.000408640               0.000000000               0.000000000               0.000000000               0.000000000               0.000328746               0.001280991              -0.000010808              -0.000036844               0.000439274               0.000402430               0.000000000               0.000000000               0.000000000               0.000000000               0.000294320               0.001297603              -0.000009832              -0.000051830               0.000449807               0.000397976               0.000000000               0.000000000               0.000000000               0.000000000               0.000258487               0.001319528              -0.000013227              -0.000068008               0.000462508               0.000394499               0.000000000               0.000000000               0.000000000               0.000000000               0.000223445               0.001341442              -0.000018394              -0.000083888               0.000475106               0.000391217               0.000000000               0.000000000               0.000000000               0.000000000               0.000187522               0.001364407              -0.000018062              -0.000100230               0.000488208               0.000387978               0.000000000               0.000000000               0.000000000               0.000000000               0.000146237               0.001391842              -0.000014837              -0.000119141               0.000503656               0.000384515               0.000000000               0.000000000               0.000000000               0.000000000               0.000100210               0.001420403              -0.000013339              -0.000139971               0.000520120               0.000380149               0.000000000               0.000000000               0.000000000               0.000000000               0.000051913               0.001450690              -0.000008614              -0.000161869               0.000537515               0.000375646               0.000000000               0.000000000               0.000000000               0.000000000               0.000030710               0.001476248              -0.000005242              -0.000173014               0.000549749               0.000376735               0.000000000               0.000000000               0.000000000               0.000000000               0.000262860               0.002235694              -0.000353752              -0.000180889               0.000805520               0.000624631               0.000000000               0.000000000               0.000000000               0.000000000               0.000267088               0.001891796              -0.000241515              -0.000136316               0.000676031               0.000539715               0.000000000               0.000000000               0.000000000               0.000000000               0.000344814               0.001626469              -0.000126804              -0.000074003               0.000566819               0.000492815               0.000000000               0.000000000               0.000000000               0.000000000               0.000366680               0.001477367              -0.000075609              -0.000047166               0.000508173               0.000461007               0.000000000               0.000000000               0.000000000               0.000000000               0.000367089               0.001388827              -0.000052918              -0.000035945               0.000474919               0.000438975               0.000000000               0.000000000               0.000000000               0.000000000               0.000357920               0.001335474              -0.000042184              -0.000032714               0.000456058               0.000423344               0.000000000               0.000000000               0.000000000               0.000000000               0.000343079               0.001307060              -0.000036011              -0.000034728               0.000447258               0.000412530               0.000000000               0.000000000               0.000000000               0.000000000               0.000321882               0.001297400              -0.000028981              -0.000041469               0.000446285               0.000404816               0.000000000               0.000000000               0.000000000               0.000000000               0.000294264               0.001303035              -0.000022171              -0.000052530               0.000451851               0.000399321               0.000000000               0.000000000               0.000000000               0.000000000               0.000265010               0.001317283              -0.000020907              -0.000065281               0.000460850               0.000395569               0.000000000               0.000000000               0.000000000               0.000000000               0.000235331               0.001332352              -0.000026256              -0.000078295               0.000470211               0.000391916               0.000000000               0.000000000               0.000000000               0.000000000               0.000202975               0.001346699              -0.000032832              -0.000092222               0.000479636               0.000387414               0.000000000               0.000000000               0.000000000               0.000000000               0.000171827               0.001365450              -0.000029830              -0.000106246               0.000490561               0.000384315               0.000000000               0.000000000               0.000000000               0.000000000               0.000136659               0.001386219              -0.000023876              -0.000122030               0.000502745               0.000380715               0.000000000               0.000000000               0.000000000               0.000000000               0.000093003               0.001404036              -0.000020111              -0.000140628               0.000514883               0.000374255               0.000000000               0.000000000               0.000000000               0.000000000               0.000047008               0.001421784              -0.000011483              -0.000160095               0.000527288               0.000367194               0.000000000               0.000000000               0.000000000               0.000000000               0.000026496               0.001436480              -0.000006417              -0.000169624               0.000535363               0.000365739               0.000000000               0.000000000               0.000000000               0.000000000               0.000320080               0.002071899              -0.000489887              -0.000138957               0.000736945               0.000597988               0.000000000               0.000000000               0.000000000               0.000000000               0.000290648               0.001777086              -0.000335538              -0.000113143               0.000630070               0.000516928               0.000000000               0.000000000               0.000000000               0.000000000               0.000329765               0.001566656              -0.000179576              -0.000072170               0.000546270               0.000474100               0.000000000               0.000000000               0.000000000               0.000000000               0.000334319               0.001450714              -0.000111522              -0.000055970               0.000502223               0.000446253               0.000000000               0.000000000               0.000000000               0.000000000               0.000326855               0.001383426              -0.000081150              -0.000050357               0.000477923               0.000427566               0.000000000               0.000000000               0.000000000               0.000000000               0.000312868               0.001344888              -0.000066504              -0.000050785               0.000465220               0.000414435               0.000000000               0.000000000               0.000000000               0.000000000               0.000295265               0.001327313              -0.000055808              -0.000055190               0.000460830               0.000405640               0.000000000               0.000000000               0.000000000               0.000000000               0.000271609               0.001326508              -0.000044770              -0.000063960               0.000463485               0.000399525               0.000000000               0.000000000               0.000000000               0.000000000               0.000246595               0.001335567              -0.000034902              -0.000074473               0.000470009               0.000395536               0.000000000               0.000000000               0.000000000               0.000000000               0.000224680               0.001345956              -0.000032309              -0.000083989               0.000476644               0.000392655               0.000000000               0.000000000               0.000000000               0.000000000               0.000201987               0.001354367              -0.000037953              -0.000093550               0.000482634               0.000389084               0.000000000               0.000000000               0.000000000               0.000000000               0.000176497               0.001361396              -0.000040840              -0.000103988               0.000488457               0.000384469               0.000000000               0.000000000               0.000000000               0.000000000               0.000149644               0.001374210              -0.000033040              -0.000115660               0.000496619               0.000380959               0.000000000               0.000000000               0.000000000               0.000000000               0.000117703               0.001386744              -0.000024658              -0.000129204               0.000505311               0.000376107               0.000000000               0.000000000               0.000000000               0.000000000               0.000082044               0.001399025              -0.000018442              -0.000144111               0.000514374               0.000370263               0.000000000               0.000000000               0.000000000               0.000000000               0.000043660               0.001411114              -0.000008498              -0.000160016               0.000523705               0.000363689               0.000000000               0.000000000               0.000000000               0.000000000               0.000025721               0.001420768              -0.000004073              -0.000167950               0.000529568               0.000361618               0.000000000               0.000000000               0.000000000               0.000000000               0.000382369               0.001866525              -0.000585186              -0.000089927               0.000652145               0.000562217               0.000000000               0.000000000               0.000000000               0.000000000               0.000314181               0.001636199              -0.000404384              -0.000086707               0.000574297               0.000487589               0.000000000               0.000000000               0.000000000               0.000000000               0.000312202               0.001494967              -0.000222708              -0.000069795               0.000521582               0.000451787               0.000000000               0.000000000               0.000000000               0.000000000               0.000300587               0.001417451              -0.000145608              -0.000064461               0.000493966               0.000429505               0.000000000               0.000000000               0.000000000               0.000000000               0.000285713               0.001372408              -0.000110322              -0.000064408               0.000478934               0.000414526               0.000000000               0.000000000               0.000000000               0.000000000               0.000268858               0.001351985              -0.000091085              -0.000068176               0.000473382               0.000405206               0.000000000               0.000000000               0.000000000               0.000000000               0.000247190               0.001349029              -0.000075938              -0.000075932               0.000474982               0.000399050               0.000000000               0.000000000               0.000000000               0.000000000               0.000222407               0.001359049              -0.000059989              -0.000086478               0.000481838               0.000395360               0.000000000               0.000000000               0.000000000               0.000000000               0.000199022               0.001371648              -0.000047939              -0.000096823               0.000489486               0.000392663               0.000000000               0.000000000               0.000000000               0.000000000               0.000181568               0.001379713              -0.000044707              -0.000104376               0.000494692               0.000390316               0.000000000               0.000000000               0.000000000               0.000000000               0.000166082               0.001382592              -0.000047918              -0.000110543               0.000497707               0.000387164               0.000000000               0.000000000               0.000000000               0.000000000               0.000145922               0.001387700              -0.000045639              -0.000118741               0.000502143               0.000383401               0.000000000               0.000000000               0.000000000               0.000000000               0.000125889               0.001400902              -0.000033365              -0.000127904               0.000509597               0.000381693               0.000000000               0.000000000               0.000000000               0.000000000               0.000103152               0.001414466              -0.000023040              -0.000138126               0.000517526               0.000379400               0.000000000               0.000000000               0.000000000               0.000000000               0.000074164               0.001428128              -0.000014741              -0.000150704               0.000526273               0.000375569               0.000000000               0.000000000               0.000000000               0.000000000               0.000040094               0.001442685              -0.000006194              -0.000165300               0.000535990               0.000370690               0.000000000               0.000000000               0.000000000               0.000000000               0.000025299               0.001455424              -0.000004494              -0.000172441               0.000542617               0.000370176               0.000000000               0.000000000               0.000000000               0.000000000               0.000440133               0.001639070              -0.000636626              -0.000039835               0.000559629               0.000519795               0.000000000               0.000000000               0.000000000               0.000000000               0.000333616               0.001482516              -0.000446777              -0.000060209               0.000514237               0.000454028               0.000000000               0.000000000               0.000000000               0.000000000               0.000291928               0.001417572              -0.000256577              -0.000067724               0.000495094               0.000427370               0.000000000               0.000000000               0.000000000               0.000000000               0.000269802               0.001377338              -0.000176805              -0.000070992               0.000482772               0.000411780               0.000000000               0.000000000               0.000000000               0.000000000               0.000252558               0.001356565              -0.000137581              -0.000074861               0.000477138               0.000402276               0.000000000               0.000000000               0.000000000               0.000000000               0.000233460               0.001354739              -0.000113684              -0.000081795               0.000478840               0.000397046               0.000000000               0.000000000               0.000000000               0.000000000               0.000209358               0.001367132              -0.000093068              -0.000092382               0.000486500               0.000394118               0.000000000               0.000000000               0.000000000               0.000000000               0.000183834               0.001388455              -0.000073796              -0.000104619               0.000497687               0.000393068               0.000000000               0.000000000               0.000000000               0.000000000               0.000162118               0.001404026              -0.000060861              -0.000114709               0.000506240               0.000391532               0.000000000               0.000000000               0.000000000               0.000000000               0.000148754               0.001413098              -0.000057329              -0.000120854               0.000511313               0.000390459               0.000000000               0.000000000               0.000000000               0.000000000               0.000136854               0.001420445              -0.000057766              -0.000126235               0.000515555               0.000389320               0.000000000               0.000000000               0.000000000               0.000000000               0.000120132               0.001435470              -0.000048754              -0.000134384               0.000523280               0.000388896               0.000000000               0.000000000               0.000000000               0.000000000               0.000102681               0.001458150              -0.000033491              -0.000143763               0.000533966               0.000390203               0.000000000               0.000000000               0.000000000               0.000000000               0.000084253               0.001482916              -0.000024489              -0.000153769               0.000545557               0.000391788               0.000000000               0.000000000               0.000000000               0.000000000               0.000059416               0.001506018              -0.000016484              -0.000165971               0.000557325               0.000391354               0.000000000               0.000000000               0.000000000               0.000000000               0.000029141               0.001530294              -0.000007157              -0.000180358               0.000570212               0.000389854               0.000000000               0.000000000               0.000000000               0.000000000               0.000018453               0.001551758              -0.000006055              -0.000187050               0.000579598               0.000392548               0.000000000               0.000000000               0.000000000               0.000000000               0.000482318               0.001406018              -0.000647540               0.000005116               0.000466962               0.000472079               0.000000000               0.000000000               0.000000000               0.000000000               0.000347542               0.001329149              -0.000466511              -0.000035816               0.000454984               0.000419168               0.000000000               0.000000000               0.000000000               0.000000000               0.000273242               0.001340286              -0.000283210              -0.000065070               0.000468448               0.000403378               0.000000000               0.000000000               0.000000000               0.000000000               0.000246184               0.001335076              -0.000203684              -0.000074565               0.000469876               0.000395310               0.000000000               0.000000000               0.000000000               0.000000000               0.000229988               0.001338184              -0.000160806              -0.000081027               0.000473066               0.000392039               0.000000000               0.000000000               0.000000000               0.000000000               0.000210280               0.001353974              -0.000131404              -0.000090392               0.000481451               0.000391059               0.000000000               0.000000000               0.000000000               0.000000000               0.000185400               0.001381813              -0.000105890              -0.000103201               0.000495000               0.000391799               0.000000000               0.000000000               0.000000000               0.000000000               0.000160816               0.001411085              -0.000084867              -0.000116079               0.000509050               0.000392971               0.000000000               0.000000000               0.000000000               0.000000000               0.000142723               0.001431475              -0.000072332              -0.000125413               0.000518958               0.000393545               0.000000000               0.000000000               0.000000000               0.000000000               0.000132305               0.001448934              -0.000066436              -0.000131502               0.000526807               0.000395305               0.000000000               0.000000000               0.000000000               0.000000000               0.000123271               0.001474693              -0.000061282              -0.000138110               0.000537596               0.000399486               0.000000000               0.000000000               0.000000000               0.000000000               0.000107978               0.001512349              -0.000047287              -0.000148551               0.000553628               0.000405077               0.000000000               0.000000000               0.000000000               0.000000000               0.000088776               0.001557114              -0.000030179              -0.000161348               0.000572816               0.000411468               0.000000000               0.000000000               0.000000000               0.000000000               0.000068262               0.001602047              -0.000022558              -0.000174657               0.000592230               0.000417572               0.000000000               0.000000000               0.000000000               0.000000000               0.000045687               0.001646177              -0.000016731              -0.000188639               0.000611600               0.000422961               0.000000000               0.000000000               0.000000000               0.000000000               0.000022586               0.001690963              -0.000006713              -0.000202900               0.000631282               0.000428382               0.000000000               0.000000000               0.000000000               0.000000000               0.000017182               0.001723743              -0.000005195              -0.000209024               0.000644250               0.000435226               0.000000000               0.000000000               0.000000000               0.000000000               0.000504806               0.001181005              -0.000623499               0.000041676               0.000379772               0.000421448               0.000000000               0.000000000               0.000000000               0.000000000               0.000355003               0.001186418              -0.000467837              -0.000015177               0.000400528               0.000385351               0.000000000               0.000000000               0.000000000               0.000000000               0.000260135               0.001266211              -0.000303673              -0.000060726               0.000442308               0.000381582               0.000000000               0.000000000               0.000000000               0.000000000               0.000231907               0.001293844              -0.000224988              -0.000074765               0.000456199               0.000381434               0.000000000               0.000000000               0.000000000               0.000000000               0.000217222               0.001320036              -0.000177391              -0.000083546               0.000467856               0.000384310               0.000000000               0.000000000               0.000000000               0.000000000               0.000196666               0.001354507              -0.000142969              -0.000095564               0.000483352               0.000387789               0.000000000               0.000000000               0.000000000               0.000000000               0.000172100               0.001396387              -0.000115206              -0.000110011               0.000502128               0.000392117               0.000000000               0.000000000               0.000000000               0.000000000               0.000151808               0.001432496              -0.000093072              -0.000122134               0.000518205               0.000396071               0.000000000               0.000000000               0.000000000               0.000000000               0.000140270               0.001463601              -0.000077592              -0.000130348               0.000531312               0.000400963               0.000000000               0.000000000               0.000000000               0.000000000               0.000135155               0.001503059              -0.000066045              -0.000137199               0.000546748               0.000409549               0.000000000               0.000000000               0.000000000               0.000000000               0.000129208               0.001560491              -0.000053769              -0.000146608               0.000569028               0.000422420               0.000000000               0.000000000               0.000000000               0.000000000               0.000113419               0.001630966              -0.000036212              -0.000161338               0.000597429               0.000436091               0.000000000               0.000000000               0.000000000               0.000000000               0.000089651               0.001699173              -0.000021096              -0.000178777               0.000625978               0.000447200               0.000000000               0.000000000               0.000000000               0.000000000               0.000064881               0.001764184              -0.000015920              -0.000196192               0.000653453               0.000457260               0.000000000               0.000000000               0.000000000               0.000000000               0.000040378               0.001829451              -0.000011600              -0.000213539               0.000680991               0.000467452               0.000000000               0.000000000               0.000000000               0.000000000               0.000018851               0.001890948              -0.000005053              -0.000229299               0.000706743               0.000477444               0.000000000               0.000000000               0.000000000               0.000000000               0.000013734               0.001929564              -0.000005433              -0.000236044               0.000721863               0.000485818               0.000000000               0.000000000               0.000000000               0.000000000               0.000515751               0.000981532              -0.000575078               0.000070714               0.000303603               0.000374316               0.000000000               0.000000000               0.000000000               0.000000000               0.000362251               0.001056850              -0.000458703               0.000003737               0.000351034               0.000354771               0.000000000               0.000000000               0.000000000               0.000000000               0.000257695               0.001198134              -0.000324254              -0.000053131               0.000417084               0.000363953               0.000000000               0.000000000               0.000000000               0.000000000               0.000230544               0.001257981              -0.000245103              -0.000070794               0.000442921               0.000372127               0.000000000               0.000000000               0.000000000               0.000000000               0.000214906               0.001305869              -0.000192879              -0.000082644               0.000462833               0.000380189               0.000000000               0.000000000               0.000000000               0.000000000               0.000193445               0.001358093              -0.000155352              -0.000097219               0.000485099               0.000387880               0.000000000               0.000000000               0.000000000               0.000000000               0.000169821               0.001411231              -0.000126550              -0.000112721               0.000507979               0.000395258               0.000000000               0.000000000               0.000000000               0.000000000               0.000155612               0.001456176              -0.000101162              -0.000123667               0.000526610               0.000402942               0.000000000               0.000000000               0.000000000               0.000000000               0.000152084               0.001504816              -0.000079287              -0.000131070               0.000545290               0.000414220               0.000000000               0.000000000               0.000000000               0.000000000               0.000151901               0.001570553              -0.000059222              -0.000139356               0.000569965               0.000430608               0.000000000               0.000000000               0.000000000               0.000000000               0.000148668               0.001656698              -0.000039736              -0.000151336               0.000602673               0.000451336               0.000000000               0.000000000               0.000000000               0.000000000               0.000133561               0.001745271              -0.000024320              -0.000168073               0.000637775               0.000469702               0.000000000               0.000000000               0.000000000               0.000000000               0.000110038               0.001826421              -0.000013938              -0.000187038               0.000671147               0.000484109               0.000000000               0.000000000               0.000000000               0.000000000               0.000086309               0.001905374              -0.000007311              -0.000205805               0.000703720               0.000497915               0.000000000               0.000000000               0.000000000               0.000000000               0.000062020               0.001981443              -0.000004494              -0.000224422               0.000735282               0.000510860               0.000000000               0.000000000               0.000000000               0.000000000               0.000042146               0.002047650              -0.000001655              -0.000240151               0.000762594               0.000522443               0.000000000               0.000000000               0.000000000               0.000000000               0.000034121               0.002082627              -0.000000644              -0.000247532               0.000776713               0.000529181               0.000000000               0.000000000               0.000000000               0.000000000               0.000511823               0.000785002              -0.000514583               0.000093807               0.000230396               0.000324202               0.000000000               0.000000000               0.000000000               0.000000000               0.000372244               0.000902129              -0.000443968               0.000026825               0.000291765               0.000318589               0.000000000               0.000000000               0.000000000               0.000000000               0.000266601               0.001090675              -0.000348958              -0.000036359               0.000375674               0.000339315               0.000000000               0.000000000               0.000000000               0.000000000               0.000237683               0.001185443              -0.000272758              -0.000059049               0.000414827               0.000355777               0.000000000               0.000000000               0.000000000               0.000000000               0.000222602               0.001254114              -0.000217026              -0.000073289               0.000442463               0.000369175               0.000000000               0.000000000               0.000000000               0.000000000               0.000203569               0.001320190              -0.000177406              -0.000088685               0.000469621               0.000380935               0.000000000               0.000000000               0.000000000               0.000000000               0.000181048               0.001382866              -0.000147772              -0.000104965               0.000495939               0.000390974               0.000000000               0.000000000               0.000000000               0.000000000               0.000164829               0.001444918              -0.000120185              -0.000118803               0.000521236               0.000402432               0.000000000               0.000000000               0.000000000               0.000000000               0.000162378               0.001514493              -0.000093592              -0.000128420               0.000547633               0.000419213               0.000000000               0.000000000               0.000000000               0.000000000               0.000168786               0.001594013              -0.000069075              -0.000135956               0.000576651               0.000440695               0.000000000               0.000000000               0.000000000               0.000000000               0.000172292               0.001680262              -0.000047381              -0.000145423               0.000608556               0.000463133               0.000000000               0.000000000               0.000000000               0.000000000               0.000167776               0.001773289              -0.000032425              -0.000158745               0.000644005               0.000485261               0.000000000               0.000000000               0.000000000               0.000000000               0.000155886               0.001868284              -0.000020919              -0.000175078               0.000681114               0.000506036               0.000000000               0.000000000               0.000000000               0.000000000               0.000141076               0.001959670              -0.000011525              -0.000192055               0.000717235               0.000525180               0.000000000               0.000000000               0.000000000               0.000000000               0.000120889               0.002038515              -0.000007195              -0.000209480               0.000749325               0.000539845               0.000000000               0.000000000               0.000000000               0.000000000               0.000097985               0.002107205              -0.000004138              -0.000226656               0.000777947               0.000551291               0.000000000               0.000000000               0.000000000               0.000000000               0.000081878               0.002138931               0.000000357              -0.000236661               0.000791857               0.000555195               0.000000000               0.000000000               0.000000000               0.000000000               0.000483082               0.000596851              -0.000441453               0.000106548               0.000163432               0.000269980               0.000000000               0.000000000               0.000000000               0.000000000               0.000378979               0.000746391              -0.000417295               0.000048817               0.000232522               0.000281339               0.000000000               0.000000000               0.000000000               0.000000000               0.000286621               0.000968146              -0.000363882              -0.000013536               0.000327224               0.000313688               0.000000000               0.000000000               0.000000000               0.000000000               0.000255863               0.001094691              -0.000297518              -0.000040888               0.000378523               0.000337635               0.000000000               0.000000000               0.000000000               0.000000000               0.000239416               0.001185556              -0.000241845              -0.000058413               0.000414652               0.000356239               0.000000000               0.000000000               0.000000000               0.000000000               0.000222436               0.001263510              -0.000200947              -0.000074525               0.000446007               0.000371482               0.000000000               0.000000000               0.000000000               0.000000000               0.000202341               0.001339688              -0.000170169              -0.000091583               0.000477086               0.000385503               0.000000000               0.000000000               0.000000000               0.000000000               0.000186880               0.001419168              -0.000142212              -0.000107316               0.000508823               0.000401507               0.000000000               0.000000000               0.000000000               0.000000000               0.000181828               0.001498684              -0.000115719              -0.000119150               0.000539273               0.000420123               0.000000000               0.000000000               0.000000000               0.000000000               0.000191520               0.001583175              -0.000090816              -0.000126077               0.000569745               0.000443669               0.000000000               0.000000000               0.000000000               0.000000000               0.000206210               0.001675354              -0.000066243              -0.000132090               0.000602476               0.000470386               0.000000000               0.000000000               0.000000000               0.000000000               0.000213247               0.001774436              -0.000047148              -0.000141837               0.000638752               0.000496915               0.000000000               0.000000000               0.000000000               0.000000000               0.000210618               0.001872047              -0.000034381              -0.000155024               0.000675684               0.000520660               0.000000000               0.000000000               0.000000000               0.000000000               0.000204225               0.001966496              -0.000023003              -0.000169227               0.000711901               0.000542674               0.000000000               0.000000000               0.000000000               0.000000000               0.000187950               0.002047750              -0.000010736              -0.000185487               0.000744405               0.000558918               0.000000000               0.000000000               0.000000000               0.000000000               0.000163467               0.002117112              -0.000003511              -0.000203338               0.000773476               0.000570138               0.000000000               0.000000000               0.000000000               0.000000000               0.000141915               0.002143068               0.000002141              -0.000214665               0.000785904               0.000571239               0.000000000               0.000000000               0.000000000               0.000000000               0.000430017               0.000427672              -0.000354709               0.000107796               0.000106624               0.000214420               0.000000000               0.000000000               0.000000000               0.000000000               0.000373589               0.000595241              -0.000371935               0.000065690               0.000176515               0.000242205               0.000000000               0.000000000               0.000000000               0.000000000               0.000307784               0.000832196              -0.000357555               0.000011394               0.000273598               0.000284992               0.000000000               0.000000000               0.000000000               0.000000000               0.000282334               0.000985725              -0.000305160              -0.000017341               0.000334352               0.000317011               0.000000000               0.000000000               0.000000000               0.000000000               0.000265115               0.001096909              -0.000254921              -0.000037696               0.000378198               0.000340502               0.000000000               0.000000000               0.000000000               0.000000000               0.000248664               0.001188851              -0.000215306              -0.000055357               0.000414732               0.000359375               0.000000000               0.000000000               0.000000000               0.000000000               0.000233875               0.001282108              -0.000185624              -0.000072560               0.000451552               0.000378992               0.000000000               0.000000000               0.000000000               0.000000000               0.000221576               0.001371341              -0.000159767              -0.000088326               0.000486551               0.000398225               0.000000000               0.000000000               0.000000000               0.000000000               0.000217166               0.001461434              -0.000136594              -0.000101242               0.000520887               0.000419645               0.000000000               0.000000000               0.000000000               0.000000000               0.000223340               0.001561327              -0.000112990              -0.000111413               0.000557575               0.000446162               0.000000000               0.000000000               0.000000000               0.000000000               0.000239719               0.001667441              -0.000087072              -0.000118535               0.000595320               0.000476785               0.000000000               0.000000000               0.000000000               0.000000000               0.000255119               0.001771406              -0.000065333              -0.000125756               0.000632381               0.000506626               0.000000000               0.000000000               0.000000000               0.000000000               0.000262003               0.001868975              -0.000051056              -0.000135370               0.000668109               0.000532738               0.000000000               0.000000000               0.000000000               0.000000000               0.000258583               0.001958521              -0.000034913              -0.000147846               0.000702116               0.000554270               0.000000000               0.000000000               0.000000000               0.000000000               0.000247322               0.002040537              -0.000016148              -0.000162321               0.000734279               0.000571958               0.000000000               0.000000000               0.000000000               0.000000000               0.000230012               0.002114293              -0.000005077              -0.000178032               0.000764101               0.000586070               0.000000000               0.000000000               0.000000000               0.000000000               0.000209890               0.002141162               0.000001239              -0.000188936               0.000776692               0.000587756               0.000000000               0.000000000               0.000000000               0.000000000               0.000356913               0.000290179              -0.000265651               0.000097569               0.000064202               0.000161771               0.000000000               0.000000000               0.000000000               0.000000000               0.000355898               0.000458397              -0.000310485               0.000076161               0.000127410               0.000203571               0.000000000               0.000000000               0.000000000               0.000000000               0.000327979               0.000694619              -0.000326791               0.000036164               0.000219482               0.000255647               0.000000000               0.000000000               0.000000000               0.000000000               0.000311894               0.000864414              -0.000291113               0.000008908               0.000285166               0.000294074               0.000000000               0.000000000               0.000000000               0.000000000               0.000297647               0.000992407              -0.000248818              -0.000012434               0.000334943               0.000322510               0.000000000               0.000000000               0.000000000               0.000000000               0.000284139               0.001102063              -0.000214870              -0.000031206               0.000377753               0.000346547               0.000000000               0.000000000               0.000000000               0.000000000               0.000274539               0.001208805              -0.000189866              -0.000048148               0.000418980               0.000370832               0.000000000               0.000000000               0.000000000               0.000000000               0.000264538               0.001308780              -0.000167470              -0.000064396               0.000457721               0.000393325               0.000000000               0.000000000               0.000000000               0.000000000               0.000260087               0.001415925              -0.000147127              -0.000079458               0.000498456               0.000418998               0.000000000               0.000000000               0.000000000               0.000000000               0.000263873               0.001533021              -0.000126979              -0.000092675               0.000541894               0.000449218               0.000000000               0.000000000               0.000000000               0.000000000               0.000278102               0.001650771              -0.000104565              -0.000102058               0.000584271               0.000482213               0.000000000               0.000000000               0.000000000               0.000000000               0.000296030               0.001759508              -0.000082334              -0.000108927               0.000622806               0.000513879               0.000000000               0.000000000               0.000000000               0.000000000               0.000305560               0.001851318              -0.000063171              -0.000116830               0.000656043               0.000539213               0.000000000               0.000000000               0.000000000               0.000000000               0.000303628               0.001931574              -0.000042558              -0.000127586               0.000686380               0.000558794               0.000000000               0.000000000               0.000000000               0.000000000               0.000300248               0.002013204              -0.000023638              -0.000139057               0.000717414               0.000578356               0.000000000               0.000000000               0.000000000               0.000000000               0.000295243               0.002096556              -0.000009787              -0.000151353               0.000749296               0.000597943               0.000000000               0.000000000               0.000000000               0.000000000               0.000281981               0.002132162              -0.000001106              -0.000160777               0.000764306               0.000603529               0.000000000               0.000000000               0.000000000               0.000000000               0.000276296               0.000186961              -0.000184041               0.000080240               0.000035573               0.000115813               0.000000000               0.000000000               0.000000000               0.000000000               0.000329251               0.000343046              -0.000239508               0.000080587               0.000087485               0.000168072               0.000000000               0.000000000               0.000000000               0.000000000               0.000343776               0.000566665              -0.000271728               0.000058082               0.000169526               0.000227608               0.000000000               0.000000000               0.000000000               0.000000000               0.000341105               0.000742550              -0.000250968               0.000035095               0.000235816               0.000270911               0.000000000               0.000000000               0.000000000               0.000000000               0.000332281               0.000883181              -0.000219425               0.000014208               0.000289655               0.000303862               0.000000000               0.000000000               0.000000000               0.000000000               0.000325973               0.001012404              -0.000194302              -0.000004311               0.000338902               0.000334591               0.000000000               0.000000000               0.000000000               0.000000000               0.000318314               0.001131273              -0.000174913              -0.000022041               0.000384434               0.000362393               0.000000000               0.000000000               0.000000000               0.000000000               0.000309855               0.001244459              -0.000156810              -0.000039362               0.000427936               0.000388574               0.000000000               0.000000000               0.000000000               0.000000000               0.000306478               0.001368111              -0.000140960              -0.000056085               0.000474727               0.000418643               0.000000000               0.000000000               0.000000000               0.000000000               0.000312164               0.001496627              -0.000126735              -0.000070017               0.000522209               0.000452193               0.000000000               0.000000000               0.000000000               0.000000000               0.000321602               0.001618233              -0.000109709              -0.000081678               0.000566632               0.000484954               0.000000000               0.000000000               0.000000000               0.000000000               0.000333487               0.001725973              -0.000089164              -0.000090689               0.000605548               0.000514859               0.000000000               0.000000000               0.000000000               0.000000000               0.000340250               0.001813542              -0.000065523              -0.000099099               0.000637541               0.000538442               0.000000000               0.000000000               0.000000000               0.000000000               0.000343539               0.001897251              -0.000044031              -0.000108329               0.000668520               0.000560191               0.000000000               0.000000000               0.000000000               0.000000000               0.000350217               0.001987521              -0.000029355              -0.000117109               0.000701537               0.000584428               0.000000000               0.000000000               0.000000000               0.000000000               0.000358097               0.002081579              -0.000015856              -0.000125911               0.000735823               0.000609912               0.000000000               0.000000000               0.000000000               0.000000000               0.000354788               0.002125859              -0.000006392              -0.000132686               0.000752841               0.000620155               0.000000000               0.000000000               0.000000000               0.000000000               0.000206344               0.000116904              -0.000112133               0.000062765               0.000018046               0.000080811               0.000000000               0.000000000               0.000000000               0.000000000               0.000303620               0.000255993              -0.000162013               0.000081858               0.000058044               0.000139902               0.000000000               0.000000000               0.000000000               0.000000000               0.000353650               0.000461666              -0.000194991               0.000074910               0.000128917               0.000203827               0.000000000               0.000000000               0.000000000               0.000000000               0.000364787               0.000636098              -0.000184967               0.000057282               0.000192936               0.000250219               0.000000000               0.000000000               0.000000000               0.000000000               0.000364970               0.000787537              -0.000165403               0.000038421               0.000249703               0.000288124               0.000000000               0.000000000               0.000000000               0.000000000               0.000364229               0.000931436              -0.000149112               0.000020156               0.000303757               0.000323913               0.000000000               0.000000000               0.000000000               0.000000000               0.000358972               0.001062178              -0.000135188               0.000001842               0.000353442               0.000355284               0.000000000               0.000000000               0.000000000               0.000000000               0.000353368               0.001188392              -0.000123399              -0.000016036               0.000401472               0.000385436               0.000000000               0.000000000               0.000000000               0.000000000               0.000354741               0.001319365              -0.000114936              -0.000031893               0.000450415               0.000418522               0.000000000               0.000000000               0.000000000               0.000000000               0.000357973               0.001452294              -0.000105139              -0.000047297               0.000499859               0.000452562               0.000000000               0.000000000               0.000000000               0.000000000               0.000361393               0.001577030              -0.000091951              -0.000061606               0.000546207               0.000484601               0.000000000               0.000000000               0.000000000               0.000000000               0.000363569               0.001681477              -0.000075695              -0.000073846               0.000585102               0.000511256               0.000000000               0.000000000               0.000000000               0.000000000               0.000368004               0.001772498              -0.000055953              -0.000083560               0.000618680               0.000535120               0.000000000               0.000000000               0.000000000               0.000000000               0.000380938               0.001869665              -0.000040142              -0.000090856               0.000653501               0.000562645               0.000000000               0.000000000               0.000000000               0.000000000               0.000398305               0.001973066              -0.000030763              -0.000097269               0.000690105               0.000592836               0.000000000               0.000000000               0.000000000               0.000000000               0.000415834               0.002076532              -0.000019114              -0.000103629               0.000726713               0.000623085               0.000000000               0.000000000               0.000000000               0.000000000               0.000421094               0.002126136              -0.000010457              -0.000107856               0.000744657               0.000636801               0.000000000               0.000000000               0.000000000               0.000000000               0.000157200               0.000080262              -0.000051780               0.000048917               0.000010448               0.000059365               0.000000000               0.000000000               0.000000000               0.000000000               0.000283921               0.000202844              -0.000081320               0.000081114               0.000040576               0.000121690               0.000000000               0.000000000               0.000000000               0.000000000               0.000358848               0.000391481              -0.000101869               0.000085632               0.000101949               0.000187580               0.000000000               0.000000000               0.000000000               0.000000000               0.000379611               0.000564220              -0.000098336               0.000071826               0.000164130               0.000235955               0.000000000               0.000000000               0.000000000               0.000000000               0.000386919               0.000721296              -0.000089426               0.000054932               0.000222119               0.000277051               0.000000000               0.000000000               0.000000000               0.000000000               0.000390671               0.000872694              -0.000081074               0.000037415               0.000278423               0.000315838               0.000000000               0.000000000               0.000000000               0.000000000               0.000390374               0.001014202              -0.000073483               0.000019615               0.000331526               0.000351140               0.000000000               0.000000000               0.000000000               0.000000000               0.000389234               0.001149753              -0.000069222               0.000002243               0.000382499               0.000384743               0.000000000               0.000000000               0.000000000               0.000000000               0.000388849               0.001283367              -0.000065938              -0.000014602               0.000432652               0.000418050               0.000000000               0.000000000               0.000000000               0.000000000               0.000387454               0.001414879              -0.000060137              -0.000031564               0.000482143               0.000450579               0.000000000               0.000000000               0.000000000               0.000000000               0.000386744               0.001537387              -0.000052260              -0.000047144               0.000528172               0.000481028               0.000000000               0.000000000               0.000000000               0.000000000               0.000387470               0.001646817              -0.000042743              -0.000060551               0.000569117               0.000508567               0.000000000               0.000000000               0.000000000               0.000000000               0.000394726               0.001751089              -0.000034091              -0.000070864               0.000607312               0.000536448               0.000000000               0.000000000               0.000000000               0.000000000               0.000411230               0.001856439              -0.000027066              -0.000077843               0.000644754               0.000566911               0.000000000               0.000000000               0.000000000               0.000000000               0.000431651               0.001960826              -0.000020599              -0.000083234               0.000681347               0.000598113               0.000000000               0.000000000               0.000000000               0.000000000               0.000455321               0.002067178              -0.000012311              -0.000087652               0.000718270               0.000630618               0.000000000               0.000000000               0.000000000               0.000000000               0.000468019               0.002120779              -0.000007003              -0.000089590               0.000736783               0.000647193               0.000000000               0.000000000               0.000000000               0.000000000               0.000138762               0.000069353               0.000000000               0.000043366               0.000008662               0.000052028               0.000000000               0.000000000               0.000000000               0.000000000               0.000276140               0.000184780               0.000000000               0.000080454               0.000034775               0.000115229               0.000000000               0.000000000               0.000000000               0.000000000               0.000360689               0.000366776               0.000000000               0.000089410               0.000092454               0.000181864               0.000000000               0.000000000               0.000000000               0.000000000               0.000384527               0.000539324              -0.000000000               0.000076781               0.000154179               0.000230960               0.000000000               0.000000000               0.000000000               0.000000000               0.000394026               0.000696966              -0.000000000               0.000060638               0.000212107               0.000272745               0.000000000               0.000000000               0.000000000               0.000000000               0.000400166               0.000851001               0.000000000               0.000043687               0.000269102               0.000312789               0.000000000               0.000000000               0.000000000               0.000000000               0.000402864               0.000997018               0.000000000               0.000026447               0.000323520               0.000349967               0.000000000               0.000000000               0.000000000               0.000000000               0.000404097               0.001136054               0.000000000               0.000009529               0.000375505               0.000385034               0.000000000               0.000000000               0.000000000               0.000000000               0.000399639               0.001271611               0.000000000              -0.000009087               0.000426895               0.000417808               0.000000000               0.000000000               0.000000000               0.000000000               0.000397006               0.001400338               0.000000000              -0.000026165               0.000475496               0.000449331               0.000000000               0.000000000               0.000000000               0.000000000               0.000395026               0.001518246               0.000000000              -0.000041646               0.000519959               0.000478313               0.000000000               0.000000000               0.000000000               0.000000000               0.000398681               0.001635108               0.000000000              -0.000054883               0.000563325               0.000508442               0.000000000               0.000000000               0.000000000               0.000000000               0.000408134               0.001747546               0.000000000              -0.000065393               0.000604307               0.000538914               0.000000000               0.000000000               0.000000000               0.000000000               0.000421243               0.001849879              -0.000000000              -0.000073269               0.000641043               0.000567774               0.000000000               0.000000000               0.000000000               0.000000000               0.000441232               0.001953636              -0.000000000              -0.000078742               0.000677453               0.000598711               0.000000000               0.000000000               0.000000000               0.000000000               0.000470287               0.002064803              -0.000000000              -0.000081743               0.000715508               0.000633766               0.000000000               0.000000000               0.000000000               0.000000000               0.000487670               0.002120905              -0.000000000              -0.000082237               0.000734373               0.000652137               0.000000000               0.000000000               0.000000000               0.000000000               0.000000000               0.000000000               0.000000000               0.000000000               0.000000000               0.000000000               0.000000000               0.000000000               0.000000000               0.000000000               0.000000000               0.000000000               0.000000000               0.000000000               0.000000000               0.000000000               0.000000000               0.000000000               0.000000000               0.000000000               0.000000000               0.000000000               0.000000000               0.000000000               0.000000000               0.000000000               0.000000000               0.000000000               0.000000000               0.000000000               0.000000000               0.000000000               0.000000000               0.000000000               0.000000000               0.000000000               0.000000000               0.000000000               0.000000000               0.000000000               0.000000000               0.000000000               0.000000000               0.000000000               0.000000000               0.000000000               0.000000000               0.000000000               0.000000000               0.000000000               0.000000000               0.000000000               0.000000000               0.000000000               0.000000000               0.000000000               0.000000000               0.000000000               0.000000000               0.000000000               0.000000000               0.000000000               0.000000000               0.000000000               0.000000000               0.000000000               0.000000000               0.000000000               0.000000000               0.000000000               0.000000000               0.000000000               0.000000000               0.000000000               0.000000000               0.000000000               0.000000000               0.000000000               0.000000000               0.000000000               0.000000000               0.000000000               0.000000000               0.000000000               0.000000000               0.000000000               0.000000000               0.000000000               0.000000000               0.000000000               0.000000000               0.000000000               0.000000000               0.000000000               0.000000000               0.000000000               0.000000000               0.000000000               0.000000000               0.000000000               0.000000000               0.000000000               0.000000000               0.000000000               0.000000000               0.000000000               0.000000000               0.000000000               0.000000000               0.000000000               0.000000000               0.000000000               0.000000000               0.000000000               0.000000000               0.000000000               0.000000000               0.000000000               0.000000000               0.000000000               0.000000000               0.000000000               0.000000000               0.000000000               0.000000000               0.000000000               0.000000000               0.000000000               0.000000000               0.000000000               0.000000000               0.000000000               0.000000000               0.000000000               0.000000000               0.000000000               0.000000000               0.000000000               0.000000000               0.000000000               0.000000000               0.000000000               0.000000000               0.000000000               0.000000000               0.000000000               0.000000000               0.000000000               0.000000000               0.000000000               0.000000000               0.000000000               0.000000000               0.000000000               0.000000000               0.000000000               0.000000000               0.000000000               0.000000000               0.000000000               0.000000000               0.000000000               0.000000000               0.000000000               0.000000000               0.000000000               0.000000000               0.000000000               0.000000000               0.000000000               0.000223741               0.002342132               0.000184906              -0.000208863               0.000850324               0.000641461               0.000000000               0.000000000               0.000000000               0.000000000               0.000250936               0.001967127               0.000126596              -0.000151789               0.000706299               0.000554510               0.000000000               0.000000000               0.000000000               0.000000000               0.000354809               0.001665290               0.000066316              -0.000075108               0.000580127               0.000505019               0.000000000               0.000000000               0.000000000               0.000000000               0.000389819               0.001494796               0.000038375              -0.000040667               0.000511816               0.000471149               0.000000000               0.000000000               0.000000000               0.000000000               0.000396474               0.001391558               0.000025921              -0.000025267               0.000472270               0.000447004               0.000000000               0.000000000               0.000000000               0.000000000               0.000391241               0.001327760               0.000020487              -0.000019255               0.000449001               0.000429746               0.000000000               0.000000000               0.000000000               0.000000000               0.000378738               0.001292342               0.000017286              -0.000019516               0.000437282               0.000417766               0.000000000               0.000000000               0.000000000               0.000000000               0.000357654               0.001276924               0.000014013              -0.000025495               0.000434135               0.000408640               0.000000000               0.000000000               0.000000000               0.000000000               0.000328746               0.001280991               0.000010808              -0.000036844               0.000439274               0.000402430               0.000000000               0.000000000               0.000000000               0.000000000               0.000294320               0.001297603               0.000009832              -0.000051830               0.000449807               0.000397976               0.000000000               0.000000000               0.000000000               0.000000000               0.000258487               0.001319528               0.000013227              -0.000068008               0.000462508               0.000394499               0.000000000               0.000000000               0.000000000               0.000000000               0.000223445               0.001341442               0.000018394              -0.000083888               0.000475106               0.000391217               0.000000000               0.000000000               0.000000000               0.000000000               0.000187522               0.001364407               0.000018062              -0.000100230               0.000488208               0.000387978               0.000000000               0.000000000               0.000000000               0.000000000               0.000146237               0.001391842               0.000014837              -0.000119141               0.000503656               0.000384515               0.000000000               0.000000000               0.000000000               0.000000000               0.000100210               0.001420403               0.000013339              -0.000139971               0.000520120               0.000380149               0.000000000               0.000000000               0.000000000               0.000000000               0.000051913               0.001450690               0.000008614              -0.000161869               0.000537515               0.000375646               0.000000000               0.000000000               0.000000000               0.000000000               0.000030710               0.001476248               0.000005242              -0.000173014               0.000549749               0.000376735               0.000000000               0.000000000               0.000000000               0.000000000               0.000262860               0.002235694               0.000353752              -0.000180889               0.000805520               0.000624631               0.000000000               0.000000000               0.000000000               0.000000000               0.000267088               0.001891796               0.000241515              -0.000136316               0.000676031               0.000539715               0.000000000               0.000000000               0.000000000               0.000000000               0.000344814               0.001626469               0.000126804              -0.000074003               0.000566819               0.000492815               0.000000000               0.000000000               0.000000000               0.000000000               0.000366680               0.001477367               0.000075609              -0.000047166               0.000508173               0.000461007               0.000000000               0.000000000               0.000000000               0.000000000               0.000367089               0.001388827               0.000052918              -0.000035945               0.000474919               0.000438975               0.000000000               0.000000000               0.000000000               0.000000000               0.000357920               0.001335474               0.000042184              -0.000032714               0.000456058               0.000423344               0.000000000               0.000000000               0.000000000               0.000000000               0.000343079               0.001307060               0.000036011              -0.000034728               0.000447258               0.000412530               0.000000000               0.000000000               0.000000000               0.000000000               0.000321882               0.001297400               0.000028981              -0.000041469               0.000446285               0.000404816               0.000000000               0.000000000               0.000000000               0.000000000               0.000294264               0.001303035               0.000022171              -0.000052530               0.000451851               0.000399321               0.000000000               0.000000000               0.000000000               0.000000000               0.000265010               0.001317283               0.000020907              -0.000065281               0.000460850               0.000395569               0.000000000               0.000000000               0.000000000               0.000000000               0.000235331               0.001332352               0.000026256              -0.000078295               0.000470211               0.000391916               0.000000000               0.000000000               0.000000000               0.000000000               0.000202975               0.001346699               0.000032832              -0.000092222               0.000479636               0.000387414               0.000000000               0.000000000               0.000000000               0.000000000               0.000171827               0.001365450               0.000029830              -0.000106246               0.000490561               0.000384315               0.000000000               0.000000000               0.000000000               0.000000000               0.000136659               0.001386219               0.000023876              -0.000122030               0.000502745               0.000380715               0.000000000               0.000000000               0.000000000               0.000000000               0.000093003               0.001404036               0.000020111              -0.000140628               0.000514883               0.000374255               0.000000000               0.000000000               0.000000000               0.000000000               0.000047008               0.001421784               0.000011483              -0.000160095               0.000527288               0.000367194               0.000000000               0.000000000               0.000000000               0.000000000               0.000026496               0.001436480               0.000006417              -0.000169624               0.000535363               0.000365739               0.000000000               0.000000000               0.000000000               0.000000000               0.000320080               0.002071899               0.000489887              -0.000138957               0.000736945               0.000597988               0.000000000               0.000000000               0.000000000               0.000000000               0.000290648               0.001777086               0.000335538              -0.000113143               0.000630070               0.000516928               0.000000000               0.000000000               0.000000000               0.000000000               0.000329765               0.001566656               0.000179576              -0.000072170               0.000546270               0.000474100               0.000000000               0.000000000               0.000000000               0.000000000               0.000334319               0.001450714               0.000111522              -0.000055970               0.000502223               0.000446253               0.000000000               0.000000000               0.000000000               0.000000000               0.000326855               0.001383426               0.000081150              -0.000050357               0.000477923               0.000427566               0.000000000               0.000000000               0.000000000               0.000000000               0.000312868               0.001344888               0.000066504              -0.000050785               0.000465220               0.000414435               0.000000000               0.000000000               0.000000000               0.000000000               0.000295265               0.001327313               0.000055808              -0.000055190               0.000460830               0.000405640               0.000000000               0.000000000               0.000000000               0.000000000               0.000271609               0.001326508               0.000044770              -0.000063960               0.000463485               0.000399525               0.000000000               0.000000000               0.000000000               0.000000000               0.000246595               0.001335567               0.000034902              -0.000074473               0.000470009               0.000395536               0.000000000               0.000000000               0.000000000               0.000000000               0.000224680               0.001345956               0.000032309              -0.000083989               0.000476644               0.000392655               0.000000000               0.000000000               0.000000000               0.000000000               0.000201987               0.001354367               0.000037953              -0.000093550               0.000482634               0.000389084               0.000000000               0.000000000               0.000000000               0.000000000               0.000176497               0.001361396               0.000040840              -0.000103988               0.000488457               0.000384469               0.000000000               0.000000000               0.000000000               0.000000000               0.000149644               0.001374210               0.000033040              -0.000115660               0.000496619               0.000380959               0.000000000               0.000000000               0.000000000               0.000000000               0.000117703               0.001386744               0.000024658              -0.000129204               0.000505311               0.000376107               0.000000000               0.000000000               0.000000000               0.000000000               0.000082044               0.001399025               0.000018442              -0.000144111               0.000514374               0.000370263               0.000000000               0.000000000               0.000000000               0.000000000               0.000043660               0.001411114               0.000008498              -0.000160016               0.000523705               0.000363689               0.000000000               0.000000000               0.000000000               0.000000000               0.000025721               0.001420768               0.000004073              -0.000167950               0.000529568               0.000361618               0.000000000               0.000000000               0.000000000               0.000000000               0.000382369               0.001866525               0.000585186              -0.000089927               0.000652145               0.000562217               0.000000000               0.000000000               0.000000000               0.000000000               0.000314181               0.001636199               0.000404384              -0.000086707               0.000574297               0.000487589               0.000000000               0.000000000               0.000000000               0.000000000               0.000312202               0.001494967               0.000222708              -0.000069795               0.000521582               0.000451787               0.000000000               0.000000000               0.000000000               0.000000000               0.000300587               0.001417451               0.000145608              -0.000064461               0.000493966               0.000429505               0.000000000               0.000000000               0.000000000               0.000000000               0.000285713               0.001372408               0.000110322              -0.000064408               0.000478934               0.000414526               0.000000000               0.000000000               0.000000000               0.000000000               0.000268858               0.001351985               0.000091085              -0.000068176               0.000473382               0.000405206               0.000000000               0.000000000               0.000000000               0.000000000               0.000247190               0.001349029               0.000075938              -0.000075932               0.000474982               0.000399050               0.000000000               0.000000000               0.000000000               0.000000000               0.000222407               0.001359049               0.000059989              -0.000086478               0.000481838               0.000395360               0.000000000               0.000000000               0.000000000               0.000000000               0.000199022               0.001371648               0.000047939              -0.000096823               0.000489486               0.000392663               0.000000000               0.000000000               0.000000000               0.000000000               0.000181568               0.001379713               0.000044707              -0.000104376               0.000494692               0.000390316               0.000000000               0.000000000               0.000000000               0.000000000               0.000166082               0.001382592               0.000047918              -0.000110543               0.000497707               0.000387164               0.000000000               0.000000000               0.000000000               0.000000000               0.000145922               0.001387700               0.000045639              -0.000118741               0.000502143               0.000383401               0.000000000               0.000000000               0.000000000               0.000000000               0.000125889               0.001400902               0.000033365              -0.000127904               0.000509597               0.000381693               0.000000000               0.000000000               0.000000000               0.000000000               0.000103152               0.001414466               0.000023040              -0.000138126               0.000517526               0.000379400               0.000000000               0.000000000               0.000000000               0.000000000               0.000074164               0.001428128               0.000014741              -0.000150704               0.000526273               0.000375569               0.000000000               0.000000000               0.000000000               0.000000000               0.000040094               0.001442685               0.000006194              -0.000165300               0.000535990               0.000370690               0.000000000               0.000000000               0.000000000               0.000000000               0.000025299               0.001455424               0.000004494              -0.000172441               0.000542617               0.000370176               0.000000000               0.000000000               0.000000000               0.000000000               0.000440133               0.001639070               0.000636626              -0.000039835               0.000559629               0.000519795               0.000000000               0.000000000               0.000000000               0.000000000               0.000333616               0.001482516               0.000446777              -0.000060209               0.000514237               0.000454028               0.000000000               0.000000000               0.000000000               0.000000000               0.000291928               0.001417572               0.000256577              -0.000067724               0.000495094               0.000427370               0.000000000               0.000000000               0.000000000               0.000000000               0.000269802               0.001377338               0.000176805              -0.000070992               0.000482772               0.000411780               0.000000000               0.000000000               0.000000000               0.000000000               0.000252558               0.001356565               0.000137581              -0.000074861               0.000477138               0.000402276               0.000000000               0.000000000               0.000000000               0.000000000               0.000233460               0.001354739               0.000113684              -0.000081795               0.000478840               0.000397046               0.000000000               0.000000000               0.000000000               0.000000000               0.000209358               0.001367132               0.000093068              -0.000092382               0.000486500               0.000394118               0.000000000               0.000000000               0.000000000               0.000000000               0.000183834               0.001388455               0.000073796              -0.000104619               0.000497687               0.000393068               0.000000000               0.000000000               0.000000000               0.000000000               0.000162118               0.001404026               0.000060861              -0.000114709               0.000506240               0.000391532               0.000000000               0.000000000               0.000000000               0.000000000               0.000148754               0.001413098               0.000057329              -0.000120854               0.000511313               0.000390459               0.000000000               0.000000000               0.000000000               0.000000000               0.000136854               0.001420445               0.000057766              -0.000126235               0.000515555               0.000389320               0.000000000               0.000000000               0.000000000               0.000000000               0.000120132               0.001435470               0.000048754              -0.000134384               0.000523280               0.000388896               0.000000000               0.000000000               0.000000000               0.000000000               0.000102681               0.001458150               0.000033491              -0.000143763               0.000533966               0.000390203               0.000000000               0.000000000               0.000000000               0.000000000               0.000084253               0.001482916               0.000024489              -0.000153769               0.000545557               0.000391788               0.000000000               0.000000000               0.000000000               0.000000000               0.000059416               0.001506018               0.000016484              -0.000165971               0.000557325               0.000391354               0.000000000               0.000000000               0.000000000               0.000000000               0.000029141               0.001530294               0.000007157              -0.000180358               0.000570212               0.000389854               0.000000000               0.000000000               0.000000000               0.000000000               0.000018453               0.001551758               0.000006055              -0.000187050               0.000579598               0.000392548               0.000000000               0.000000000               0.000000000               0.000000000               0.000482318               0.001406018               0.000647540               0.000005116               0.000466962               0.000472079               0.000000000               0.000000000               0.000000000               0.000000000               0.000347542               0.001329149               0.000466511              -0.000035816               0.000454984               0.000419168               0.000000000               0.000000000               0.000000000               0.000000000               0.000273242               0.001340286               0.000283210              -0.000065070               0.000468448               0.000403378               0.000000000               0.000000000               0.000000000               0.000000000               0.000246184               0.001335076               0.000203684              -0.000074565               0.000469876               0.000395310               0.000000000               0.000000000               0.000000000               0.000000000               0.000229988               0.001338184               0.000160806              -0.000081027               0.000473066               0.000392039               0.000000000               0.000000000               0.000000000               0.000000000               0.000210280               0.001353974               0.000131404              -0.000090392               0.000481451               0.000391059               0.000000000               0.000000000               0.000000000               0.000000000               0.000185400               0.001381813               0.000105890              -0.000103201               0.000495000               0.000391799               0.000000000               0.000000000               0.000000000               0.000000000               0.000160816               0.001411085               0.000084867              -0.000116079               0.000509050               0.000392971               0.000000000               0.000000000               0.000000000               0.000000000               0.000142723               0.001431475               0.000072332              -0.000125413               0.000518958               0.000393545               0.000000000               0.000000000               0.000000000               0.000000000               0.000132305               0.001448934               0.000066436              -0.000131502               0.000526807               0.000395305               0.000000000               0.000000000               0.000000000               0.000000000               0.000123271               0.001474693               0.000061282              -0.000138110               0.000537596               0.000399486               0.000000000               0.000000000               0.000000000               0.000000000               0.000107978               0.001512349               0.000047287              -0.000148551               0.000553628               0.000405077               0.000000000               0.000000000               0.000000000               0.000000000               0.000088776               0.001557114               0.000030179              -0.000161348               0.000572816               0.000411468               0.000000000               0.000000000               0.000000000               0.000000000               0.000068262               0.001602047               0.000022558              -0.000174657               0.000592230               0.000417572               0.000000000               0.000000000               0.000000000               0.000000000               0.000045687               0.001646177               0.000016731              -0.000188639               0.000611600               0.000422961               0.000000000               0.000000000               0.000000000               0.000000000               0.000022586               0.001690963               0.000006713              -0.000202900               0.000631282               0.000428382               0.000000000               0.000000000               0.000000000               0.000000000               0.000017182               0.001723743               0.000005195              -0.000209024               0.000644250               0.000435226               0.000000000               0.000000000               0.000000000               0.000000000               0.000504806               0.001181005               0.000623499               0.000041676               0.000379772               0.000421448               0.000000000               0.000000000               0.000000000               0.000000000               0.000355003               0.001186418               0.000467837              -0.000015177               0.000400528               0.000385351               0.000000000               0.000000000               0.000000000               0.000000000               0.000260135               0.001266211               0.000303673              -0.000060726               0.000442308               0.000381582               0.000000000               0.000000000               0.000000000               0.000000000               0.000231907               0.001293844               0.000224988              -0.000074765               0.000456199               0.000381434               0.000000000               0.000000000               0.000000000               0.000000000               0.000217222               0.001320036               0.000177391              -0.000083546               0.000467856               0.000384310               0.000000000               0.000000000               0.000000000               0.000000000               0.000196666               0.001354507               0.000142969              -0.000095564               0.000483352               0.000387789               0.000000000               0.000000000               0.000000000               0.000000000               0.000172100               0.001396387               0.000115206              -0.000110011               0.000502128               0.000392117               0.000000000               0.000000000               0.000000000               0.000000000               0.000151808               0.001432496               0.000093072              -0.000122134               0.000518205               0.000396071               0.000000000               0.000000000               0.000000000               0.000000000               0.000140270               0.001463601               0.000077592              -0.000130348               0.000531312               0.000400963               0.000000000               0.000000000               0.000000000               0.000000000               0.000135155               0.001503059               0.000066045              -0.000137199               0.000546748               0.000409549               0.000000000               0.000000000               0.000000000               0.000000000               0.000129208               0.001560491               0.000053769              -0.000146608               0.000569028               0.000422420               0.000000000               0.000000000               0.000000000               0.000000000               0.000113419               0.001630966               0.000036212              -0.000161338               0.000597429               0.000436091               0.000000000               0.000000000               0.000000000               0.000000000               0.000089651               0.001699173               0.000021096              -0.000178777               0.000625978               0.000447200               0.000000000               0.000000000               0.000000000               0.000000000               0.000064881               0.001764184               0.000015920              -0.000196192               0.000653453               0.000457260               0.000000000               0.000000000               0.000000000               0.000000000               0.000040378               0.001829451               0.000011600              -0.000213539               0.000680991               0.000467452               0.000000000               0.000000000               0.000000000               0.000000000               0.000018851               0.001890948               0.000005053              -0.000229299               0.000706743               0.000477444               0.000000000               0.000000000               0.000000000               0.000000000               0.000013734               0.001929564               0.000005433              -0.000236044               0.000721863               0.000485818               0.000000000               0.000000000               0.000000000               0.000000000               0.000515751               0.000981532               0.000575078               0.000070714               0.000303603               0.000374316               0.000000000               0.000000000               0.000000000               0.000000000               0.000362251               0.001056850               0.000458703               0.000003737               0.000351034               0.000354771               0.000000000               0.000000000               0.000000000               0.000000000               0.000257695               0.001198134               0.000324254              -0.000053131               0.000417084               0.000363953               0.000000000               0.000000000               0.000000000               0.000000000               0.000230544               0.001257981               0.000245103              -0.000070794               0.000442921               0.000372127               0.000000000               0.000000000               0.000000000               0.000000000               0.000214906               0.001305869               0.000192879              -0.000082644               0.000462833               0.000380189               0.000000000               0.000000000               0.000000000               0.000000000               0.000193445               0.001358093               0.000155352              -0.000097219               0.000485099               0.000387880               0.000000000               0.000000000               0.000000000               0.000000000               0.000169821               0.001411231               0.000126550              -0.000112721               0.000507979               0.000395258               0.000000000               0.000000000               0.000000000               0.000000000               0.000155612               0.001456176               0.000101162              -0.000123667               0.000526610               0.000402942               0.000000000               0.000000000               0.000000000               0.000000000               0.000152084               0.001504816               0.000079287              -0.000131070               0.000545290               0.000414220               0.000000000               0.000000000               0.000000000               0.000000000               0.000151901               0.001570553               0.000059222              -0.000139356               0.000569965               0.000430608               0.000000000               0.000000000               0.000000000               0.000000000               0.000148668               0.001656698               0.000039736              -0.000151336               0.000602673               0.000451336               0.000000000               0.000000000               0.000000000               0.000000000               0.000133561               0.001745271               0.000024320              -0.000168073               0.000637775               0.000469702               0.000000000               0.000000000               0.000000000               0.000000000               0.000110038               0.001826421               0.000013938              -0.000187038               0.000671147               0.000484109               0.000000000               0.000000000               0.000000000               0.000000000               0.000086309               0.001905374               0.000007311              -0.000205805               0.000703720               0.000497915               0.000000000               0.000000000               0.000000000               0.000000000               0.000062020               0.001981443               0.000004494              -0.000224422               0.000735282               0.000510860               0.000000000               0.000000000               0.000000000               0.000000000               0.000042146               0.002047650               0.000001655              -0.000240151               0.000762594               0.000522443               0.000000000               0.000000000               0.000000000               0.000000000               0.000034121               0.002082627               0.000000644              -0.000247532               0.000776713               0.000529181               0.000000000               0.000000000               0.000000000               0.000000000               0.000511823               0.000785002               0.000514583               0.000093807               0.000230396               0.000324202               0.000000000               0.000000000               0.000000000               0.000000000               0.000372244               0.000902129               0.000443968               0.000026825               0.000291765               0.000318589               0.000000000               0.000000000               0.000000000               0.000000000               0.000266601               0.001090675               0.000348958              -0.000036359               0.000375674               0.000339315               0.000000000               0.000000000               0.000000000               0.000000000               0.000237683               0.001185443               0.000272758              -0.000059049               0.000414827               0.000355777               0.000000000               0.000000000               0.000000000               0.000000000               0.000222602               0.001254114               0.000217026              -0.000073289               0.000442463               0.000369175               0.000000000               0.000000000               0.000000000               0.000000000               0.000203569               0.001320190               0.000177406              -0.000088685               0.000469621               0.000380935               0.000000000               0.000000000               0.000000000               0.000000000               0.000181048               0.001382866               0.000147772              -0.000104965               0.000495939               0.000390974               0.000000000               0.000000000               0.000000000               0.000000000               0.000164829               0.001444918               0.000120185              -0.000118803               0.000521236               0.000402432               0.000000000               0.000000000               0.000000000               0.000000000               0.000162378               0.001514493               0.000093592              -0.000128420               0.000547633               0.000419213               0.000000000               0.000000000               0.000000000               0.000000000               0.000168786               0.001594013               0.000069075              -0.000135956               0.000576651               0.000440695               0.000000000               0.000000000               0.000000000               0.000000000               0.000172292               0.001680262               0.000047381              -0.000145423               0.000608556               0.000463133               0.000000000               0.000000000               0.000000000               0.000000000               0.000167776               0.001773289               0.000032425              -0.000158745               0.000644005               0.000485261               0.000000000               0.000000000               0.000000000               0.000000000               0.000155886               0.001868284               0.000020919              -0.000175078               0.000681114               0.000506036               0.000000000               0.000000000               0.000000000               0.000000000               0.000141076               0.001959670               0.000011525              -0.000192055               0.000717235               0.000525180               0.000000000               0.000000000               0.000000000               0.000000000               0.000120889               0.002038515               0.000007195              -0.000209480               0.000749325               0.000539845               0.000000000               0.000000000               0.000000000               0.000000000               0.000097985               0.002107205               0.000004138              -0.000226656               0.000777947               0.000551291               0.000000000               0.000000000               0.000000000               0.000000000               0.000081878               0.002138931              -0.000000357              -0.000236661               0.000791857               0.000555195               0.000000000               0.000000000               0.000000000               0.000000000               0.000483082               0.000596851               0.000441453               0.000106548               0.000163432               0.000269980               0.000000000               0.000000000               0.000000000               0.000000000               0.000378979               0.000746391               0.000417295               0.000048817               0.000232522               0.000281339               0.000000000               0.000000000               0.000000000               0.000000000               0.000286621               0.000968146               0.000363882              -0.000013536               0.000327224               0.000313688               0.000000000               0.000000000               0.000000000               0.000000000               0.000255863               0.001094691               0.000297518              -0.000040888               0.000378523               0.000337635               0.000000000               0.000000000               0.000000000               0.000000000               0.000239416               0.001185556               0.000241845              -0.000058413               0.000414652               0.000356239               0.000000000               0.000000000               0.000000000               0.000000000               0.000222436               0.001263510               0.000200947              -0.000074525               0.000446007               0.000371482               0.000000000               0.000000000               0.000000000               0.000000000               0.000202341               0.001339688               0.000170169              -0.000091583               0.000477086               0.000385503               0.000000000               0.000000000               0.000000000               0.000000000               0.000186880               0.001419168               0.000142212              -0.000107316               0.000508823               0.000401507               0.000000000               0.000000000               0.000000000               0.000000000               0.000181828               0.001498684               0.000115719              -0.000119150               0.000539273               0.000420123               0.000000000               0.000000000               0.000000000               0.000000000               0.000191520               0.001583175               0.000090816              -0.000126077               0.000569745               0.000443669               0.000000000               0.000000000               0.000000000               0.000000000               0.000206210               0.001675354               0.000066243              -0.000132090               0.000602476               0.000470386               0.000000000               0.000000000               0.000000000               0.000000000               0.000213247               0.001774436               0.000047148              -0.000141837               0.000638752               0.000496915               0.000000000               0.000000000               0.000000000               0.000000000               0.000210618               0.001872047               0.000034381              -0.000155024               0.000675684               0.000520660               0.000000000               0.000000000               0.000000000               0.000000000               0.000204225               0.001966496               0.000023003              -0.000169227               0.000711901               0.000542674               0.000000000               0.000000000               0.000000000               0.000000000               0.000187950               0.002047750               0.000010736              -0.000185487               0.000744405               0.000558918               0.000000000               0.000000000               0.000000000               0.000000000               0.000163467               0.002117112               0.000003511              -0.000203338               0.000773476               0.000570138               0.000000000               0.000000000               0.000000000               0.000000000               0.000141915               0.002143068              -0.000002141              -0.000214665               0.000785904               0.000571239               0.000000000               0.000000000               0.000000000               0.000000000               0.000430017               0.000427672               0.000354709               0.000107796               0.000106624               0.000214420               0.000000000               0.000000000               0.000000000               0.000000000               0.000373589               0.000595241               0.000371935               0.000065690               0.000176515               0.000242205               0.000000000               0.000000000               0.000000000               0.000000000               0.000307784               0.000832196               0.000357555               0.000011394               0.000273598               0.000284992               0.000000000               0.000000000               0.000000000               0.000000000               0.000282334               0.000985725               0.000305160              -0.000017341               0.000334352               0.000317011               0.000000000               0.000000000               0.000000000               0.000000000               0.000265115               0.001096909               0.000254921              -0.000037696               0.000378198               0.000340502               0.000000000               0.000000000               0.000000000               0.000000000               0.000248664               0.001188851               0.000215306              -0.000055357               0.000414732               0.000359375               0.000000000               0.000000000               0.000000000               0.000000000               0.000233875               0.001282108               0.000185624              -0.000072560               0.000451552               0.000378992               0.000000000               0.000000000               0.000000000               0.000000000               0.000221576               0.001371341               0.000159767              -0.000088326               0.000486551               0.000398225               0.000000000               0.000000000               0.000000000               0.000000000               0.000217166               0.001461434               0.000136594              -0.000101242               0.000520887               0.000419645               0.000000000               0.000000000               0.000000000               0.000000000               0.000223340               0.001561327               0.000112990              -0.000111413               0.000557575               0.000446162               0.000000000               0.000000000               0.000000000               0.000000000               0.000239719               0.001667441               0.000087072              -0.000118535               0.000595320               0.000476785               0.000000000               0.000000000               0.000000000               0.000000000               0.000255119               0.001771406               0.000065333              -0.000125756               0.000632381               0.000506626               0.000000000               0.000000000               0.000000000               0.000000000               0.000262003               0.001868975               0.000051056              -0.000135370               0.000668109               0.000532738               0.000000000               0.000000000               0.000000000               0.000000000               0.000258583               0.001958521               0.000034913              -0.000147846               0.000702116               0.000554270               0.000000000               0.000000000               0.000000000               0.000000000               0.000247322               0.002040537               0.000016148              -0.000162321               0.000734279               0.000571958               0.000000000               0.000000000               0.000000000               0.000000000               0.000230012               0.002114293               0.000005077              -0.000178032               0.000764101               0.000586070               0.000000000               0.000000000               0.000000000               0.000000000               0.000209890               0.002141162              -0.000001239              -0.000188936               0.000776692               0.000587756               0.000000000               0.000000000               0.000000000               0.000000000               0.000356913               0.000290179               0.000265651               0.000097569               0.000064202               0.000161771               0.000000000               0.000000000               0.000000000               0.000000000               0.000355898               0.000458397               0.000310485               0.000076161               0.000127410               0.000203571               0.000000000               0.000000000               0.000000000               0.000000000               0.000327979               0.000694619               0.000326791               0.000036164               0.000219482               0.000255647               0.000000000               0.000000000               0.000000000               0.000000000               0.000311894               0.000864414               0.000291113               0.000008908               0.000285166               0.000294074               0.000000000               0.000000000               0.000000000               0.000000000               0.000297647               0.000992407               0.000248818              -0.000012434               0.000334943               0.000322510               0.000000000               0.000000000               0.000000000               0.000000000               0.000284139               0.001102063               0.000214870              -0.000031206               0.000377753               0.000346547               0.000000000               0.000000000               0.000000000               0.000000000               0.000274539               0.001208805               0.000189866              -0.000048148               0.000418980               0.000370832               0.000000000               0.000000000               0.000000000               0.000000000               0.000264538               0.001308780               0.000167470              -0.000064396               0.000457721               0.000393325               0.000000000               0.000000000               0.000000000               0.000000000               0.000260087               0.001415925               0.000147127              -0.000079458               0.000498456               0.000418998               0.000000000               0.000000000               0.000000000               0.000000000               0.000263873               0.001533021               0.000126979              -0.000092675               0.000541894               0.000449218               0.000000000               0.000000000               0.000000000               0.000000000               0.000278102               0.001650771               0.000104565              -0.000102058               0.000584271               0.000482213               0.000000000               0.000000000               0.000000000               0.000000000               0.000296030               0.001759508               0.000082334              -0.000108927               0.000622806               0.000513879               0.000000000               0.000000000               0.000000000               0.000000000               0.000305560               0.001851318               0.000063171              -0.000116830               0.000656043               0.000539213               0.000000000               0.000000000               0.000000000               0.000000000               0.000303628               0.001931574               0.000042558              -0.000127586               0.000686380               0.000558794               0.000000000               0.000000000               0.000000000               0.000000000               0.000300248               0.002013204               0.000023638              -0.000139057               0.000717414               0.000578356               0.000000000               0.000000000               0.000000000               0.000000000               0.000295243               0.002096556               0.000009787              -0.000151353               0.000749296               0.000597943               0.000000000               0.000000000               0.000000000               0.000000000               0.000281981               0.002132162               0.000001106              -0.000160777               0.000764306               0.000603529               0.000000000               0.000000000               0.000000000               0.000000000               0.000276296               0.000186961               0.000184041               0.000080240               0.000035573               0.000115813               0.000000000               0.000000000               0.000000000               0.000000000               0.000329251               0.000343046               0.000239508               0.000080587               0.000087485               0.000168072               0.000000000               0.000000000               0.000000000               0.000000000               0.000343776               0.000566665               0.000271728               0.000058082               0.000169526               0.000227608               0.000000000               0.000000000               0.000000000               0.000000000               0.000341105               0.000742550               0.000250968               0.000035095               0.000235816               0.000270911               0.000000000               0.000000000               0.000000000               0.000000000               0.000332281               0.000883181               0.000219425               0.000014208               0.000289655               0.000303862               0.000000000               0.000000000               0.000000000               0.000000000               0.000325973               0.001012404               0.000194302              -0.000004311               0.000338902               0.000334591               0.000000000               0.000000000               0.000000000               0.000000000               0.000318314               0.001131273               0.000174913              -0.000022041               0.000384434               0.000362393               0.000000000               0.000000000               0.000000000               0.000000000               0.000309855               0.001244459               0.000156810              -0.000039362               0.000427936               0.000388574               0.000000000               0.000000000               0.000000000               0.000000000               0.000306478               0.001368111               0.000140960              -0.000056085               0.000474727               0.000418643               0.000000000               0.000000000               0.000000000               0.000000000               0.000312164               0.001496627               0.000126735              -0.000070017               0.000522209               0.000452193               0.000000000               0.000000000               0.000000000               0.000000000               0.000321602               0.001618233               0.000109709              -0.000081678               0.000566632               0.000484954               0.000000000               0.000000000               0.000000000               0.000000000               0.000333487               0.001725973               0.000089164              -0.000090689               0.000605548               0.000514859               0.000000000               0.000000000               0.000000000               0.000000000               0.000340250               0.001813542               0.000065523              -0.000099099               0.000637541               0.000538442               0.000000000               0.000000000               0.000000000               0.000000000               0.000343539               0.001897251               0.000044031              -0.000108329               0.000668520               0.000560191               0.000000000               0.000000000               0.000000000               0.000000000               0.000350217               0.001987521               0.000029355              -0.000117109               0.000701537               0.000584428               0.000000000               0.000000000               0.000000000               0.000000000               0.000358097               0.002081579               0.000015856              -0.000125911               0.000735823               0.000609912               0.000000000               0.000000000               0.000000000               0.000000000               0.000354788               0.002125859               0.000006392              -0.000132686               0.000752841               0.000620155               0.000000000               0.000000000               0.000000000               0.000000000               0.000206344               0.000116904               0.000112133               0.000062765               0.000018046               0.000080811               0.000000000               0.000000000               0.000000000               0.000000000               0.000303620               0.000255993               0.000162013               0.000081858               0.000058044               0.000139902               0.000000000               0.000000000               0.000000000               0.000000000               0.000353650               0.000461666               0.000194991               0.000074910               0.000128917               0.000203827               0.000000000               0.000000000               0.000000000               0.000000000               0.000364787               0.000636098               0.000184967               0.000057282               0.000192936               0.000250219               0.000000000               0.000000000               0.000000000               0.000000000               0.000364970               0.000787537               0.000165403               0.000038421               0.000249703               0.000288124               0.000000000               0.000000000               0.000000000               0.000000000               0.000364229               0.000931436               0.000149112               0.000020156               0.000303757               0.000323913               0.000000000               0.000000000               0.000000000               0.000000000               0.000358972               0.001062178               0.000135188               0.000001842               0.000353442               0.000355284               0.000000000               0.000000000               0.000000000               0.000000000               0.000353368               0.001188392               0.000123399              -0.000016036               0.000401472               0.000385436               0.000000000               0.000000000               0.000000000               0.000000000               0.000354741               0.001319365               0.000114936              -0.000031893               0.000450415               0.000418522               0.000000000               0.000000000               0.000000000               0.000000000               0.000357973               0.001452294               0.000105139              -0.000047297               0.000499859               0.000452562               0.000000000               0.000000000               0.000000000               0.000000000               0.000361393               0.001577030               0.000091951              -0.000061606               0.000546207               0.000484601               0.000000000               0.000000000               0.000000000               0.000000000               0.000363569               0.001681477               0.000075695              -0.000073846               0.000585102               0.000511256               0.000000000               0.000000000               0.000000000               0.000000000               0.000368004               0.001772498               0.000055953              -0.000083560               0.000618680               0.000535120               0.000000000               0.000000000               0.000000000               0.000000000               0.000380938               0.001869665               0.000040142              -0.000090856               0.000653501               0.000562645               0.000000000               0.000000000               0.000000000               0.000000000               0.000398305               0.001973066               0.000030763              -0.000097269               0.000690105               0.000592836               0.000000000               0.000000000               0.000000000               0.000000000               0.000415834               0.002076532               0.000019114              -0.000103629               0.000726713               0.000623085               0.000000000               0.000000000               0.000000000               0.000000000               0.000421094               0.002126136               0.000010457              -0.000107856               0.000744657               0.000636801               0.000000000               0.000000000               0.000000000               0.000000000               0.000157200               0.000080262               0.000051780               0.000048917               0.000010448               0.000059365               0.000000000               0.000000000               0.000000000               0.000000000               0.000283921               0.000202844               0.000081320               0.000081114               0.000040576               0.000121690               0.000000000               0.000000000               0.000000000               0.000000000               0.000358848               0.000391481               0.000101869               0.000085632               0.000101949               0.000187580               0.000000000               0.000000000               0.000000000               0.000000000               0.000379611               0.000564220               0.000098336               0.000071826               0.000164130               0.000235955               0.000000000               0.000000000               0.000000000               0.000000000               0.000386919               0.000721296               0.000089426               0.000054932               0.000222119               0.000277051               0.000000000               0.000000000               0.000000000               0.000000000               0.000390671               0.000872694               0.000081074               0.000037415               0.000278423               0.000315838               0.000000000               0.000000000               0.000000000               0.000000000               0.000390374               0.001014202               0.000073483               0.000019615               0.000331526               0.000351140               0.000000000               0.000000000               0.000000000               0.000000000               0.000389234               0.001149753               0.000069222               0.000002243               0.000382499               0.000384743               0.000000000               0.000000000               0.000000000               0.000000000               0.000388849               0.001283367               0.000065938              -0.000014602               0.000432652               0.000418050               0.000000000               0.000000000               0.000000000               0.000000000               0.000387454               0.001414879               0.000060137              -0.000031564               0.000482143               0.000450579               0.000000000               0.000000000               0.000000000               0.000000000               0.000386744               0.001537387               0.000052260              -0.000047144               0.000528172               0.000481028               0.000000000               0.000000000               0.000000000               0.000000000               0.000387470               0.001646817               0.000042743              -0.000060551               0.000569117               0.000508567               0.000000000               0.000000000               0.000000000               0.000000000               0.000394726               0.001751089               0.000034091              -0.000070864               0.000607312               0.000536448               0.000000000               0.000000000               0.000000000               0.000000000               0.000411230               0.001856439               0.000027066              -0.000077843               0.000644754               0.000566911               0.000000000               0.000000000               0.000000000               0.000000000               0.000431651               0.001960826               0.000020599              -0.000083234               0.000681347               0.000598113               0.000000000               0.000000000               0.000000000               0.000000000               0.000455321               0.002067178               0.000012311              -0.000087652               0.000718270               0.000630618               0.000000000               0.000000000               0.000000000               0.000000000               0.000468019               0.002120779               0.000007003              -0.000089590               0.000736783               0.000647193               0.000000000               0.000000000               0.000000000               0.000000000               0.000138762               0.000069353               0.000000000               0.000043366               0.000008662               0.000052028               0.000000000               0.000000000               0.000000000               0.000000000               0.000276140               0.000184780               0.000000000               0.000080454               0.000034775               0.000115229               0.000000000               0.000000000               0.000000000               0.000000000               0.000360689               0.000366776              -0.000000000               0.000089410               0.000092454               0.000181864               0.000000000               0.000000000               0.000000000               0.000000000               0.000384527               0.000539324               0.000000000               0.000076781               0.000154179               0.000230960               0.000000000               0.000000000               0.000000000               0.000000000               0.000394026               0.000696966               0.000000000               0.000060638               0.000212107               0.000272745               0.000000000               0.000000000               0.000000000               0.000000000               0.000400166               0.000851001               0.000000000               0.000043687               0.000269102               0.000312789               0.000000000               0.000000000               0.000000000               0.000000000               0.000402864               0.000997018               0.000000000               0.000026447               0.000323520               0.000349967               0.000000000               0.000000000               0.000000000               0.000000000               0.000404097               0.001136054               0.000000000               0.000009529               0.000375505               0.000385034               0.000000000               0.000000000               0.000000000               0.000000000               0.000399639               0.001271611               0.000000000              -0.000009087               0.000426895               0.000417808               0.000000000               0.000000000               0.000000000               0.000000000               0.000397006               0.001400338               0.000000000              -0.000026165               0.000475496               0.000449331               0.000000000               0.000000000               0.000000000               0.000000000               0.000395026               0.001518246               0.000000000              -0.000041646               0.000519959               0.000478313               0.000000000               0.000000000               0.000000000               0.000000000               0.000398681               0.001635108               0.000000000              -0.000054883               0.000563325               0.000508442               0.000000000               0.000000000               0.000000000               0.000000000               0.000408134               0.001747546               0.000000000              -0.000065393               0.000604307               0.000538914               0.000000000               0.000000000               0.000000000               0.000000000               0.000421243               0.001849879               0.000000000              -0.000073269               0.000641043               0.000567774               0.000000000               0.000000000               0.000000000               0.000000000               0.000441232               0.001953636               0.000000000              -0.000078742               0.000677453               0.000598711               0.000000000               0.000000000               0.000000000               0.000000000               0.000470287               0.002064803               0.000000000              -0.000081743               0.000715508               0.000633766               0.000000000               0.000000000               0.000000000               0.000000000               0.000487670               0.002120905              -0.000000000              -0.000082237               0.000734373               0.000652137               0.000000000               0.000000000               0.000000000               0.000000000               0.000210977               0.002379590               0.000000000              -0.000218332               0.000865966               0.000647634               0.000000000               0.000000000               0.000000000               0.000000000               0.000246295               0.001993589               0.000000000              -0.000156838               0.000716802               0.000559964               0.000000000               0.000000000               0.000000000               0.000000000               0.000358142               0.001678366               0.000000000              -0.000075492               0.000584614               0.000509122               0.000000000               0.000000000               0.000000000               0.000000000               0.000397566               0.001499931               0.000000000              -0.000038404               0.000512773               0.000474369               0.000000000               0.000000000               0.000000000               0.000000000               0.000407406               0.001392303               0.000000000              -0.000021260               0.000471183               0.000449923               0.000000000               0.000000000               0.000000000               0.000000000               0.000403495               0.001325465               0.000000000              -0.000014373               0.000446608               0.000432235               0.000000000               0.000000000               0.000000000               0.000000000               0.000391890               0.001286249               0.000000000              -0.000013822               0.000433353               0.000419530               0.000000000               0.000000000               0.000000000               0.000000000               0.000371077               0.001270368               0.000000000              -0.000019642               0.000429999               0.000410357               0.000000000               0.000000000               0.000000000               0.000000000               0.000340600               0.001272497               0.000000000              -0.000031337               0.000434607               0.000403270               0.000000000               0.000000000               0.000000000               0.000000000               0.000305527               0.001290275               0.000000000              -0.000046712               0.000445658               0.000398946               0.000000000               0.000000000               0.000000000               0.000000000               0.000267733               0.001315736              -0.000000000              -0.000064067               0.000459930               0.000395863               0.000000000               0.000000000               0.000000000               0.000000000               0.000228875               0.001340289              -0.000000000              -0.000081708               0.000473994               0.000392287               0.000000000               0.000000000               0.000000000               0.000000000               0.000190808               0.001365001              -0.000000000              -0.000099072               0.000488020               0.000388948               0.000000000               0.000000000               0.000000000               0.000000000               0.000151780               0.001395702              -0.000000000              -0.000117545               0.000504411               0.000386866               0.000000000               0.000000000               0.000000000               0.000000000               0.000106667               0.001429021              -0.000000000              -0.000138627               0.000522544               0.000383917               0.000000000               0.000000000               0.000000000               0.000000000               0.000054166               0.001463604              -0.000000000              -0.000162638               0.000542076               0.000379438               0.000000000               0.000000000               0.000000000               0.000000000               0.000031064               0.001493920              -0.000000000              -0.000175090               0.000556332               0.000381241               0.000000000               0.000000000               0.000000000               0.000000000               0.000223741               0.002342132              -0.000184906              -0.000208863               0.000850324               0.000641461               0.000000000               0.000000000               0.000000000               0.000000000               0.000250936               0.001967127              -0.000126596              -0.000151789               0.000706299               0.000554510               0.000000000               0.000000000               0.000000000               0.000000000               0.000354809               0.001665290              -0.000066316              -0.000075108               0.000580127               0.000505019               0.000000000               0.000000000               0.000000000               0.000000000               0.000389819               0.001494796              -0.000038375              -0.000040667               0.000511816               0.000471149               0.000000000               0.000000000               0.000000000               0.000000000               0.000396474               0.001391558              -0.000025921              -0.000025267               0.000472270               0.000447004               0.000000000               0.000000000               0.000000000               0.000000000               0.000391241               0.001327760              -0.000020487              -0.000019255               0.000449001               0.000429746               0.000000000               0.000000000               0.000000000               0.000000000               0.000378738               0.001292342              -0.000017286              -0.000019516               0.000437282               0.000417766               0.000000000               0.000000000               0.000000000               0.000000000               0.000357654               0.001276924              -0.000014013              -0.000025495               0.000434135               0.000408640               0.000000000               0.000000000               0.000000000               0.000000000               0.000328746               0.001280991              -0.000010808              -0.000036844               0.000439274               0.000402430               0.000000000               0.000000000               0.000000000               0.000000000               0.000294320               0.001297603              -0.000009832              -0.000051830               0.000449807               0.000397976               0.000000000               0.000000000               0.000000000               0.000000000               0.000258487               0.001319528              -0.000013227              -0.000068008               0.000462508               0.000394499               0.000000000               0.000000000               0.000000000               0.000000000               0.000223445               0.001341442              -0.000018394              -0.000083888               0.000475106               0.000391217               0.000000000               0.000000000               0.000000000               0.000000000               0.000187522               0.001364407              -0.000018062              -0.000100230               0.000488208               0.000387978               0.000000000               0.000000000               0.000000000               0.000000000               0.000146237               0.001391842              -0.000014837              -0.000119141               0.000503656               0.000384515               0.000000000               0.000000000               0.000000000               0.000000000               0.000100210               0.001420403              -0.000013339              -0.000139971               0.000520120               0.000380149               0.000000000               0.000000000               0.000000000               0.000000000               0.000051913               0.001450690              -0.000008614              -0.000161869               0.000537515               0.000375646               0.000000000               0.000000000               0.000000000               0.000000000               0.000030710               0.001476248              -0.000005242              -0.000173014               0.000549749               0.000376735               0.000000000               0.000000000               0.000000000               0.000000000               0.000262860               0.002235694              -0.000353752              -0.000180889               0.000805520               0.000624631               0.000000000               0.000000000               0.000000000               0.000000000               0.000267088               0.001891796              -0.000241515              -0.000136316               0.000676031               0.000539715               0.000000000               0.000000000               0.000000000               0.000000000               0.000344814               0.001626469              -0.000126804              -0.000074003               0.000566819               0.000492815               0.000000000               0.000000000               0.000000000               0.000000000               0.000366680               0.001477367              -0.000075609              -0.000047166               0.000508173               0.000461007               0.000000000               0.000000000               0.000000000               0.000000000               0.000367089               0.001388827              -0.000052918              -0.000035945               0.000474919               0.000438975               0.000000000               0.000000000               0.000000000               0.000000000               0.000357920               0.001335474              -0.000042184              -0.000032714               0.000456058               0.000423344               0.000000000               0.000000000               0.000000000               0.000000000               0.000343079               0.001307060              -0.000036011              -0.000034728               0.000447258               0.000412530               0.000000000               0.000000000               0.000000000               0.000000000               0.000321882               0.001297400              -0.000028981              -0.000041469               0.000446285               0.000404816               0.000000000               0.000000000               0.000000000               0.000000000               0.000294264               0.001303035              -0.000022171              -0.000052530               0.000451851               0.000399321               0.000000000               0.000000000               0.000000000               0.000000000               0.000265010               0.001317283              -0.000020907              -0.000065281               0.000460850               0.000395569               0.000000000               0.000000000               0.000000000               0.000000000               0.000235331               0.001332352              -0.000026256              -0.000078295               0.000470211               0.000391916               0.000000000               0.000000000               0.000000000               0.000000000               0.000202975               0.001346699              -0.000032832              -0.000092222               0.000479636               0.000387414               0.000000000               0.000000000               0.000000000               0.000000000               0.000171827               0.001365450              -0.000029830              -0.000106246               0.000490561               0.000384315               0.000000000               0.000000000               0.000000000               0.000000000               0.000136659               0.001386219              -0.000023876              -0.000122030               0.000502745               0.000380715               0.000000000               0.000000000               0.000000000               0.000000000               0.000093003               0.001404036              -0.000020111              -0.000140628               0.000514883               0.000374255               0.000000000               0.000000000               0.000000000               0.000000000               0.000047008               0.001421784              -0.000011483              -0.000160095               0.000527288               0.000367194               0.000000000               0.000000000               0.000000000               0.000000000               0.000026496               0.001436480              -0.000006417              -0.000169624               0.000535363               0.000365739               0.000000000               0.000000000               0.000000000               0.000000000               0.000320080               0.002071899              -0.000489887              -0.000138957               0.000736945               0.000597988               0.000000000               0.000000000               0.000000000               0.000000000               0.000290648               0.001777086              -0.000335538              -0.000113143               0.000630070               0.000516928               0.000000000               0.000000000               0.000000000               0.000000000               0.000329765               0.001566656              -0.000179576              -0.000072170               0.000546270               0.000474100               0.000000000               0.000000000               0.000000000               0.000000000               0.000334319               0.001450714              -0.000111522              -0.000055970               0.000502223               0.000446253               0.000000000               0.000000000               0.000000000               0.000000000               0.000326855               0.001383426              -0.000081150              -0.000050357               0.000477923               0.000427566               0.000000000               0.000000000               0.000000000               0.000000000               0.000312868               0.001344888              -0.000066504              -0.000050785               0.000465220               0.000414435               0.000000000               0.000000000               0.000000000               0.000000000               0.000295265               0.001327313              -0.000055808              -0.000055190               0.000460830               0.000405640               0.000000000               0.000000000               0.000000000               0.000000000               0.000271609               0.001326508              -0.000044770              -0.000063960               0.000463485               0.000399525               0.000000000               0.000000000               0.000000000               0.000000000               0.000246595               0.001335567              -0.000034902              -0.000074473               0.000470009               0.000395536               0.000000000               0.000000000               0.000000000               0.000000000               0.000224680               0.001345956              -0.000032309              -0.000083989               0.000476644               0.000392655               0.000000000               0.000000000               0.000000000               0.000000000               0.000201987               0.001354367              -0.000037953              -0.000093550               0.000482634               0.000389084               0.000000000               0.000000000               0.000000000               0.000000000               0.000176497               0.001361396              -0.000040840              -0.000103988               0.000488457               0.000384469               0.000000000               0.000000000               0.000000000               0.000000000               0.000149644               0.001374210              -0.000033040              -0.000115660               0.000496619               0.000380959               0.000000000               0.000000000               0.000000000               0.000000000               0.000117703               0.001386744              -0.000024658              -0.000129204               0.000505311               0.000376107               0.000000000               0.000000000               0.000000000               0.000000000               0.000082044               0.001399025              -0.000018442              -0.000144111               0.000514374               0.000370263               0.000000000               0.000000000               0.000000000               0.000000000               0.000043660               0.001411114              -0.000008498              -0.000160016               0.000523705               0.000363689               0.000000000               0.000000000               0.000000000               0.000000000               0.000025721               0.001420768              -0.000004073              -0.000167950               0.000529568               0.000361618               0.000000000               0.000000000               0.000000000               0.000000000               0.000382369               0.001866525              -0.000585186              -0.000089927               0.000652145               0.000562217               0.000000000               0.000000000               0.000000000               0.000000000               0.000314181               0.001636199              -0.000404384              -0.000086707               0.000574297               0.000487589               0.000000000               0.000000000               0.000000000               0.000000000               0.000312202               0.001494967              -0.000222708              -0.000069795               0.000521582               0.000451787               0.000000000               0.000000000               0.000000000               0.000000000               0.000300587               0.001417451              -0.000145608              -0.000064461               0.000493966               0.000429505               0.000000000               0.000000000               0.000000000               0.000000000               0.000285713               0.001372408              -0.000110322              -0.000064408               0.000478934               0.000414526               0.000000000               0.000000000               0.000000000               0.000000000               0.000268858               0.001351985              -0.000091085              -0.000068176               0.000473382               0.000405206               0.000000000               0.000000000               0.000000000               0.000000000               0.000247190               0.001349029              -0.000075938              -0.000075932               0.000474982               0.000399050               0.000000000               0.000000000               0.000000000               0.000000000               0.000222407               0.001359049              -0.000059989              -0.000086478               0.000481838               0.000395360               0.000000000               0.000000000               0.000000000               0.000000000               0.000199022               0.001371648              -0.000047939              -0.000096823               0.000489486               0.000392663               0.000000000               0.000000000               0.000000000               0.000000000               0.000181568               0.001379713              -0.000044707              -0.000104376               0.000494692               0.000390316               0.000000000               0.000000000               0.000000000               0.000000000               0.000166082               0.001382592              -0.000047918              -0.000110543               0.000497707               0.000387164               0.000000000               0.000000000               0.000000000               0.000000000               0.000145922               0.001387700              -0.000045639              -0.000118741               0.000502143               0.000383401               0.000000000               0.000000000               0.000000000               0.000000000               0.000125889               0.001400902              -0.000033365              -0.000127904               0.000509597               0.000381693               0.000000000               0.000000000               0.000000000               0.000000000               0.000103152               0.001414466              -0.000023040              -0.000138126               0.000517526               0.000379400               0.000000000               0.000000000               0.000000000               0.000000000               0.000074164               0.001428128              -0.000014741              -0.000150704               0.000526273               0.000375569               0.000000000               0.000000000               0.000000000               0.000000000               0.000040094               0.001442685              -0.000006194              -0.000165300               0.000535990               0.000370690               0.000000000               0.000000000               0.000000000               0.000000000               0.000025299               0.001455424              -0.000004494              -0.000172441               0.000542617               0.000370176               0.000000000               0.000000000               0.000000000               0.000000000               0.000440133               0.001639070              -0.000636626              -0.000039835               0.000559629               0.000519795               0.000000000               0.000000000               0.000000000               0.000000000               0.000333616               0.001482516              -0.000446777              -0.000060209               0.000514237               0.000454028               0.000000000               0.000000000               0.000000000               0.000000000               0.000291928               0.001417572              -0.000256577              -0.000067724               0.000495094               0.000427370               0.000000000               0.000000000               0.000000000               0.000000000               0.000269802               0.001377338              -0.000176805              -0.000070992               0.000482772               0.000411780               0.000000000               0.000000000               0.000000000               0.000000000               0.000252558               0.001356565              -0.000137581              -0.000074861               0.000477138               0.000402276               0.000000000               0.000000000               0.000000000               0.000000000               0.000233460               0.001354739              -0.000113684              -0.000081795               0.000478840               0.000397046               0.000000000               0.000000000               0.000000000               0.000000000               0.000209358               0.001367132              -0.000093068              -0.000092382               0.000486500               0.000394118               0.000000000               0.000000000               0.000000000               0.000000000               0.000183834               0.001388455              -0.000073796              -0.000104619               0.000497687               0.000393068               0.000000000               0.000000000               0.000000000               0.000000000               0.000162118               0.001404026              -0.000060861              -0.000114709               0.000506240               0.000391532               0.000000000               0.000000000               0.000000000               0.000000000               0.000148754               0.001413098              -0.000057329              -0.000120854               0.000511313               0.000390459               0.000000000               0.000000000               0.000000000               0.000000000               0.000136854               0.001420445              -0.000057766              -0.000126235               0.000515555               0.000389320               0.000000000               0.000000000               0.000000000               0.000000000               0.000120132               0.001435470              -0.000048754              -0.000134384               0.000523280               0.000388896               0.000000000               0.000000000               0.000000000               0.000000000               0.000102681               0.001458150              -0.000033491              -0.000143763               0.000533966               0.000390203               0.000000000               0.000000000               0.000000000               0.000000000               0.000084253               0.001482916              -0.000024489              -0.000153769               0.000545557               0.000391788               0.000000000               0.000000000               0.000000000               0.000000000               0.000059416               0.001506018              -0.000016484              -0.000165971               0.000557325               0.000391354               0.000000000               0.000000000               0.000000000               0.000000000               0.000029141               0.001530294              -0.000007157              -0.000180358               0.000570212               0.000389854               0.000000000               0.000000000               0.000000000               0.000000000               0.000018453               0.001551758              -0.000006055              -0.000187050               0.000579598               0.000392548               0.000000000               0.000000000               0.000000000               0.000000000               0.000482318               0.001406018              -0.000647540               0.000005116               0.000466962               0.000472079               0.000000000               0.000000000               0.000000000               0.000000000               0.000347542               0.001329149              -0.000466511              -0.000035816               0.000454984               0.000419168               0.000000000               0.000000000               0.000000000               0.000000000               0.000273242               0.001340286              -0.000283210              -0.000065070               0.000468448               0.000403378               0.000000000               0.000000000               0.000000000               0.000000000               0.000246184               0.001335076              -0.000203684              -0.000074565               0.000469876               0.000395310               0.000000000               0.000000000               0.000000000               0.000000000               0.000229988               0.001338184              -0.000160806              -0.000081027               0.000473066               0.000392039               0.000000000               0.000000000               0.000000000               0.000000000               0.000210280               0.001353974              -0.000131404              -0.000090392               0.000481451               0.000391059               0.000000000               0.000000000               0.000000000               0.000000000               0.000185400               0.001381813              -0.000105890              -0.000103201               0.000495000               0.000391799               0.000000000               0.000000000               0.000000000               0.000000000               0.000160816               0.001411085              -0.000084867              -0.000116079               0.000509050               0.000392971               0.000000000               0.000000000               0.000000000               0.000000000               0.000142723               0.001431475              -0.000072332              -0.000125413               0.000518958               0.000393545               0.000000000               0.000000000               0.000000000               0.000000000               0.000132305               0.001448934              -0.000066436              -0.000131502               0.000526807               0.000395305               0.000000000               0.000000000               0.000000000               0.000000000               0.000123271               0.001474693              -0.000061282              -0.000138110               0.000537596               0.000399486               0.000000000               0.000000000               0.000000000               0.000000000               0.000107978               0.001512349              -0.000047287              -0.000148551               0.000553628               0.000405077               0.000000000               0.000000000               0.000000000               0.000000000               0.000088776               0.001557114              -0.000030179              -0.000161348               0.000572816               0.000411468               0.000000000               0.000000000               0.000000000               0.000000000               0.000068262               0.001602047              -0.000022558              -0.000174657               0.000592230               0.000417572               0.000000000               0.000000000               0.000000000               0.000000000               0.000045687               0.001646177              -0.000016731              -0.000188639               0.000611600               0.000422961               0.000000000               0.000000000               0.000000000               0.000000000               0.000022586               0.001690963              -0.000006713              -0.000202900               0.000631282               0.000428382               0.000000000               0.000000000               0.000000000               0.000000000               0.000017182               0.001723743              -0.000005195              -0.000209024               0.000644250               0.000435226               0.000000000               0.000000000               0.000000000               0.000000000               0.000504806               0.001181005              -0.000623499               0.000041676               0.000379772               0.000421448               0.000000000               0.000000000               0.000000000               0.000000000               0.000355003               0.001186418              -0.000467837              -0.000015177               0.000400528               0.000385351               0.000000000               0.000000000               0.000000000               0.000000000               0.000260135               0.001266211              -0.000303673              -0.000060726               0.000442308               0.000381582               0.000000000               0.000000000               0.000000000               0.000000000               0.000231907               0.001293844              -0.000224988              -0.000074765               0.000456199               0.000381434               0.000000000               0.000000000               0.000000000               0.000000000               0.000217222               0.001320036              -0.000177391              -0.000083546               0.000467856               0.000384310               0.000000000               0.000000000               0.000000000               0.000000000               0.000196666               0.001354507              -0.000142969              -0.000095564               0.000483352               0.000387789               0.000000000               0.000000000               0.000000000               0.000000000               0.000172100               0.001396387              -0.000115206              -0.000110011               0.000502128               0.000392117               0.000000000               0.000000000               0.000000000               0.000000000               0.000151808               0.001432496              -0.000093072              -0.000122134               0.000518205               0.000396071               0.000000000               0.000000000               0.000000000               0.000000000               0.000140270               0.001463601              -0.000077592              -0.000130348               0.000531312               0.000400963               0.000000000               0.000000000               0.000000000               0.000000000               0.000135155               0.001503059              -0.000066045              -0.000137199               0.000546748               0.000409549               0.000000000               0.000000000               0.000000000               0.000000000               0.000129208               0.001560491              -0.000053769              -0.000146608               0.000569028               0.000422420               0.000000000               0.000000000               0.000000000               0.000000000               0.000113419               0.001630966              -0.000036212              -0.000161338               0.000597429               0.000436091               0.000000000               0.000000000               0.000000000               0.000000000               0.000089651               0.001699173              -0.000021096              -0.000178777               0.000625978               0.000447200               0.000000000               0.000000000               0.000000000               0.000000000               0.000064881               0.001764184              -0.000015920              -0.000196192               0.000653453               0.000457260               0.000000000               0.000000000               0.000000000               0.000000000               0.000040378               0.001829451              -0.000011600              -0.000213539               0.000680991               0.000467452               0.000000000               0.000000000               0.000000000               0.000000000               0.000018851               0.001890948              -0.000005053              -0.000229299               0.000706743               0.000477444               0.000000000               0.000000000               0.000000000               0.000000000               0.000013734               0.001929564              -0.000005433              -0.000236044               0.000721863               0.000485818               0.000000000               0.000000000               0.000000000               0.000000000               0.000515751               0.000981532              -0.000575078               0.000070714               0.000303603               0.000374316               0.000000000               0.000000000               0.000000000               0.000000000               0.000362251               0.001056850              -0.000458703               0.000003737               0.000351034               0.000354771               0.000000000               0.000000000               0.000000000               0.000000000               0.000257695               0.001198134              -0.000324254              -0.000053131               0.000417084               0.000363953               0.000000000               0.000000000               0.000000000               0.000000000               0.000230544               0.001257981              -0.000245103              -0.000070794               0.000442921               0.000372127               0.000000000               0.000000000               0.000000000               0.000000000               0.000214906               0.001305869              -0.000192879              -0.000082644               0.000462833               0.000380189               0.000000000               0.000000000               0.000000000               0.000000000               0.000193445               0.001358093              -0.000155352              -0.000097219               0.000485099               0.000387880               0.000000000               0.000000000               0.000000000               0.000000000               0.000169821               0.001411231              -0.000126550              -0.000112721               0.000507979               0.000395258               0.000000000               0.000000000               0.000000000               0.000000000               0.000155612               0.001456176              -0.000101162              -0.000123667               0.000526610               0.000402942               0.000000000               0.000000000               0.000000000               0.000000000               0.000152084               0.001504816              -0.000079287              -0.000131070               0.000545290               0.000414220               0.000000000               0.000000000               0.000000000               0.000000000               0.000151901               0.001570553              -0.000059222              -0.000139356               0.000569965               0.000430608               0.000000000               0.000000000               0.000000000               0.000000000               0.000148668               0.001656698              -0.000039736              -0.000151336               0.000602673               0.000451336               0.000000000               0.000000000               0.000000000               0.000000000               0.000133561               0.001745271              -0.000024320              -0.000168073               0.000637775               0.000469702               0.000000000               0.000000000               0.000000000               0.000000000               0.000110038               0.001826421              -0.000013938              -0.000187038               0.000671147               0.000484109               0.000000000               0.000000000               0.000000000               0.000000000               0.000086309               0.001905374              -0.000007311              -0.000205805               0.000703720               0.000497915               0.000000000               0.000000000               0.000000000               0.000000000               0.000062020               0.001981443              -0.000004494              -0.000224422               0.000735282               0.000510860               0.000000000               0.000000000               0.000000000               0.000000000               0.000042146               0.002047650              -0.000001655              -0.000240151               0.000762594               0.000522443               0.000000000               0.000000000               0.000000000               0.000000000               0.000034121               0.002082627              -0.000000644              -0.000247532               0.000776713               0.000529181               0.000000000               0.000000000               0.000000000               0.000000000               0.000511823               0.000785002              -0.000514583               0.000093807               0.000230396               0.000324202               0.000000000               0.000000000               0.000000000               0.000000000               0.000372244               0.000902129              -0.000443968               0.000026825               0.000291765               0.000318589               0.000000000               0.000000000               0.000000000               0.000000000               0.000266601               0.001090675              -0.000348958              -0.000036359               0.000375674               0.000339315               0.000000000               0.000000000               0.000000000               0.000000000               0.000237683               0.001185443              -0.000272758              -0.000059049               0.000414827               0.000355777               0.000000000               0.000000000               0.000000000               0.000000000               0.000222602               0.001254114              -0.000217026              -0.000073289               0.000442463               0.000369175               0.000000000               0.000000000               0.000000000               0.000000000               0.000203569               0.001320190              -0.000177406              -0.000088685               0.000469621               0.000380935               0.000000000               0.000000000               0.000000000               0.000000000               0.000181048               0.001382866              -0.000147772              -0.000104965               0.000495939               0.000390974               0.000000000               0.000000000               0.000000000               0.000000000               0.000164829               0.001444918              -0.000120185              -0.000118803               0.000521236               0.000402432               0.000000000               0.000000000               0.000000000               0.000000000               0.000162378               0.001514493              -0.000093592              -0.000128420               0.000547633               0.000419213               0.000000000               0.000000000               0.000000000               0.000000000               0.000168786               0.001594013              -0.000069075              -0.000135956               0.000576651               0.000440695               0.000000000               0.000000000               0.000000000               0.000000000               0.000172292               0.001680262              -0.000047381              -0.000145423               0.000608556               0.000463133               0.000000000               0.000000000               0.000000000               0.000000000               0.000167776               0.001773289              -0.000032425              -0.000158745               0.000644005               0.000485261               0.000000000               0.000000000               0.000000000               0.000000000               0.000155886               0.001868284              -0.000020919              -0.000175078               0.000681114               0.000506036               0.000000000               0.000000000               0.000000000               0.000000000               0.000141076               0.001959670              -0.000011525              -0.000192055               0.000717235               0.000525180               0.000000000               0.000000000               0.000000000               0.000000000               0.000120889               0.002038515              -0.000007195              -0.000209480               0.000749325               0.000539845               0.000000000               0.000000000               0.000000000               0.000000000               0.000097985               0.002107205              -0.000004138              -0.000226656               0.000777947               0.000551291               0.000000000               0.000000000               0.000000000               0.000000000               0.000081878               0.002138931               0.000000357              -0.000236661               0.000791857               0.000555195               0.000000000               0.000000000               0.000000000               0.000000000               0.000483082               0.000596851              -0.000441453               0.000106548               0.000163432               0.000269980               0.000000000               0.000000000               0.000000000               0.000000000               0.000378979               0.000746391              -0.000417295               0.000048817               0.000232522               0.000281339               0.000000000               0.000000000               0.000000000               0.000000000               0.000286621               0.000968146              -0.000363882              -0.000013536               0.000327224               0.000313688               0.000000000               0.000000000               0.000000000               0.000000000               0.000255863               0.001094691              -0.000297518              -0.000040888               0.000378523               0.000337635               0.000000000               0.000000000               0.000000000               0.000000000               0.000239416               0.001185556              -0.000241845              -0.000058413               0.000414652               0.000356239               0.000000000               0.000000000               0.000000000               0.000000000               0.000222436               0.001263510              -0.000200947              -0.000074525               0.000446007               0.000371482               0.000000000               0.000000000               0.000000000               0.000000000               0.000202341               0.001339688              -0.000170169              -0.000091583               0.000477086               0.000385503               0.000000000               0.000000000               0.000000000               0.000000000               0.000186880               0.001419168              -0.000142212              -0.000107316               0.000508823               0.000401507               0.000000000               0.000000000               0.000000000               0.000000000               0.000181828               0.001498684              -0.000115719              -0.000119150               0.000539273               0.000420123               0.000000000               0.000000000               0.000000000               0.000000000               0.000191520               0.001583175              -0.000090816              -0.000126077               0.000569745               0.000443669               0.000000000               0.000000000               0.000000000               0.000000000               0.000206210               0.001675354              -0.000066243              -0.000132090               0.000602476               0.000470386               0.000000000               0.000000000               0.000000000               0.000000000               0.000213247               0.001774436              -0.000047148              -0.000141837               0.000638752               0.000496915               0.000000000               0.000000000               0.000000000               0.000000000               0.000210618               0.001872047              -0.000034381              -0.000155024               0.000675684               0.000520660               0.000000000               0.000000000               0.000000000               0.000000000               0.000204225               0.001966496              -0.000023003              -0.000169227               0.000711901               0.000542674               0.000000000               0.000000000               0.000000000               0.000000000               0.000187950               0.002047750              -0.000010736              -0.000185487               0.000744405               0.000558918               0.000000000               0.000000000               0.000000000               0.000000000               0.000163467               0.002117112              -0.000003511              -0.000203338               0.000773476               0.000570138               0.000000000               0.000000000               0.000000000               0.000000000               0.000141915               0.002143068               0.000002141              -0.000214665               0.000785904               0.000571239               0.000000000               0.000000000               0.000000000               0.000000000               0.000430017               0.000427672              -0.000354709               0.000107796               0.000106624               0.000214420               0.000000000               0.000000000               0.000000000               0.000000000               0.000373589               0.000595241              -0.000371935               0.000065690               0.000176515               0.000242205               0.000000000               0.000000000               0.000000000               0.000000000               0.000307784               0.000832196              -0.000357555               0.000011394               0.000273598               0.000284992               0.000000000               0.000000000               0.000000000               0.000000000               0.000282334               0.000985725              -0.000305160              -0.000017341               0.000334352               0.000317011               0.000000000               0.000000000               0.000000000               0.000000000               0.000265115               0.001096909              -0.000254921              -0.000037696               0.000378198               0.000340502               0.000000000               0.000000000               0.000000000               0.000000000               0.000248664               0.001188851              -0.000215306              -0.000055357               0.000414732               0.000359375               0.000000000               0.000000000               0.000000000               0.000000000               0.000233875               0.001282108              -0.000185624              -0.000072560               0.000451552               0.000378992               0.000000000               0.000000000               0.000000000               0.000000000               0.000221576               0.001371341              -0.000159767              -0.000088326               0.000486551               0.000398225               0.000000000               0.000000000               0.000000000               0.000000000               0.000217166               0.001461434              -0.000136594              -0.000101242               0.000520887               0.000419645               0.000000000               0.000000000               0.000000000               0.000000000               0.000223340               0.001561327              -0.000112990              -0.000111413               0.000557575               0.000446162               0.000000000               0.000000000               0.000000000               0.000000000               0.000239719               0.001667441              -0.000087072              -0.000118535               0.000595320               0.000476785               0.000000000               0.000000000               0.000000000               0.000000000               0.000255119               0.001771406              -0.000065333              -0.000125756               0.000632381               0.000506626               0.000000000               0.000000000               0.000000000               0.000000000               0.000262003               0.001868975              -0.000051056              -0.000135370               0.000668109               0.000532738               0.000000000               0.000000000               0.000000000               0.000000000               0.000258583               0.001958521              -0.000034913              -0.000147846               0.000702116               0.000554270               0.000000000               0.000000000               0.000000000               0.000000000               0.000247322               0.002040537              -0.000016148              -0.000162321               0.000734279               0.000571958               0.000000000               0.000000000               0.000000000               0.000000000               0.000230012               0.002114293              -0.000005077              -0.000178032               0.000764101               0.000586070               0.000000000               0.000000000               0.000000000               0.000000000               0.000209890               0.002141162               0.000001239              -0.000188936               0.000776692               0.000587756               0.000000000               0.000000000               0.000000000               0.000000000               0.000356913               0.000290179              -0.000265651               0.000097569               0.000064202               0.000161771               0.000000000               0.000000000               0.000000000               0.000000000               0.000355898               0.000458397              -0.000310485               0.000076161               0.000127410               0.000203571               0.000000000               0.000000000               0.000000000               0.000000000               0.000327979               0.000694619              -0.000326791               0.000036164               0.000219482               0.000255647               0.000000000               0.000000000               0.000000000               0.000000000               0.000311894               0.000864414              -0.000291113               0.000008908               0.000285166               0.000294074               0.000000000               0.000000000               0.000000000               0.000000000               0.000297647               0.000992407              -0.000248818              -0.000012434               0.000334943               0.000322510               0.000000000               0.000000000               0.000000000               0.000000000               0.000284139               0.001102063              -0.000214870              -0.000031206               0.000377753               0.000346547               0.000000000               0.000000000               0.000000000               0.000000000               0.000274539               0.001208805              -0.000189866              -0.000048148               0.000418980               0.000370832               0.000000000               0.000000000               0.000000000               0.000000000               0.000264538               0.001308780              -0.000167470              -0.000064396               0.000457721               0.000393325               0.000000000               0.000000000               0.000000000               0.000000000               0.000260087               0.001415925              -0.000147127              -0.000079458               0.000498456               0.000418998               0.000000000               0.000000000               0.000000000               0.000000000               0.000263873               0.001533021              -0.000126979              -0.000092675               0.000541894               0.000449218               0.000000000               0.000000000               0.000000000               0.000000000               0.000278102               0.001650771              -0.000104565              -0.000102058               0.000584271               0.000482213               0.000000000               0.000000000               0.000000000               0.000000000               0.000296030               0.001759508              -0.000082334              -0.000108927               0.000622806               0.000513879               0.000000000               0.000000000               0.000000000               0.000000000               0.000305560               0.001851318              -0.000063171              -0.000116830               0.000656043               0.000539213               0.000000000               0.000000000               0.000000000               0.000000000               0.000303628               0.001931574              -0.000042558              -0.000127586               0.000686380               0.000558794               0.000000000               0.000000000               0.000000000               0.000000000               0.000300248               0.002013204              -0.000023638              -0.000139057               0.000717414               0.000578356               0.000000000               0.000000000               0.000000000               0.000000000               0.000295243               0.002096556              -0.000009787              -0.000151353               0.000749296               0.000597943               0.000000000               0.000000000               0.000000000               0.000000000               0.000281981               0.002132162              -0.000001106              -0.000160777               0.000764306               0.000603529               0.000000000               0.000000000               0.000000000               0.000000000               0.000276296               0.000186961              -0.000184041               0.000080240               0.000035573               0.000115813               0.000000000               0.000000000               0.000000000               0.000000000               0.000329251               0.000343046              -0.000239508               0.000080587               0.000087485               0.000168072               0.000000000               0.000000000               0.000000000               0.000000000               0.000343776               0.000566665              -0.000271728               0.000058082               0.000169526               0.000227608               0.000000000               0.000000000               0.000000000               0.000000000               0.000341105               0.000742550              -0.000250968               0.000035095               0.000235816               0.000270911               0.000000000               0.000000000               0.000000000               0.000000000               0.000332281               0.000883181              -0.000219425               0.000014208               0.000289655               0.000303862               0.000000000               0.000000000               0.000000000               0.000000000               0.000325973               0.001012404              -0.000194302              -0.000004311               0.000338902               0.000334591               0.000000000               0.000000000               0.000000000               0.000000000               0.000318314               0.001131273              -0.000174913              -0.000022041               0.000384434               0.000362393               0.000000000               0.000000000               0.000000000               0.000000000               0.000309855               0.001244459              -0.000156810              -0.000039362               0.000427936               0.000388574               0.000000000               0.000000000               0.000000000               0.000000000               0.000306478               0.001368111              -0.000140960              -0.000056085               0.000474727               0.000418643               0.000000000               0.000000000               0.000000000               0.000000000               0.000312164               0.001496627              -0.000126735              -0.000070017               0.000522209               0.000452193               0.000000000               0.000000000               0.000000000               0.000000000               0.000321602               0.001618233              -0.000109709              -0.000081678               0.000566632               0.000484954               0.000000000               0.000000000               0.000000000               0.000000000               0.000333487               0.001725973              -0.000089164              -0.000090689               0.000605548               0.000514859               0.000000000               0.000000000               0.000000000               0.000000000               0.000340250               0.001813542              -0.000065523              -0.000099099               0.000637541               0.000538442               0.000000000               0.000000000               0.000000000               0.000000000               0.000343539               0.001897251              -0.000044031              -0.000108329               0.000668520               0.000560191               0.000000000               0.000000000               0.000000000               0.000000000               0.000350217               0.001987521              -0.000029355              -0.000117109               0.000701537               0.000584428               0.000000000               0.000000000               0.000000000               0.000000000               0.000358097               0.002081579              -0.000015856              -0.000125911               0.000735823               0.000609912               0.000000000               0.000000000               0.000000000               0.000000000               0.000354788               0.002125859              -0.000006392              -0.000132686               0.000752841               0.000620155               0.000000000               0.000000000               0.000000000               0.000000000               0.000206344               0.000116904              -0.000112133               0.000062765               0.000018046               0.000080811               0.000000000               0.000000000               0.000000000               0.000000000               0.000303620               0.000255993              -0.000162013               0.000081858               0.000058044               0.000139902               0.000000000               0.000000000               0.000000000               0.000000000               0.000353650               0.000461666              -0.000194991               0.000074910               0.000128917               0.000203827               0.000000000               0.000000000               0.000000000               0.000000000               0.000364787               0.000636098              -0.000184967               0.000057282               0.000192936               0.000250219               0.000000000               0.000000000               0.000000000               0.000000000               0.000364970               0.000787537              -0.000165403               0.000038421               0.000249703               0.000288124               0.000000000               0.000000000               0.000000000               0.000000000               0.000364229               0.000931436              -0.000149112               0.000020156               0.000303757               0.000323913               0.000000000               0.000000000               0.000000000               0.000000000               0.000358972               0.001062178              -0.000135188               0.000001842               0.000353442               0.000355284               0.000000000               0.000000000               0.000000000               0.000000000               0.000353368               0.001188392              -0.000123399              -0.000016036               0.000401472               0.000385436               0.000000000               0.000000000               0.000000000               0.000000000               0.000354741               0.001319365              -0.000114936              -0.000031893               0.000450415               0.000418522               0.000000000               0.000000000               0.000000000               0.000000000               0.000357973               0.001452294              -0.000105139              -0.000047297               0.000499859               0.000452562               0.000000000               0.000000000               0.000000000               0.000000000               0.000361393               0.001577030              -0.000091951              -0.000061606               0.000546207               0.000484601               0.000000000               0.000000000               0.000000000               0.000000000               0.000363569               0.001681477              -0.000075695              -0.000073846               0.000585102               0.000511256               0.000000000               0.000000000               0.000000000               0.000000000               0.000368004               0.001772498              -0.000055953              -0.000083560               0.000618680               0.000535120               0.000000000               0.000000000               0.000000000               0.000000000               0.000380938               0.001869665              -0.000040142              -0.000090856               0.000653501               0.000562645               0.000000000               0.000000000               0.000000000               0.000000000               0.000398305               0.001973066              -0.000030763              -0.000097269               0.000690105               0.000592836               0.000000000               0.000000000               0.000000000               0.000000000               0.000415834               0.002076532              -0.000019114              -0.000103629               0.000726713               0.000623085               0.000000000               0.000000000               0.000000000               0.000000000               0.000421094               0.002126136              -0.000010457              -0.000107856               0.000744657               0.000636801               0.000000000               0.000000000               0.000000000               0.000000000               0.000157200               0.000080262              -0.000051780               0.000048917               0.000010448               0.000059365               0.000000000               0.000000000               0.000000000               0.000000000               0.000283921               0.000202844              -0.000081320               0.000081114               0.000040576               0.000121690               0.000000000               0.000000000               0.000000000               0.000000000               0.000358848               0.000391481              -0.000101869               0.000085632               0.000101949               0.000187580               0.000000000               0.000000000               0.000000000               0.000000000               0.000379611               0.000564220              -0.000098336               0.000071826               0.000164130               0.000235955               0.000000000               0.000000000               0.000000000               0.000000000               0.000386919               0.000721296              -0.000089426               0.000054932               0.000222119               0.000277051               0.000000000               0.000000000               0.000000000               0.000000000               0.000390671               0.000872694              -0.000081074               0.000037415               0.000278423               0.000315838               0.000000000               0.000000000               0.000000000               0.000000000               0.000390374               0.001014202              -0.000073483               0.000019615               0.000331526               0.000351140               0.000000000               0.000000000               0.000000000               0.000000000               0.000389234               0.001149753              -0.000069222               0.000002243               0.000382499               0.000384743               0.000000000               0.000000000               0.000000000               0.000000000               0.000388849               0.001283367              -0.000065938              -0.000014602               0.000432652               0.000418050               0.000000000               0.000000000               0.000000000               0.000000000               0.000387454               0.001414879              -0.000060137              -0.000031564               0.000482143               0.000450579               0.000000000               0.000000000               0.000000000               0.000000000               0.000386744               0.001537387              -0.000052260              -0.000047144               0.000528172               0.000481028               0.000000000               0.000000000               0.000000000               0.000000000               0.000387470               0.001646817              -0.000042743              -0.000060551               0.000569117               0.000508567               0.000000000               0.000000000               0.000000000               0.000000000               0.000394726               0.001751089              -0.000034091              -0.000070864               0.000607312               0.000536448               0.000000000               0.000000000               0.000000000               0.000000000               0.000411230               0.001856439              -0.000027066              -0.000077843               0.000644754               0.000566911               0.000000000               0.000000000               0.000000000               0.000000000               0.000431651               0.001960826              -0.000020599              -0.000083234               0.000681347               0.000598113               0.000000000               0.000000000               0.000000000               0.000000000               0.000455321               0.002067178              -0.000012311              -0.000087652               0.000718270               0.000630618               0.000000000               0.000000000               0.000000000               0.000000000               0.000468019               0.002120779              -0.000007003              -0.000089590               0.000736783               0.000647193               0.000000000               0.000000000               0.000000000               0.000000000               0.000000000               0.000000000               0.000000000               0.000000000               0.000000000               0.000000000               0.000000000               0.000000000               0.000000000               0.000000000               0.000000000               0.000000000               0.000000000               0.000000000               0.000000000               0.000000000               0.000000000               0.000000000               0.000000000               0.000000000               0.000000000               0.000000000               0.000000000               0.000000000               0.000000000               0.000000000               0.000000000               0.000000000               0.000000000               0.000000000               0.000000000               0.000000000               0.000000000               0.000000000               0.000000000               0.000000000               0.000000000               0.000000000               0.000000000               0.000000000               0.000000000               0.000000000               0.000000000               0.000000000               0.000000000               0.000000000               0.000000000               0.000000000               0.000000000               0.000000000               0.000000000               0.000000000               0.000000000               0.000000000               0.000000000               0.000000000               0.000000000               0.000000000               0.000000000               0.000000000               0.000000000               0.000000000               0.000000000               0.000000000               0.000000000               0.000000000               0.000000000               0.000000000               0.000000000               0.000000000               0.000000000               0.000000000               0.000000000               0.000000000               0.000000000               0.000000000               0.000000000               0.000000000               0.000000000               0.000000000               0.000000000               0.000000000               0.000000000               0.000000000               0.000000000               0.000000000               0.000000000               0.000000000               0.000000000               0.000000000               0.000000000               0.000000000               0.000000000               0.000000000               0.000000000               0.000000000               0.000000000               0.000000000               0.000000000               0.000000000               0.000000000               0.000000000               0.000000000               0.000000000               0.000000000               0.000000000               0.000000000               0.000000000               0.000000000               0.000000000               0.000000000               0.000000000               0.000000000               0.000000000               0.000000000               0.000000000               0.000000000               0.000000000               0.000000000               0.000000000               0.000000000               0.000000000               0.000000000               0.000000000               0.000000000               0.000000000               0.000000000               0.000000000               0.000000000               0.000000000               0.000000000               0.000000000               0.000000000               0.000000000               0.000000000               0.000000000               0.000000000               0.000000000               0.000000000               0.000000000               0.000000000               0.000000000               0.000000000               0.000000000               0.000000000               0.000000000               0.000000000               0.000000000               0.000000000               0.000000000               0.000000000               0.000000000               0.000000000               0.000000000               0.000000000               0.000000000               0.000000000               0.000000000               0.000000000               0.000000000               0.000000000               0.000000000               0.000000000               0.000000000               0.000000000               0.000000000               0.000000000               0.000000000               0.000000000               0.000000000               0.000000000               0.000000000               0.000000000               0.000000000               0.000000000               0.000000000               0.000000000               0.000000000               0.000000000               0.000000000               0.000000000               0.000000000               0.000000000               0.000000000               0.000000000               0.000000000               0.000000000               0.000000000               0.000000000               0.000000000               0.000000000               0.000000000               0.000000000               0.000000000               0.000000000               0.000000000               0.000000000               0.000000000               0.000000000               0.000000000               0.000000000               0.000000000               0.000000000               0.000000000               0.000000000               0.000000000               0.000000000               0.000000000               0.000000000               0.000000000               0.000000000               0.000000000               0.000000000               0.000000000               0.000000000               0.000000000               0.000000000               0.000000000               0.000000000               0.000000000               0.000000000               0.000000000               0.000000000               0.000000000               0.000000000               0.000000000               0.000000000               0.000000000               0.000000000               0.000000000               0.000000000               0.000000000               0.000000000               0.000000000               0.000000000               0.000000000               0.000000000               0.000000000               0.000000000               0.000000000               0.000000000               0.000000000               0.000000000               0.000000000               0.000000000               0.000000000               0.000000000               0.000000000               0.000000000               0.000000000               0.000000000               0.000000000               0.000000000               0.000000000               0.000000000               0.000000000               0.000000000               0.000000000               0.000000000               0.000000000               0.000000000               0.000000000               0.000000000               0.000000000               0.000000000               0.000000000               0.000000000               0.000000000               0.000000000               0.000000000               0.000000000               0.000000000               0.000000000               0.000000000               0.000000000               0.000000000               0.000000000               0.000000000               0.000000000               0.000000000               0.000000000               0.000000000               0.000000000               0.000000000               0.000000000               0.000000000               0.000000000               0.000000000               0.000000000               0.000000000               0.000000000               0.000000000               0.000000000               0.000000000               0.000000000               0.000000000               0.000000000               0.000000000               0.000000000               0.000000000               0.000000000               0.000000000               0.000000000               0.000000000               0.000000000               0.000000000               0.000000000               0.000000000               0.000000000               0.000000000               0.000000000               0.000000000               0.000000000               0.000000000               0.000000000               0.000000000               0.000000000               0.000000000               0.000000000               0.000000000               0.000000000               0.000000000               0.000000000               0.000000000               0.000000000               0.000000000               0.000000000               0.000000000               0.000000000               0.000000000               0.000000000               0.000000000               0.000000000               0.000000000               0.000000000               0.000000000               0.000000000               0.000000000               0.000000000               0.000000000               0.000223741               0.002342132               0.000184906              -0.000208863               0.000850324               0.000641461               0.000000000               0.000000000               0.000000000               0.000000000               0.000250936               0.001967127               0.000126596              -0.000151789               0.000706299               0.000554510               0.000000000               0.000000000               0.000000000               0.000000000               0.000354809               0.001665290               0.000066316              -0.000075108               0.000580127               0.000505019               0.000000000               0.000000000               0.000000000               0.000000000               0.000389819               0.001494796               0.000038375              -0.000040667               0.000511816               0.000471149               0.000000000               0.000000000               0.000000000               0.000000000               0.000396474               0.001391558               0.000025921              -0.000025267               0.000472270               0.000447004               0.000000000               0.000000000               0.000000000               0.000000000               0.000391241               0.001327760               0.000020487              -0.000019255               0.000449001               0.000429746               0.000000000               0.000000000               0.000000000               0.000000000               0.000378738               0.001292342               0.000017286              -0.000019516               0.000437282               0.000417766               0.000000000               0.000000000               0.000000000               0.000000000               0.000357654               0.001276924               0.000014013              -0.000025495               0.000434135               0.000408640               0.000000000               0.000000000               0.000000000               0.000000000               0.000328746               0.001280991               0.000010808              -0.000036844               0.000439274               0.000402430               0.000000000               0.000000000               0.000000000               0.000000000               0.000294320               0.001297603               0.000009832              -0.000051830               0.000449807               0.000397976               0.000000000               0.000000000               0.000000000               0.000000000               0.000258487               0.001319528               0.000013227              -0.000068008               0.000462508               0.000394499               0.000000000               0.000000000               0.000000000               0.000000000               0.000223445               0.001341442               0.000018394              -0.000083888               0.000475106               0.000391217               0.000000000               0.000000000               0.000000000               0.000000000               0.000187522               0.001364407               0.000018062              -0.000100230               0.000488208               0.000387978               0.000000000               0.000000000               0.000000000               0.000000000               0.000146237               0.001391842               0.000014837              -0.000119141               0.000503656               0.000384515               0.000000000               0.000000000               0.000000000               0.000000000               0.000100210               0.001420403               0.000013339              -0.000139971               0.000520120               0.000380149               0.000000000               0.000000000               0.000000000               0.000000000               0.000051913               0.001450690               0.000008614              -0.000161869               0.000537515               0.000375646               0.000000000               0.000000000               0.000000000               0.000000000               0.000030710               0.001476248               0.000005242              -0.000173014               0.000549749               0.000376735               0.000000000               0.000000000               0.000000000               0.000000000               0.000262860               0.002235694               0.000353752              -0.000180889               0.000805520               0.000624631               0.000000000               0.000000000               0.000000000               0.000000000               0.000267088               0.001891796               0.000241515              -0.000136316               0.000676031               0.000539715               0.000000000               0.000000000               0.000000000               0.000000000               0.000344814               0.001626469               0.000126804              -0.000074003               0.000566819               0.000492815               0.000000000               0.000000000               0.000000000               0.000000000               0.000366680               0.001477367               0.000075609              -0.000047166               0.000508173               0.000461007               0.000000000               0.000000000               0.000000000               0.000000000               0.000367089               0.001388827               0.000052918              -0.000035945               0.000474919               0.000438975               0.000000000               0.000000000               0.000000000               0.000000000               0.000357920               0.001335474               0.000042184              -0.000032714               0.000456058               0.000423344               0.000000000               0.000000000               0.000000000               0.000000000               0.000343079               0.001307060               0.000036011              -0.000034728               0.000447258               0.000412530               0.000000000               0.000000000               0.000000000               0.000000000               0.000321882               0.001297400               0.000028981              -0.000041469               0.000446285               0.000404816               0.000000000               0.000000000               0.000000000               0.000000000               0.000294264               0.001303035               0.000022171              -0.000052530               0.000451851               0.000399321               0.000000000               0.000000000               0.000000000               0.000000000               0.000265010               0.001317283               0.000020907              -0.000065281               0.000460850               0.000395569               0.000000000               0.000000000               0.000000000               0.000000000               0.000235331               0.001332352               0.000026256              -0.000078295               0.000470211               0.000391916               0.000000000               0.000000000               0.000000000               0.000000000               0.000202975               0.001346699               0.000032832              -0.000092222               0.000479636               0.000387414               0.000000000               0.000000000               0.000000000               0.000000000               0.000171827               0.001365450               0.000029830              -0.000106246               0.000490561               0.000384315               0.000000000               0.000000000               0.000000000               0.000000000               0.000136659               0.001386219               0.000023876              -0.000122030               0.000502745               0.000380715               0.000000000               0.000000000               0.000000000               0.000000000               0.000093003               0.001404036               0.000020111              -0.000140628               0.000514883               0.000374255               0.000000000               0.000000000               0.000000000               0.000000000               0.000047008               0.001421784               0.000011483              -0.000160095               0.000527288               0.000367194               0.000000000               0.000000000               0.000000000               0.000000000               0.000026496               0.001436480               0.000006417              -0.000169624               0.000535363               0.000365739               0.000000000               0.000000000               0.000000000               0.000000000               0.000320080               0.002071899               0.000489887              -0.000138957               0.000736945               0.000597988               0.000000000               0.000000000               0.000000000               0.000000000               0.000290648               0.001777086               0.000335538              -0.000113143               0.000630070               0.000516928               0.000000000               0.000000000               0.000000000               0.000000000               0.000329765               0.001566656               0.000179576              -0.000072170               0.000546270               0.000474100               0.000000000               0.000000000               0.000000000               0.000000000               0.000334319               0.001450714               0.000111522              -0.000055970               0.000502223               0.000446253               0.000000000               0.000000000               0.000000000               0.000000000               0.000326855               0.001383426               0.000081150              -0.000050357               0.000477923               0.000427566               0.000000000               0.000000000               0.000000000               0.000000000               0.000312868               0.001344888               0.000066504              -0.000050785               0.000465220               0.000414435               0.000000000               0.000000000               0.000000000               0.000000000               0.000295265               0.001327313               0.000055808              -0.000055190               0.000460830               0.000405640               0.000000000               0.000000000               0.000000000               0.000000000               0.000271609               0.001326508               0.000044770              -0.000063960               0.000463485               0.000399525               0.000000000               0.000000000               0.000000000               0.000000000               0.000246595               0.001335567               0.000034902              -0.000074473               0.000470009               0.000395536               0.000000000               0.000000000               0.000000000               0.000000000               0.000224680               0.001345956               0.000032309              -0.000083989               0.000476644               0.000392655               0.000000000               0.000000000               0.000000000               0.000000000               0.000201987               0.001354367               0.000037953              -0.000093550               0.000482634               0.000389084               0.000000000               0.000000000               0.000000000               0.000000000               0.000176497               0.001361396               0.000040840              -0.000103988               0.000488457               0.000384469               0.000000000               0.000000000               0.000000000               0.000000000               0.000149644               0.001374210               0.000033040              -0.000115660               0.000496619               0.000380959               0.000000000               0.000000000               0.000000000               0.000000000               0.000117703               0.001386744               0.000024658              -0.000129204               0.000505311               0.000376107               0.000000000               0.000000000               0.000000000               0.000000000               0.000082044               0.001399025               0.000018442              -0.000144111               0.000514374               0.000370263               0.000000000               0.000000000               0.000000000               0.000000000               0.000043660               0.001411114               0.000008498              -0.000160016               0.000523705               0.000363689               0.000000000               0.000000000               0.000000000               0.000000000               0.000025721               0.001420768               0.000004073              -0.000167950               0.000529568               0.000361618               0.000000000               0.000000000               0.000000000               0.000000000               0.000382369               0.001866525               0.000585186              -0.000089927               0.000652145               0.000562217               0.000000000               0.000000000               0.000000000               0.000000000               0.000314181               0.001636199               0.000404384              -0.000086707               0.000574297               0.000487589               0.000000000               0.000000000               0.000000000               0.000000000               0.000312202               0.001494967               0.000222708              -0.000069795               0.000521582               0.000451787               0.000000000               0.000000000               0.000000000               0.000000000               0.000300587               0.001417451               0.000145608              -0.000064461               0.000493966               0.000429505               0.000000000               0.000000000               0.000000000               0.000000000               0.000285713               0.001372408               0.000110322              -0.000064408               0.000478934               0.000414526               0.000000000               0.000000000               0.000000000               0.000000000               0.000268858               0.001351985               0.000091085              -0.000068176               0.000473382               0.000405206               0.000000000               0.000000000               0.000000000               0.000000000               0.000247190               0.001349029               0.000075938              -0.000075932               0.000474982               0.000399050               0.000000000               0.000000000               0.000000000               0.000000000               0.000222407               0.001359049               0.000059989              -0.000086478               0.000481838               0.000395360               0.000000000               0.000000000               0.000000000               0.000000000               0.000199022               0.001371648               0.000047939              -0.000096823               0.000489486               0.000392663               0.000000000               0.000000000               0.000000000               0.000000000               0.000181568               0.001379713               0.000044707              -0.000104376               0.000494692               0.000390316               0.000000000               0.000000000               0.000000000               0.000000000               0.000166082               0.001382592               0.000047918              -0.000110543               0.000497707               0.000387164               0.000000000               0.000000000               0.000000000               0.000000000               0.000145922               0.001387700               0.000045639              -0.000118741               0.000502143               0.000383401               0.000000000               0.000000000               0.000000000               0.000000000               0.000125889               0.001400902               0.000033365              -0.000127904               0.000509597               0.000381693               0.000000000               0.000000000               0.000000000               0.000000000               0.000103152               0.001414466               0.000023040              -0.000138126               0.000517526               0.000379400               0.000000000               0.000000000               0.000000000               0.000000000               0.000074164               0.001428128               0.000014741              -0.000150704               0.000526273               0.000375569               0.000000000               0.000000000               0.000000000               0.000000000               0.000040094               0.001442685               0.000006194              -0.000165300               0.000535990               0.000370690               0.000000000               0.000000000               0.000000000               0.000000000               0.000025299               0.001455424               0.000004494              -0.000172441               0.000542617               0.000370176               0.000000000               0.000000000               0.000000000               0.000000000               0.000440133               0.001639070               0.000636626              -0.000039835               0.000559629               0.000519795               0.000000000               0.000000000               0.000000000               0.000000000               0.000333616               0.001482516               0.000446777              -0.000060209               0.000514237               0.000454028               0.000000000               0.000000000               0.000000000               0.000000000               0.000291928               0.001417572               0.000256577              -0.000067724               0.000495094               0.000427370               0.000000000               0.000000000               0.000000000               0.000000000               0.000269802               0.001377338               0.000176805              -0.000070992               0.000482772               0.000411780               0.000000000               0.000000000               0.000000000               0.000000000               0.000252558               0.001356565               0.000137581              -0.000074861               0.000477138               0.000402276               0.000000000               0.000000000               0.000000000               0.000000000               0.000233460               0.001354739               0.000113684              -0.000081795               0.000478840               0.000397046               0.000000000               0.000000000               0.000000000               0.000000000               0.000209358               0.001367132               0.000093068              -0.000092382               0.000486500               0.000394118               0.000000000               0.000000000               0.000000000               0.000000000               0.000183834               0.001388455               0.000073796              -0.000104619               0.000497687               0.000393068               0.000000000               0.000000000               0.000000000               0.000000000               0.000162118               0.001404026               0.000060861              -0.000114709               0.000506240               0.000391532               0.000000000               0.000000000               0.000000000               0.000000000               0.000148754               0.001413098               0.000057329              -0.000120854               0.000511313               0.000390459               0.000000000               0.000000000               0.000000000               0.000000000               0.000136854               0.001420445               0.000057766              -0.000126235               0.000515555               0.000389320               0.000000000               0.000000000               0.000000000               0.000000000               0.000120132               0.001435470               0.000048754              -0.000134384               0.000523280               0.000388896               0.000000000               0.000000000               0.000000000               0.000000000               0.000102681               0.001458150               0.000033491              -0.000143763               0.000533966               0.000390203               0.000000000               0.000000000               0.000000000               0.000000000               0.000084253               0.001482916               0.000024489              -0.000153769               0.000545557               0.000391788               0.000000000               0.000000000               0.000000000               0.000000000               0.000059416               0.001506018               0.000016484              -0.000165971               0.000557325               0.000391354               0.000000000               0.000000000               0.000000000               0.000000000               0.000029141               0.001530294               0.000007157              -0.000180358               0.000570212               0.000389854               0.000000000               0.000000000               0.000000000               0.000000000               0.000018453               0.001551758               0.000006055              -0.000187050               0.000579598               0.000392548               0.000000000               0.000000000               0.000000000               0.000000000               0.000482318               0.001406018               0.000647540               0.000005116               0.000466962               0.000472079               0.000000000               0.000000000               0.000000000               0.000000000               0.000347542               0.001329149               0.000466511              -0.000035816               0.000454984               0.000419168               0.000000000               0.000000000               0.000000000               0.000000000               0.000273242               0.001340286               0.000283210              -0.000065070               0.000468448               0.000403378               0.000000000               0.000000000               0.000000000               0.000000000               0.000246184               0.001335076               0.000203684              -0.000074565               0.000469876               0.000395310               0.000000000               0.000000000               0.000000000               0.000000000               0.000229988               0.001338184               0.000160806              -0.000081027               0.000473066               0.000392039               0.000000000               0.000000000               0.000000000               0.000000000               0.000210280               0.001353974               0.000131404              -0.000090392               0.000481451               0.000391059               0.000000000               0.000000000               0.000000000               0.000000000               0.000185400               0.001381813               0.000105890              -0.000103201               0.000495000               0.000391799               0.000000000               0.000000000               0.000000000               0.000000000               0.000160816               0.001411085               0.000084867              -0.000116079               0.000509050               0.000392971               0.000000000               0.000000000               0.000000000               0.000000000               0.000142723               0.001431475               0.000072332              -0.000125413               0.000518958               0.000393545               0.000000000               0.000000000               0.000000000               0.000000000               0.000132305               0.001448934               0.000066436              -0.000131502               0.000526807               0.000395305               0.000000000               0.000000000               0.000000000               0.000000000               0.000123271               0.001474693               0.000061282              -0.000138110               0.000537596               0.000399486               0.000000000               0.000000000               0.000000000               0.000000000               0.000107978               0.001512349               0.000047287              -0.000148551               0.000553628               0.000405077               0.000000000               0.000000000               0.000000000               0.000000000               0.000088776               0.001557114               0.000030179              -0.000161348               0.000572816               0.000411468               0.000000000               0.000000000               0.000000000               0.000000000               0.000068262               0.001602047               0.000022558              -0.000174657               0.000592230               0.000417572               0.000000000               0.000000000               0.000000000               0.000000000               0.000045687               0.001646177               0.000016731              -0.000188639               0.000611600               0.000422961               0.000000000               0.000000000               0.000000000               0.000000000               0.000022586               0.001690963               0.000006713              -0.000202900               0.000631282               0.000428382               0.000000000               0.000000000               0.000000000               0.000000000               0.000017182               0.001723743               0.000005195              -0.000209024               0.000644250               0.000435226               0.000000000               0.000000000               0.000000000               0.000000000               0.000504806               0.001181005               0.000623499               0.000041676               0.000379772               0.000421448               0.000000000               0.000000000               0.000000000               0.000000000               0.000355003               0.001186418               0.000467837              -0.000015177               0.000400528               0.000385351               0.000000000               0.000000000               0.000000000               0.000000000               0.000260135               0.001266211               0.000303673              -0.000060726               0.000442308               0.000381582               0.000000000               0.000000000               0.000000000               0.000000000               0.000231907               0.001293844               0.000224988              -0.000074765               0.000456199               0.000381434               0.000000000               0.000000000               0.000000000               0.000000000               0.000217222               0.001320036               0.000177391              -0.000083546               0.000467856               0.000384310               0.000000000               0.000000000               0.000000000               0.000000000               0.000196666               0.001354507               0.000142969              -0.000095564               0.000483352               0.000387789               0.000000000               0.000000000               0.000000000               0.000000000               0.000172100               0.001396387               0.000115206              -0.000110011               0.000502128               0.000392117               0.000000000               0.000000000               0.000000000               0.000000000               0.000151808               0.001432496               0.000093072              -0.000122134               0.000518205               0.000396071               0.000000000               0.000000000               0.000000000               0.000000000               0.000140270               0.001463601               0.000077592              -0.000130348               0.000531312               0.000400963               0.000000000               0.000000000               0.000000000               0.000000000               0.000135155               0.001503059               0.000066045              -0.000137199               0.000546748               0.000409549               0.000000000               0.000000000               0.000000000               0.000000000               0.000129208               0.001560491               0.000053769              -0.000146608               0.000569028               0.000422420               0.000000000               0.000000000               0.000000000               0.000000000               0.000113419               0.001630966               0.000036212              -0.000161338               0.000597429               0.000436091               0.000000000               0.000000000               0.000000000               0.000000000               0.000089651               0.001699173               0.000021096              -0.000178777               0.000625978               0.000447200               0.000000000               0.000000000               0.000000000               0.000000000               0.000064881               0.001764184               0.000015920              -0.000196192               0.000653453               0.000457260               0.000000000               0.000000000               0.000000000               0.000000000               0.000040378               0.001829451               0.000011600              -0.000213539               0.000680991               0.000467452               0.000000000               0.000000000               0.000000000               0.000000000               0.000018851               0.001890948               0.000005053              -0.000229299               0.000706743               0.000477444               0.000000000               0.000000000               0.000000000               0.000000000               0.000013734               0.001929564               0.000005433              -0.000236044               0.000721863               0.000485818               0.000000000               0.000000000               0.000000000               0.000000000               0.000515751               0.000981532               0.000575078               0.000070714               0.000303603               0.000374316               0.000000000               0.000000000               0.000000000               0.000000000               0.000362251               0.001056850               0.000458703               0.000003737               0.000351034               0.000354771               0.000000000               0.000000000               0.000000000               0.000000000               0.000257695               0.001198134               0.000324254              -0.000053131               0.000417084               0.000363953               0.000000000               0.000000000               0.000000000               0.000000000               0.000230544               0.001257981               0.000245103              -0.000070794               0.000442921               0.000372127               0.000000000               0.000000000               0.000000000               0.000000000               0.000214906               0.001305869               0.000192879              -0.000082644               0.000462833               0.000380189               0.000000000               0.000000000               0.000000000               0.000000000               0.000193445               0.001358093               0.000155352              -0.000097219               0.000485099               0.000387880               0.000000000               0.000000000               0.000000000               0.000000000               0.000169821               0.001411231               0.000126550              -0.000112721               0.000507979               0.000395258               0.000000000               0.000000000               0.000000000               0.000000000               0.000155612               0.001456176               0.000101162              -0.000123667               0.000526610               0.000402942               0.000000000               0.000000000               0.000000000               0.000000000               0.000152084               0.001504816               0.000079287              -0.000131070               0.000545290               0.000414220               0.000000000               0.000000000               0.000000000               0.000000000               0.000151901               0.001570553               0.000059222              -0.000139356               0.000569965               0.000430608               0.000000000               0.000000000               0.000000000               0.000000000               0.000148668               0.001656698               0.000039736              -0.000151336               0.000602673               0.000451336               0.000000000               0.000000000               0.000000000               0.000000000               0.000133561               0.001745271               0.000024320              -0.000168073               0.000637775               0.000469702               0.000000000               0.000000000               0.000000000               0.000000000               0.000110038               0.001826421               0.000013938              -0.000187038               0.000671147               0.000484109               0.000000000               0.000000000               0.000000000               0.000000000               0.000086309               0.001905374               0.000007311              -0.000205805               0.000703720               0.000497915               0.000000000               0.000000000               0.000000000               0.000000000               0.000062020               0.001981443               0.000004494              -0.000224422               0.000735282               0.000510860               0.000000000               0.000000000               0.000000000               0.000000000               0.000042146               0.002047650               0.000001655              -0.000240151               0.000762594               0.000522443               0.000000000               0.000000000               0.000000000               0.000000000               0.000034121               0.002082627               0.000000644              -0.000247532               0.000776713               0.000529181               0.000000000               0.000000000               0.000000000               0.000000000               0.000511823               0.000785002               0.000514583               0.000093807               0.000230396               0.000324202               0.000000000               0.000000000               0.000000000               0.000000000               0.000372244               0.000902129               0.000443968               0.000026825               0.000291765               0.000318589               0.000000000               0.000000000               0.000000000               0.000000000               0.000266601               0.001090675               0.000348958              -0.000036359               0.000375674               0.000339315               0.000000000               0.000000000               0.000000000               0.000000000               0.000237683               0.001185443               0.000272758              -0.000059049               0.000414827               0.000355777               0.000000000               0.000000000               0.000000000               0.000000000               0.000222602               0.001254114               0.000217026              -0.000073289               0.000442463               0.000369175               0.000000000               0.000000000               0.000000000               0.000000000               0.000203569               0.001320190               0.000177406              -0.000088685               0.000469621               0.000380935               0.000000000               0.000000000               0.000000000               0.000000000               0.000181048               0.001382866               0.000147772              -0.000104965               0.000495939               0.000390974               0.000000000               0.000000000               0.000000000               0.000000000               0.000164829               0.001444918               0.000120185              -0.000118803               0.000521236               0.000402432               0.000000000               0.000000000               0.000000000               0.000000000               0.000162378               0.001514493               0.000093592              -0.000128420               0.000547633               0.000419213               0.000000000               0.000000000               0.000000000               0.000000000               0.000168786               0.001594013               0.000069075              -0.000135956               0.000576651               0.000440695               0.000000000               0.000000000               0.000000000               0.000000000               0.000172292               0.001680262               0.000047381              -0.000145423               0.000608556               0.000463133               0.000000000               0.000000000               0.000000000               0.000000000               0.000167776               0.001773289               0.000032425              -0.000158745               0.000644005               0.000485261               0.000000000               0.000000000               0.000000000               0.000000000               0.000155886               0.001868284               0.000020919              -0.000175078               0.000681114               0.000506036               0.000000000               0.000000000               0.000000000               0.000000000               0.000141076               0.001959670               0.000011525              -0.000192055               0.000717235               0.000525180               0.000000000               0.000000000               0.000000000               0.000000000               0.000120889               0.002038515               0.000007195              -0.000209480               0.000749325               0.000539845               0.000000000               0.000000000               0.000000000               0.000000000               0.000097985               0.002107205               0.000004138              -0.000226656               0.000777947               0.000551291               0.000000000               0.000000000               0.000000000               0.000000000               0.000081878               0.002138931              -0.000000357              -0.000236661               0.000791857               0.000555195               0.000000000               0.000000000               0.000000000               0.000000000               0.000483082               0.000596851               0.000441453               0.000106548               0.000163432               0.000269980               0.000000000               0.000000000               0.000000000               0.000000000               0.000378979               0.000746391               0.000417295               0.000048817               0.000232522               0.000281339               0.000000000               0.000000000               0.000000000               0.000000000               0.000286621               0.000968146               0.000363882              -0.000013536               0.000327224               0.000313688               0.000000000               0.000000000               0.000000000               0.000000000               0.000255863               0.001094691               0.000297518              -0.000040888               0.000378523               0.000337635               0.000000000               0.000000000               0.000000000               0.000000000               0.000239416               0.001185556               0.000241845              -0.000058413               0.000414652               0.000356239               0.000000000               0.000000000               0.000000000               0.000000000               0.000222436               0.001263510               0.000200947              -0.000074525               0.000446007               0.000371482               0.000000000               0.000000000               0.000000000               0.000000000               0.000202341               0.001339688               0.000170169              -0.000091583               0.000477086               0.000385503               0.000000000               0.000000000               0.000000000               0.000000000               0.000186880               0.001419168               0.000142212              -0.000107316               0.000508823               0.000401507               0.000000000               0.000000000               0.000000000               0.000000000               0.000181828               0.001498684               0.000115719              -0.000119150               0.000539273               0.000420123               0.000000000               0.000000000               0.000000000               0.000000000               0.000191520               0.001583175               0.000090816              -0.000126077               0.000569745               0.000443669               0.000000000               0.000000000               0.000000000               0.000000000               0.000206210               0.001675354               0.000066243              -0.000132090               0.000602476               0.000470386               0.000000000               0.000000000               0.000000000               0.000000000               0.000213247               0.001774436               0.000047148              -0.000141837               0.000638752               0.000496915               0.000000000               0.000000000               0.000000000               0.000000000               0.000210618               0.001872047               0.000034381              -0.000155024               0.000675684               0.000520660               0.000000000               0.000000000               0.000000000               0.000000000               0.000204225               0.001966496               0.000023003              -0.000169227               0.000711901               0.000542674               0.000000000               0.000000000               0.000000000               0.000000000               0.000187950               0.002047750               0.000010736              -0.000185487               0.000744405               0.000558918               0.000000000               0.000000000               0.000000000               0.000000000               0.000163467               0.002117112               0.000003511              -0.000203338               0.000773476               0.000570138               0.000000000               0.000000000               0.000000000               0.000000000               0.000141915               0.002143068              -0.000002141              -0.000214665               0.000785904               0.000571239               0.000000000               0.000000000               0.000000000               0.000000000               0.000430017               0.000427672               0.000354709               0.000107796               0.000106624               0.000214420               0.000000000               0.000000000               0.000000000               0.000000000               0.000373589               0.000595241               0.000371935               0.000065690               0.000176515               0.000242205               0.000000000               0.000000000               0.000000000               0.000000000               0.000307784               0.000832196               0.000357555               0.000011394               0.000273598               0.000284992               0.000000000               0.000000000               0.000000000               0.000000000               0.000282334               0.000985725               0.000305160              -0.000017341               0.000334352               0.000317011               0.000000000               0.000000000               0.000000000               0.000000000               0.000265115               0.001096909               0.000254921              -0.000037696               0.000378198               0.000340502               0.000000000               0.000000000               0.000000000               0.000000000               0.000248664               0.001188851               0.000215306              -0.000055357               0.000414732               0.000359375               0.000000000               0.000000000               0.000000000               0.000000000               0.000233875               0.001282108               0.000185624              -0.000072560               0.000451552               0.000378992               0.000000000               0.000000000               0.000000000               0.000000000               0.000221576               0.001371341               0.000159767              -0.000088326               0.000486551               0.000398225               0.000000000               0.000000000               0.000000000               0.000000000               0.000217166               0.001461434               0.000136594              -0.000101242               0.000520887               0.000419645               0.000000000               0.000000000               0.000000000               0.000000000               0.000223340               0.001561327               0.000112990              -0.000111413               0.000557575               0.000446162               0.000000000               0.000000000               0.000000000               0.000000000               0.000239719               0.001667441               0.000087072              -0.000118535               0.000595320               0.000476785               0.000000000               0.000000000               0.000000000               0.000000000               0.000255119               0.001771406               0.000065333              -0.000125756               0.000632381               0.000506626               0.000000000               0.000000000               0.000000000               0.000000000               0.000262003               0.001868975               0.000051056              -0.000135370               0.000668109               0.000532738               0.000000000               0.000000000               0.000000000               0.000000000               0.000258583               0.001958521               0.000034913              -0.000147846               0.000702116               0.000554270               0.000000000               0.000000000               0.000000000               0.000000000               0.000247322               0.002040537               0.000016148              -0.000162321               0.000734279               0.000571958               0.000000000               0.000000000               0.000000000               0.000000000               0.000230012               0.002114293               0.000005077              -0.000178032               0.000764101               0.000586070               0.000000000               0.000000000               0.000000000               0.000000000               0.000209890               0.002141162              -0.000001239              -0.000188936               0.000776692               0.000587756               0.000000000               0.000000000               0.000000000               0.000000000               0.000356913               0.000290179               0.000265651               0.000097569               0.000064202               0.000161771               0.000000000               0.000000000               0.000000000               0.000000000               0.000355898               0.000458397               0.000310485               0.000076161               0.000127410               0.000203571               0.000000000               0.000000000               0.000000000               0.000000000               0.000327979               0.000694619               0.000326791               0.000036164               0.000219482               0.000255647               0.000000000               0.000000000               0.000000000               0.000000000               0.000311894               0.000864414               0.000291113               0.000008908               0.000285166               0.000294074               0.000000000               0.000000000               0.000000000               0.000000000               0.000297647               0.000992407               0.000248818              -0.000012434               0.000334943               0.000322510               0.000000000               0.000000000               0.000000000               0.000000000               0.000284139               0.001102063               0.000214870              -0.000031206               0.000377753               0.000346547               0.000000000               0.000000000               0.000000000               0.000000000               0.000274539               0.001208805               0.000189866              -0.000048148               0.000418980               0.000370832               0.000000000               0.000000000               0.000000000               0.000000000               0.000264538               0.001308780               0.000167470              -0.000064396               0.000457721               0.000393325               0.000000000               0.000000000               0.000000000               0.000000000               0.000260087               0.001415925               0.000147127              -0.000079458               0.000498456               0.000418998               0.000000000               0.000000000               0.000000000               0.000000000               0.000263873               0.001533021               0.000126979              -0.000092675               0.000541894               0.000449218               0.000000000               0.000000000               0.000000000               0.000000000               0.000278102               0.001650771               0.000104565              -0.000102058               0.000584271               0.000482213               0.000000000               0.000000000               0.000000000               0.000000000               0.000296030               0.001759508               0.000082334              -0.000108927               0.000622806               0.000513879               0.000000000               0.000000000               0.000000000               0.000000000               0.000305560               0.001851318               0.000063171              -0.000116830               0.000656043               0.000539213               0.000000000               0.000000000               0.000000000               0.000000000               0.000303628               0.001931574               0.000042558              -0.000127586               0.000686380               0.000558794               0.000000000               0.000000000               0.000000000               0.000000000               0.000300248               0.002013204               0.000023638              -0.000139057               0.000717414               0.000578356               0.000000000               0.000000000               0.000000000               0.000000000               0.000295243               0.002096556               0.000009787              -0.000151353               0.000749296               0.000597943               0.000000000               0.000000000               0.000000000               0.000000000               0.000281981               0.002132162               0.000001106              -0.000160777               0.000764306               0.000603529               0.000000000               0.000000000               0.000000000               0.000000000               0.000276296               0.000186961               0.000184041               0.000080240               0.000035573               0.000115813               0.000000000               0.000000000               0.000000000               0.000000000               0.000329251               0.000343046               0.000239508               0.000080587               0.000087485               0.000168072               0.000000000               0.000000000               0.000000000               0.000000000               0.000343776               0.000566665               0.000271728               0.000058082               0.000169526               0.000227608               0.000000000               0.000000000               0.000000000               0.000000000               0.000341105               0.000742550               0.000250968               0.000035095               0.000235816               0.000270911               0.000000000               0.000000000               0.000000000               0.000000000               0.000332281               0.000883181               0.000219425               0.000014208               0.000289655               0.000303862               0.000000000               0.000000000               0.000000000               0.000000000               0.000325973               0.001012404               0.000194302              -0.000004311               0.000338902               0.000334591               0.000000000               0.000000000               0.000000000               0.000000000               0.000318314               0.001131273               0.000174913              -0.000022041               0.000384434               0.000362393               0.000000000               0.000000000               0.000000000               0.000000000               0.000309855               0.001244459               0.000156810              -0.000039362               0.000427936               0.000388574               0.000000000               0.000000000               0.000000000               0.000000000               0.000306478               0.001368111               0.000140960              -0.000056085               0.000474727               0.000418643               0.000000000               0.000000000               0.000000000               0.000000000               0.000312164               0.001496627               0.000126735              -0.000070017               0.000522209               0.000452193               0.000000000               0.000000000               0.000000000               0.000000000               0.000321602               0.001618233               0.000109709              -0.000081678               0.000566632               0.000484954               0.000000000               0.000000000               0.000000000               0.000000000               0.000333487               0.001725973               0.000089164              -0.000090689               0.000605548               0.000514859               0.000000000               0.000000000               0.000000000               0.000000000               0.000340250               0.001813542               0.000065523              -0.000099099               0.000637541               0.000538442               0.000000000               0.000000000               0.000000000               0.000000000               0.000343539               0.001897251               0.000044031              -0.000108329               0.000668520               0.000560191               0.000000000               0.000000000               0.000000000               0.000000000               0.000350217               0.001987521               0.000029355              -0.000117109               0.000701537               0.000584428               0.000000000               0.000000000               0.000000000               0.000000000               0.000358097               0.002081579               0.000015856              -0.000125911               0.000735823               0.000609912               0.000000000               0.000000000               0.000000000               0.000000000               0.000354788               0.002125859               0.000006392              -0.000132686               0.000752841               0.000620155               0.000000000               0.000000000               0.000000000               0.000000000               0.000206344               0.000116904               0.000112133               0.000062765               0.000018046               0.000080811               0.000000000               0.000000000               0.000000000               0.000000000               0.000303620               0.000255993               0.000162013               0.000081858               0.000058044               0.000139902               0.000000000               0.000000000               0.000000000               0.000000000               0.000353650               0.000461666               0.000194991               0.000074910               0.000128917               0.000203827               0.000000000               0.000000000               0.000000000               0.000000000               0.000364787               0.000636098               0.000184967               0.000057282               0.000192936               0.000250219               0.000000000               0.000000000               0.000000000               0.000000000               0.000364970               0.000787537               0.000165403               0.000038421               0.000249703               0.000288124               0.000000000               0.000000000               0.000000000               0.000000000               0.000364229               0.000931436               0.000149112               0.000020156               0.000303757               0.000323913               0.000000000               0.000000000               0.000000000               0.000000000               0.000358972               0.001062178               0.000135188               0.000001842               0.000353442               0.000355284               0.000000000               0.000000000               0.000000000               0.000000000               0.000353368               0.001188392               0.000123399              -0.000016036               0.000401472               0.000385436               0.000000000               0.000000000               0.000000000               0.000000000               0.000354741               0.001319365               0.000114936              -0.000031893               0.000450415               0.000418522               0.000000000               0.000000000               0.000000000               0.000000000               0.000357973               0.001452294               0.000105139              -0.000047297               0.000499859               0.000452562               0.000000000               0.000000000               0.000000000               0.000000000               0.000361393               0.001577030               0.000091951              -0.000061606               0.000546207               0.000484601               0.000000000               0.000000000               0.000000000               0.000000000               0.000363569               0.001681477               0.000075695              -0.000073846               0.000585102               0.000511256               0.000000000               0.000000000               0.000000000               0.000000000               0.000368004               0.001772498               0.000055953              -0.000083560               0.000618680               0.000535120               0.000000000               0.000000000               0.000000000               0.000000000               0.000380938               0.001869665               0.000040142              -0.000090856               0.000653501               0.000562645               0.000000000               0.000000000               0.000000000               0.000000000               0.000398305               0.001973066               0.000030763              -0.000097269               0.000690105               0.000592836               0.000000000               0.000000000               0.000000000               0.000000000               0.000415834               0.002076532               0.000019114              -0.000103629               0.000726713               0.000623085               0.000000000               0.000000000               0.000000000               0.000000000               0.000421094               0.002126136               0.000010457              -0.000107856               0.000744657               0.000636801               0.000000000               0.000000000               0.000000000               0.000000000               0.000157200               0.000080262               0.000051780               0.000048917               0.000010448               0.000059365               0.000000000               0.000000000               0.000000000               0.000000000               0.000283921               0.000202844               0.000081320               0.000081114               0.000040576               0.000121690               0.000000000               0.000000000               0.000000000               0.000000000               0.000358848               0.000391481               0.000101869               0.000085632               0.000101949               0.000187580               0.000000000               0.000000000               0.000000000               0.000000000               0.000379611               0.000564220               0.000098336               0.000071826               0.000164130               0.000235955               0.000000000               0.000000000               0.000000000               0.000000000               0.000386919               0.000721296               0.000089426               0.000054932               0.000222119               0.000277051               0.000000000               0.000000000               0.000000000               0.000000000               0.000390671               0.000872694               0.000081074               0.000037415               0.000278423               0.000315838               0.000000000               0.000000000               0.000000000               0.000000000               0.000390374               0.001014202               0.000073483               0.000019615               0.000331526               0.000351140               0.000000000               0.000000000               0.000000000               0.000000000               0.000389234               0.001149753               0.000069222               0.000002243               0.000382499               0.000384743               0.000000000               0.000000000               0.000000000               0.000000000               0.000388849               0.001283367               0.000065938              -0.000014602               0.000432652               0.000418050               0.000000000               0.000000000               0.000000000               0.000000000               0.000387454               0.001414879               0.000060137              -0.000031564               0.000482143               0.000450579               0.000000000               0.000000000               0.000000000               0.000000000               0.000386744               0.001537387               0.000052260              -0.000047144               0.000528172               0.000481028               0.000000000               0.000000000               0.000000000               0.000000000               0.000387470               0.001646817               0.000042743              -0.000060551               0.000569117               0.000508567               0.000000000               0.000000000               0.000000000               0.000000000               0.000394726               0.001751089               0.000034091              -0.000070864               0.000607312               0.000536448               0.000000000               0.000000000               0.000000000               0.000000000               0.000411230               0.001856439               0.000027066              -0.000077843               0.000644754               0.000566911               0.000000000               0.000000000               0.000000000               0.000000000               0.000431651               0.001960826               0.000020599              -0.000083234               0.000681347               0.000598113               0.000000000               0.000000000               0.000000000               0.000000000               0.000455321               0.002067178               0.000012311              -0.000087652               0.000718270               0.000630618               0.000000000               0.000000000               0.000000000               0.000000000               0.000468019               0.002120779               0.000007003              -0.000089590               0.000736783               0.000647193               0.000000000               0.000000000               0.000000000               0.000000000               0.000000000               0.000000000               0.000000000               0.000000000               0.000000000               0.000000000               0.000000000               0.000000000               0.000000000               0.000000000               0.000000000               0.000000000               0.000000000               0.000000000               0.000000000               0.000000000               0.000000000               0.000000000               0.000000000               0.000000000               0.000000000               0.000000000               0.000000000               0.000000000               0.000000000               0.000000000               0.000000000               0.000000000               0.000000000               0.000000000               0.000000000               0.000000000               0.000000000               0.000000000               0.000000000               0.000000000               0.000000000               0.000000000               0.000000000               0.000000000               0.000000000               0.000000000               0.000000000               0.000000000               0.000000000               0.000000000               0.000000000               0.000000000               0.000000000               0.000000000               0.000000000               0.000000000               0.000000000               0.000000000               0.000000000               0.000000000               0.000000000               0.000000000               0.000000000               0.000000000               0.000000000               0.000000000               0.000000000               0.000000000               0.000000000               0.000000000               0.000000000               0.000000000               0.000000000               0.000000000               0.000000000               0.000000000               0.000000000               0.000000000               0.000000000               0.000000000               0.000000000               0.000000000               0.000000000               0.000000000               0.000000000               0.000000000               0.000000000               0.000000000               0.000000000               0.000000000               0.000000000               0.000000000               0.000000000               0.000000000               0.000000000               0.000000000               0.000000000               0.000000000               0.000000000               0.000000000               0.000000000               0.000000000               0.000000000               0.000000000               0.000000000               0.000000000               0.000000000               0.000000000               0.000000000               0.000000000               0.000000000               0.000000000               0.000000000               0.000000000               0.000000000               0.000000000               0.000000000               0.000000000               0.000000000               0.000000000               0.000000000               0.000000000               0.000000000               0.000000000               0.000000000               0.000000000               0.000000000               0.000000000               0.000000000               0.000000000               0.000000000               0.000000000               0.000000000               0.000000000               0.000000000               0.000000000               0.000000000               0.000000000               0.000000000               0.000000000               0.000000000               0.000000000               0.000000000               0.000000000               0.000000000               0.000000000               0.000000000               0.000000000               0.000000000               0.000000000               0.000000000               0.000000000               0.000000000               0.000000000               0.000000000               0.000000000               0.000000000               0.000000000               0.000000000               0.000000000               0.000000000               0.000000000               0.000000000               0.000000000               0.000000000               0.000000000               0.000000000               0.000000000               0.000000000               0.000000000               0.000000000               0.000000000               0.000000000               0.000000000 </DataArray>
</PointData>
</Piece>
</UnstructuredGrid> </VTKFile>
